Label,S_Mises,S_S11,S_S22,S_S33,S_S12,S_S13,S_S23
1.0,1747.47,-284.20699999999999,42.469900000000003,1146.6900000000001,299.10700000000003,-588.95899999999995,138.94
2.0,1747.74,-326.12299999999999,49.251100000000001,1244.6900000000001,295.71699999999998,-498.44799999999998,96.896100000000004
3.0,1747.78,-351.08600000000001,59.946199999999997,1336.47,285.28500000000003,-399.44900000000001,53.987499999999997
4.0,1748.3299999999999,-358.95100000000002,73.463800000000006,1420.1900000000001,267.95299999999997,-293.20699999999999,10.927899999999999
5.0,1749.27,-349.59800000000001,89.438000000000002,1493.6600000000001,243.28299999999999,-181.00999999999999,-31.5549
6.0,1750.96,-322.89299999999997,106.22,1554.51,211.55699999999999,-64.878200000000007,-72.559600000000003
7.0,1753.6600000000001,-272.43400000000003,128.92500000000001,1607.22,173.245,53.109200000000001,-111.117
8.0,1757.73,-204.94800000000001,150.90100000000001,1644.4200000000001,128.64699999999999,170.47499999999999,-146.18600000000001
9.0,1763.3199999999999,-114.474,177.78899999999999,1671.6700000000001,78.678200000000004,284.60399999999998,-177.02600000000001
10.0,1770.4200000000001,-5.9979300000000002,205.36799999999999,1684.9000000000001,24.2332,392.887,-202.57599999999999
11.0,1778.99,116.505,232.464,1682.78,-34.0886,492.78199999999998,-221.93600000000001
12.0,1788.6099999999999,249.971,257.25099999999998,1665.0,-94.492699999999999,581.73599999999999,-234.53700000000001
13.0,1798.5,398.02800000000002,284.471,1638.3900000000001,-154.76400000000001,657.50400000000002,-240.52699999999999
14.0,1808.1300000000001,552.90800000000002,310.185,1600.7,-213.49600000000001,718.63999999999999,-239.55500000000001
15.0,1816.3499999999999,707.35599999999999,331.87,1551.2,-269.34399999999999,763.87599999999998,-231.69900000000001
16.0,1822.53,863.14499999999998,353.214,1496.8699999999999,-320.28399999999999,793.03999999999996,-217.833
17.0,1825.22,1012.1900000000001,371.10399999999998,1435.54,-364.80599999999998,806.60199999999998,-198.93199999999999
18.0,1824.99,1149.4000000000001,383.12400000000002,1368.5,-402.01400000000001,806.22900000000004,-175.74199999999999
19.0,1818.5999999999999,1274.6500000000001,393.82299999999998,1299.29,-430.99799999999999,792.505,-150.19399999999999
20.0,1810.6700000000001,1384.3,396.29899999999998,1226.4100000000001,-451.64100000000002,769.46600000000001,-122.819
21.0,1793.5799999999999,1481.6900000000001,405.44799999999998,1156.99,-464.85500000000002,736.18200000000002,-97.458399999999997
22.0,1778.05,1548.74,382.88200000000001,1063.22,-466.06400000000002,699.28200000000004,-68.098200000000006
23.0,1778.74,1561.6400000000001,308.65699999999998,929.15300000000002,-471.637,661.57600000000002,-44.807499999999997
24.0,1768.3399999999999,1601.28,285.488,837.51900000000001,-474.94499999999999,615.96500000000003,-28.287400000000002
25.0,1754.0599999999999,1693.75,320.78800000000001,796.34799999999996,-468.64800000000002,565.46299999999997,-10.9177
26.0,1746.75,1792.05,363.49599999999998,759.98299999999995,-460.28699999999998,511.16000000000003,6.5339499999999999
27.0,1741.22,-752.43399999999997,-256.935,425.70299999999997,611.07899999999995,-483.31999999999999,231.68299999999999
28.0,1744.03,-792.39099999999996,-244.16200000000001,510.92399999999998,618.70899999999995,-411.28699999999998,183.55799999999999
29.0,1745.1600000000001,-835.21900000000005,-242.179,577.54499999999996,620.50300000000004,-330.35599999999999,133.327
30.0,1743.8299999999999,-853.59799999999996,-225.69999999999999,648.83199999999999,615.78599999999994,-241.53700000000001,81.964299999999994
31.0,1740.6099999999999,-869.62900000000002,-218.083,700.67999999999995,604.30100000000004,-146.30199999999999,30.034800000000001
32.0,1735.4100000000001,-856.62699999999995,-193.95099999999999,757.27800000000002,585.84100000000001,-45.787799999999997,-21.5412
33.0,1728.4100000000001,-843.26599999999996,-182.88800000000001,788.10400000000004,560.21600000000001,58.2226,-72.005700000000004
34.0,1719.76,-797.83900000000006,-154.32599999999999,822.94000000000005,527.72199999999998,163.92599999999999,-120.346
35.0,1709.6800000000001,-750.91600000000005,-139.083,830.34100000000001,488.58300000000003,269.14800000000002,-165.63300000000001
36.0,1698.4100000000001,-673.97000000000003,-108.911,838.27099999999996,443.55399999999997,371.60300000000001,-206.91999999999999
37.0,1686.3199999999999,-591.84299999999996,-88.170000000000002,822.47799999999995,393.55799999999999,468.88999999999999,-243.44399999999999
38.0,1673.5799999999999,-479.78699999999998,-51.353000000000002,808.827,339.67200000000003,558.76800000000003,-274.52100000000002
39.0,1660.3599999999999,-371.14400000000001,-29.741599999999998,766.73599999999999,282.95800000000003,638.91899999999998,-299.49299999999999
40.0,1646.76,-240.17099999999999,4.1586800000000004,725.03899999999999,224.834,707.38199999999995,-318.06999999999999
41.0,1633.3,-111.911,27.611899999999999,662.28599999999994,167.041,762.73699999999997,-330.56200000000001
42.0,1620.3900000000001,30.309999999999999,59.9422,600.60500000000002,111.22,803.86400000000003,-337.02499999999998
43.0,1607.0599999999999,159.654,78.553700000000006,518.40999999999997,58.434100000000001,829.86800000000005,-337.62599999999998
44.0,1594.0899999999999,297.18200000000002,105.90300000000001,440.59800000000001,9.6753599999999995,841.274,-333.18599999999998
45.0,1580.24,418.35399999999998,122.443,348.02499999999998,-33.483800000000002,837.64300000000003,-325.15100000000001
46.0,1567.8199999999999,537.13,140.20099999999999,257.36700000000002,-70.872399999999999,821.25400000000002,-313.505
47.0,1552.21,637.93499999999995,154.934,160.321,-102.717,790.46199999999999,-301.38099999999997
48.0,1539.25,715.81899999999996,144.14599999999999,44.401800000000001,-124.41,749.94799999999998,-283.911
49.0,1538.6900000000001,743.17600000000004,88.224100000000007,-108.779,-150.14599999999999,703.04300000000001,-271.00599999999997
50.0,1531.55,829.18399999999997,120.751,-184.85300000000001,-172.774,642.64999999999998,-261.62
51.0,1522.9200000000001,924.601,164.84899999999999,-244.27799999999999,-183.089,572.29999999999995,-245.417
52.0,1523.76,980.53899999999999,170.84299999999999,-328.37200000000001,-194.447,497.39800000000002,-228.892
53.0,1602.28,-672.31100000000004,-230.73500000000001,240.423,672.77200000000005,-369.18299999999999,241.874
54.0,1617.29,-734.09000000000003,-241.72800000000001,281.721,690.41999999999996,-313.67899999999997,196.86099999999999
55.0,1631.21,-771.30200000000002,-233.19300000000001,335.79000000000002,703.471,-250.97200000000001,150.34
56.0,1643.6600000000001,-815.94399999999996,-238.119,369.32299999999998,711.36900000000003,-181.447,101.40000000000001
57.0,1653.8900000000001,-835.64700000000005,-225.84,411.17200000000003,713.69100000000003,-105.501,50.990499999999997
58.0,1661.8599999999999,-860.70899999999995,-227.76400000000001,429.40300000000002,709.82600000000002,-24.2712,-0.49759500000000001
59.0,1667.3599999999999,-854.63800000000003,-208.80500000000001,457.86700000000002,699.66399999999999,61.161499999999997,-52.216200000000001
60.0,1670.3,-852.32600000000002,-204.64699999999999,460.14299999999997,682.86199999999997,149.32300000000001,-103.429
61.0,1670.5999999999999,-817.64200000000005,-180.21799999999999,470.42000000000002,659.64499999999998,238.51400000000001,-153.25399999999999
62.0,1668.2,-783.36300000000006,-168.554,455.12700000000001,630.07399999999996,326.87,-200.80600000000001
63.0,1663.01,-721.27499999999998,-141.898,441.61599999999999,594.70899999999995,412.25599999999997,-245.262
64.0,1655.1800000000001,-662.00199999999995,-130.20500000000001,399.99099999999999,554.12,492.49200000000002,-285.75200000000001
65.0,1645.1199999999999,-572.69799999999998,-100.04300000000001,363.81799999999998,509.358,565.53399999999999,-321.86099999999999
66.0,1633.6500000000001,-486.16500000000002,-82.945599999999999,302.947,461.51499999999999,629.45799999999997,-353.11700000000002
67.0,1620.52,-379.92500000000001,-54.226999999999997,242.98500000000001,411.524,682.20600000000002,-378.86000000000001
68.0,1606.53,-281.91000000000003,-39.506799999999998,159.376,360.11399999999998,722.89400000000001,-399.01999999999998
69.0,1593.1500000000001,-164.714,-9.9898399999999992,83.547600000000003,309.56700000000001,750.07399999999996,-414.58199999999999
70.0,1580.4200000000001,-61.588900000000002,3.6654800000000001,-12.311999999999999,260.94799999999998,763.24699999999996,-425.18299999999999
71.0,1567.5599999999999,49.572600000000001,27.9513,-100.91800000000001,214.93000000000001,761.803,-431.18200000000002
72.0,1555.1199999999999,143.238,37.956299999999999,-204.643,172.02799999999999,746.57299999999998,-432.82600000000002
73.0,1543.01,239.904,59.787199999999999,-296.55099999999999,132.916,717.41300000000001,-432.142
74.0,1533.22,313.17700000000002,61.148699999999998,-405.28300000000002,99.570599999999999,676.63499999999999,-427.74099999999999
75.0,1527.3099999999999,374.27699999999999,55.2423,-514.99900000000002,65.006699999999995,626.255,-422.10500000000002
76.0,1519.3900000000001,431.65199999999999,67.535600000000002,-607.17600000000004,31.261700000000001,564.01300000000003,-415.452
77.0,1512.21,510.86599999999999,107.541,-662.69200000000001,7.3737300000000001,492.685,-404.88799999999998
78.0,1511.28,550.79499999999996,109.77800000000001,-743.15300000000002,-16.2364,415.66800000000001,-394.42099999999999
79.0,1279.8399999999999,-489.24700000000001,-228.55699999999999,177.58199999999999,566.88199999999995,-267.68900000000002,200.15000000000001
80.0,1305.29,-552.59699999999998,-248.607,193.89500000000001,589.61800000000005,-228.41,164.90199999999999
81.0,1329.6300000000001,-581.53399999999999,-237.03100000000001,236.04599999999999,609.32299999999998,-182.209,127.854
82.0,1352.97,-635.23599999999999,-254.02600000000001,244.523,625.072,-130.809,87.794899999999998
83.0,1375.0799999999999,-651.74000000000001,-238.83199999999999,278.22500000000002,636.88800000000003,-73.832999999999998,45.773800000000001
84.0,1395.5899999999999,-688.92700000000002,-249.85400000000001,278.62299999999999,643.71299999999997,-12.173999999999999,1.7783
85.0,1414.0999999999999,-689.91800000000001,-232.102,299.32299999999998,645.52999999999997,53.512,-43.429499999999997
86.0,1430.3900000000001,-708.63699999999994,-239.649,285.84399999999999,641.55799999999999,122.145,-89.302000000000007
87.0,1444.04,-688.50900000000001,-217.68600000000001,291.83100000000002,632.01499999999999,192.39099999999999,-135.04400000000001
88.0,1454.8599999999999,-687.01999999999998,-223.43000000000001,259.61099999999999,616.47799999999995,262.86099999999999,-179.834
89.0,1462.52,-641.11199999999997,-194.916,250.16,595.58100000000002,331.63099999999997,-222.94499999999999
90.0,1467.04,-612.66200000000003,-193.262,202.226,569.23199999999997,397.291,-263.58199999999999
91.0,1468.04,-544.35799999999995,-161.601,172.61500000000001,538.33600000000001,457.32299999999998,-301.20100000000002
92.0,1465.9100000000001,-498.45100000000002,-160.43700000000001,100.75700000000001,502.81999999999999,510.86599999999999,-335.012
93.0,1462.1900000000001,-409.435,-124.721,54.542400000000001,464.32499999999999,555.60500000000002,-365.54300000000001
94.0,1456.79,-342.39299999999997,-118.392,-27.966899999999999,423.74099999999999,589.92100000000005,-391.976
95.0,1449.8699999999999,-244.322,-84.758300000000006,-89.612899999999996,381.26100000000002,613.52300000000002,-413.15899999999999
96.0,1441.97,-176.86000000000001,-81.942800000000005,-186.387,337.79199999999997,625.60199999999998,-429.27699999999999
97.0,1432.4000000000001,-75.933199999999999,-46.541200000000003,-252.06800000000001,295.44799999999998,624.32799999999997,-441.01799999999997
98.0,1421.6300000000001,-11.212899999999999,-45.4863,-352.012,254.399,610.53599999999994,-448.32100000000003
99.0,1410.52,80.883899999999997,-12.4329,-418.29000000000002,215.30099999999999,584.69299999999998,-452.255
100.0,1398.8299999999999,133.30699999999999,-13.0342,-515.14400000000001,178.501,547.74900000000002,-452.41699999999997
101.0,1386.6400000000001,203.98400000000001,8.4055300000000006,-581.83600000000001,143.58099999999999,500.875,-449.524
102.0,1374.3,235.81899999999999,1.1596299999999999,-670.03499999999997,109.06,445.56799999999998,-445.10500000000002
103.0,1361.6300000000001,300.51900000000001,35.943399999999997,-709.04999999999995,78.657499999999999,382.73000000000002,-437.38200000000001
104.0,1349.48,323.536,35.322400000000002,-772.73699999999997,50.215699999999998,315.17500000000001,-426.846
105.0,961.73900000000003,-252.85499999999999,-124.77500000000001,250.24000000000001,422.899,-197.744,148.358
106.0,987.47699999999998,-304.48500000000001,-144.13399999999999,257.13099999999997,444.95800000000003,-168.405,122.473
107.0,1013.42,-332.05399999999997,-140.215,282.75900000000001,465.23599999999999,-133.83799999999999,95.034499999999994
108.0,1039.3599999999999,-376.59500000000003,-155.797,284.81099999999998,483.185,-95.121799999999993,64.697800000000001
109.0,1064.8800000000001,-397.74599999999998,-150.87700000000001,301.95800000000003,498.30500000000001,-52.071399999999997,32.199599999999997
110.0,1089.74,-433.94600000000003,-165.06899999999999,294.47000000000003,510.03300000000002,-5.2251700000000003,-2.4115099999999998
111.0,1113.6300000000001,-442.005,-155.69800000000001,304.16399999999999,517.85199999999998,44.915999999999997,-38.7117
112.0,1136.1199999999999,-463.142,-165.13200000000001,288.03300000000002,521.39200000000005,97.632300000000001,-76.182699999999997
113.0,1156.8900000000001,-455.22699999999998,-151.63999999999999,287.20499999999998,520.25999999999999,151.952,-114.215
114.0,1175.3299999999999,-456.392,-154.203,261.48000000000002,514.48099999999999,206.68899999999999,-152.136
115.0,1191.02,-432.63,-138.96100000000001,244.34700000000001,503.892,260.59399999999999,-189.16999999999999
116.0,1203.3,-418.31299999999999,-140.488,199.53399999999999,488.92500000000001,311.80700000000002,-224.97300000000001
117.0,1212.6300000000001,-376.45699999999999,-121.687,165.00299999999999,469.60599999999999,359.64600000000002,-258.66000000000003
118.0,1218.28,-340.48000000000002,-116.099,107.98099999999999,446.34300000000002,400.79899999999998,-290.85300000000001
119.0,1221.0799999999999,-283.67000000000002,-96.195700000000002,54.965299999999999,419.26499999999999,436.387,-319.404
120.0,1223.8199999999999,-242.12,-94.743499999999997,-20.878299999999999,387.86700000000002,466.226,-344.59800000000001
121.0,1222.6400000000001,-173.66399999999999,-70.201999999999998,-75.646199999999993,353.80099999999999,484.65199999999999,-367.19099999999997
122.0,1216.24,-113.569,-61.0152,-147.12899999999999,318.75200000000001,492.36200000000002,-383.63099999999997
123.0,1207.6099999999999,-41.825299999999999,-40.586799999999997,-207.74600000000001,281.99099999999999,490.85199999999998,-395.48599999999999
124.0,1197.3399999999999,15.525600000000001,-31.828499999999998,-280.45100000000002,245.876,478.70499999999998,-403.71699999999998
125.0,1185.05,79.556700000000006,-12.774100000000001,-340.565,210.88900000000001,456.60300000000001,-407.93099999999998
126.0,1170.76,127.804,-4.4241999999999999,-407.48099999999999,177.27500000000001,424.95400000000001,-408.82499999999999
127.0,1155.73,182.14599999999999,14.8363,-457.46800000000002,145.10300000000001,386.00400000000002,-406.39699999999999
128.0,1139.8699999999999,219.09,23.129999999999999,-511.40800000000002,113.94799999999999,340.57999999999998,-401.44999999999999
129.0,1122.8499999999999,260.88999999999999,41.561900000000001,-546.26999999999998,84.6173,289.88799999999998,-393.54300000000001
130.0,1104.5699999999999,284.94200000000001,49.137,-582.33600000000001,57.086199999999998,235.17500000000001,-383.45100000000002
131.0,704.28700000000003,-139.77099999999999,-103.258,255.017,290.01499999999999,-152.29599999999999,102.202
132.0,725.16399999999999,-122.974,-63.136099999999999,315.54300000000001,308.13299999999998,-129.43799999999999,83.914500000000004
133.0,746.39400000000001,-197.91900000000001,-115.20999999999999,280.21600000000001,325.25900000000001,-102.488,64.045900000000003
134.0,768.20500000000004,-176.75700000000001,-73.3386,335.48000000000002,341.08800000000002,-72.446600000000004,41.890500000000003
135.0,790.39200000000005,-247.11099999999999,-124.649,293.339,355.09500000000003,-39.127400000000002,17.808199999999999
136.0,812.74000000000001,-216.81299999999999,-78.486599999999996,344.38099999999997,366.91300000000001,-2.9276599999999999,-8.1719899999999992
137.0,835.02499999999998,-281.21300000000002,-130.00999999999999,292.911,375.89800000000002,35.818600000000004,-35.823599999999999
138.0,856.95699999999999,-241.267,-81.607799999999997,336.26299999999998,381.85300000000001,76.520600000000002,-64.676000000000002
139.0,878.14200000000005,-295.54399999999998,-131.54400000000001,275.32100000000003,384.31099999999998,118.571,-94.358000000000004
140.0,898.00800000000004,-245.16300000000001,-82.157700000000006,307.13900000000001,383.40699999999998,160.90700000000001,-124.048
141.0,915.91700000000003,-285.37799999999999,-127.867,235.17400000000001,379.13,202.583,-153.59700000000001
142.0,931.24599999999998,-218.84800000000001,-72.197800000000001,255.78700000000001,371.80000000000001,242.26499999999999,-181.893
143.0,943.35000000000002,-248.18299999999999,-116.563,164.91800000000001,361.22800000000001,278.34199999999998,-210.09800000000001
144.0,954.10400000000004,-173.17599999999999,-61.263300000000001,164.46299999999999,347.99599999999998,311.48599999999999,-236.07900000000001
145.0,961.77599999999995,-194.84299999999999,-106.375,58.611400000000003,329.82900000000001,339.23599999999999,-260.61900000000003
146.0,964.24800000000005,-135.595,-79.196200000000005,25.934899999999999,306.16300000000001,360.959,-281.38400000000001
147.0,963.90300000000002,-146.91800000000001,-121.867,-77.888800000000003,277.39699999999999,375.14299999999997,-301.33199999999999
148.0,960.38999999999999,-13.864800000000001,-25.3599,-46.059399999999997,250.643,379.90199999999999,-316.28500000000003
149.0,954.49599999999998,2.65076,-53.422899999999998,-134.84,222.59,379.30599999999998,-324.791
150.0,945.46400000000006,97.221000000000004,4.5689200000000003,-138.667,192.167,369.60899999999998,-332.12200000000001
151.0,933.37300000000005,95.833799999999997,-30.272099999999998,-234.77799999999999,164.416,351.24900000000002,-334.88600000000002
152.0,919.25300000000004,184.477,28.803000000000001,-233.477,136.47999999999999,325.78500000000003,-335.10399999999998
153.0,903.303,172.16499999999999,-9.2265999999999995,-324.10000000000002,109.619,294.38499999999999,-332.04199999999997
154.0,886.22000000000003,251.92099999999999,48.975299999999997,-311.38099999999997,83.571299999999994,258.209,-326.72199999999998
155.0,868.56899999999996,230.857,9.9334600000000002,-388.339,58.997900000000001,219.01499999999999,-318.66899999999998
156.0,849.77300000000002,302.78100000000001,70.054400000000001,-358.63,35.704500000000003,177.21799999999999,-308.96199999999999
157.0,541.54600000000005,8.3178999999999998,2.3582200000000002,338.65899999999999,200.44200000000001,-124.39100000000001,71.163300000000007
158.0,555.41700000000003,-53.776699999999998,-42.824599999999997,310.53100000000001,213.36199999999999,-105.253,57.250799999999998
159.0,569.88900000000001,-33.345799999999997,-6.2496099999999997,361.15899999999999,225.90700000000001,-82.9465,42.236600000000003
160.0,585.14999999999998,-92.730800000000002,-50.928400000000003,327.68799999999999,237.58699999999999,-58.271599999999999,25.473500000000001
161.0,600.92700000000002,-68.780799999999999,-14.159700000000001,372.065,248.19999999999999,-31.070799999999998,7.2696500000000004
162.0,617.43399999999997,-125.377,-60.118000000000002,330.50900000000001,257.16899999999998,-1.7567600000000001,-12.476599999999999
163.0,634.40899999999999,-92.997799999999998,-19.872199999999999,371.24700000000001,264.31099999999998,29.436800000000002,-33.530200000000001
164.0,652.00099999999998,-142.04499999999999,-64.130600000000001,324.11700000000002,269.05700000000002,62.162599999999998,-55.622100000000003
165.0,669.59000000000003,-99.350700000000003,-20.1449,360.37200000000001,271.57299999999998,95.695599999999999,-78.351399999999998
166.0,687.178,-138.334,-61.5884,306.68200000000002,271.59199999999998,129.744,-101.07899999999999
167.0,702.94600000000003,-86.328500000000005,-15.2987,332.10899999999998,270.01100000000002,162.42599999999999,-123.634
168.0,717.53999999999996,-123.123,-62.032800000000002,257.16699999999997,266.57799999999997,194.20400000000001,-145.38
169.0,728.83199999999999,-59.455500000000001,-8.5671800000000005,268.21100000000001,262.50200000000001,220.83699999999999,-168.21299999999999
170.0,737.40300000000002,-105.896,-72.514099999999999,156.322,255.24100000000001,248.024,-184.97999999999999
171.0,744.73000000000002,-95.763999999999996,-78.671300000000002,105.24299999999999,239.994,269.09300000000002,-206.024
172.0,747.89300000000003,-105.233,-111.30800000000001,24.886399999999998,223.28899999999999,282.26900000000001,-225.81999999999999
173.0,748.93600000000004,-6.6553100000000001,-46.2286,45.512300000000003,202.124,293.13600000000002,-240.97399999999999
174.0,747.20500000000004,26.725999999999999,-40.710799999999999,1.83626,179.37100000000001,298.428,-252.40600000000001
175.0,743.42499999999995,129.65899999999999,28.825900000000001,24.056999999999999,158.41800000000001,299.197,-257.012
176.0,735.68700000000001,118.563,-9.8968100000000003,-61.621000000000002,134.51900000000001,291.87,-261.76600000000002
177.0,723.68299999999999,195.273,42.276800000000001,-58.825200000000002,112.898,276.60700000000003,-262.58199999999999
178.0,710.60799999999995,182.35400000000001,7.4589800000000004,-139.13399999999999,90.863,256.26999999999998,-261.69799999999998
179.0,696.51599999999996,253.32400000000001,59.1372,-128.95599999999999,69.982500000000002,231.15799999999999,-258.53899999999999
180.0,682.15599999999995,237.03800000000001,26.651,-197.184,49.472000000000001,203.21600000000001,-253.40799999999999
181.0,667.08399999999995,299.92599999999999,75.639399999999995,-177.489,30.251799999999999,172.71799999999999,-246.041
182.0,651.38900000000001,276.55900000000003,42.810200000000002,-233.32599999999999,11.870100000000001,140.90100000000001,-237.26900000000001
183.0,443.39499999999998,3.38822,-24.0138,289.64299999999997,146.214,-105.986,52.372199999999999
184.0,452.15199999999999,21.0687,6.9864600000000001,335.322,154.99799999999999,-89.338999999999999,41.008099999999999
185.0,461.245,-24.875299999999999,-26.657499999999999,313.95600000000002,163.37299999999999,-70.199200000000005,28.7349
186.0,470.83699999999999,-4.52501,4.5466300000000004,354.75799999999998,171.12700000000001,-49.072200000000002,15.3002
187.0,480.97399999999999,-46.8733,-28.653099999999998,328.27999999999997,178.01499999999999,-26.004200000000001,0.79677900000000002
188.0,491.77600000000001,-20.2212,5.1052200000000001,365.89299999999997,183.69499999999999,-1.25526,-14.8413
189.0,503.45499999999998,-59.119999999999997,-29.107199999999999,332.90499999999997,187.81800000000001,24.9026,-31.418600000000001
190.0,516.03700000000003,-26.5702,5.4373399999999998,365.82100000000003,190.19499999999999,52.225499999999997,-48.833199999999998
191.0,529.59799999999996,-59.629800000000003,-28.695399999999999,327.40300000000002,190.72200000000001,80.261499999999998,-66.444500000000005
192.0,543.33100000000002,-21.3628,5.5278200000000002,352.52300000000002,189.89099999999999,108.413,-84.288499999999999
193.0,556.55899999999997,-47.444699999999997,-27.771699999999999,304.55700000000002,188.40600000000001,135.84700000000001,-100.89100000000001
194.0,567.24800000000005,0.27488099999999999,11.2845,317.92000000000002,186.792,160.553,-118.663
195.0,574.13300000000004,-28.236699999999999,-27.067599999999999,241.083,186.25999999999999,182.45599999999999,-133.49199999999999
196.0,581.54499999999996,-27.782699999999998,-43.7714,186.495,182.57400000000001,203.13900000000001,-146.971
197.0,589.52700000000004,-94.778099999999995,-129.03800000000001,68.414900000000003,171.81399999999999,218.30099999999999,-165.95099999999999
198.0,593.44500000000005,-12.8104,-61.598300000000002,97.134200000000007,157.86500000000001,227.595,-184.55500000000001
199.0,594.48699999999997,51.381500000000003,-21.992899999999999,98.0518,143.07300000000001,236.851,-193.84100000000001
200.0,593.79499999999996,134.52500000000001,32.302700000000002,118.086,123.73399999999999,245.07300000000001,-197.85599999999999
201.0,589.03300000000002,128.41499999999999,3.4765799999999998,52.016199999999998,103.711,245.91900000000001,-201.13200000000001
202.0,581.20500000000004,190.96100000000001,44.361800000000002,54.507899999999999,86.958500000000001,239.06100000000001,-202.94200000000001
203.0,570.86300000000006,183.84299999999999,17.062899999999999,-12.135999999999999,70.371700000000004,225.93600000000001,-203.59200000000001
204.0,559.74699999999996,240.76599999999999,56.441600000000001,-10.3406,54.348199999999999,208.815,-202.40199999999999
205.0,548.61099999999999,226.904,27.620000000000001,-73.368799999999993,38.143099999999997,188.77600000000001,-199.71700000000001
206.0,537.10900000000004,278.53300000000002,66.446399999999997,-63.8979,22.692,166.28200000000001,-195.25899999999999
207.0,525.89099999999996,261.13200000000001,37.740299999999998,-116.782,7.8561800000000002,142.27600000000001,-189.16399999999999
208.0,514.45600000000002,308.69200000000001,77.295500000000004,-96.460899999999995,-5.9641200000000003,117.27200000000001,-181.98699999999999
209.0,385.81999999999999,57.873899999999999,19.1065,310.476,119.44199999999999,-92.194100000000006,42.645800000000001
210.0,391.46899999999999,18.467199999999998,-9.0456900000000005,295.07299999999998,125.459,-77.409000000000006,32.526600000000002
211.0,397.43299999999999,36.2194,18.9636,333.87099999999998,130.988,-60.655099999999997,21.692699999999999
212.0,403.49400000000003,-0.48358099999999998,-8.8874899999999997,314.185,135.959,-42.104999999999997,10.0459
213.0,409.96300000000002,19.720400000000001,18.5427,347.45100000000002,140.00999999999999,-21.977499999999999,-2.39255
214.0,416.81,-14.286199999999999,-10.147399999999999,321.84800000000001,143.03999999999999,-0.48385299999999998,-15.6678
215.0,424.75999999999999,11.881500000000001,19.146899999999999,352.625,144.48500000000001,22.218,-29.602799999999998
216.0,433.52499999999998,-14.7287,-6.7428499999999998,325.55900000000003,144.53,45.726700000000001,-44.204599999999999
217.0,444.20699999999999,17.625299999999999,23.406500000000001,353.84199999999998,142.66399999999999,70.256299999999996,-58.654400000000003
218.0,454.67500000000001,1.5222599999999999,2.74593,325.99799999999999,140.31700000000001,94.161799999999999,-73.427400000000006
219.0,466.01499999999999,35.213999999999999,27.9072,340.96800000000002,137.54900000000001,118.883,-86.096599999999995
220.0,472.34500000000003,22.6723,7.7647700000000004,296.74599999999998,136.614,137.619,-101.455
221.0,476.19799999999998,49.089599999999997,19.527100000000001,275.44499999999999,138.72399999999999,156.893,-110.126
222.0,483.30700000000002,-31.9786,-74.874600000000001,150.60400000000001,135.90000000000001,172.99299999999999,-123.006
223.0,488.22199999999998,-26.247900000000001,-79.716399999999993,112.815,128.173,184.11000000000001,-138.749
224.0,491.10899999999998,-2.72743,-68.077600000000004,93.1404,114.172,193.749,-152.46899999999999
225.0,489.40100000000001,121.11499999999999,37.446599999999997,168.15000000000001,99.656899999999993,201.01400000000001,-158.483
226.0,489.69200000000001,141.376,24.9712,133.94499999999999,84.555999999999997,209.14599999999999,-157.46199999999999
227.0,487.18700000000001,174.89400000000001,36.923000000000002,119.46299999999999,66.773600000000002,209.53200000000001,-161.042
228.0,479.03699999999998,172.46299999999999,17.571899999999999,65.406599999999997,54.867800000000003,202.42500000000001,-161.91300000000001
229.0,470.80500000000001,225.172,55.594900000000003,68.398499999999999,43.060699999999997,191.405,-162.72499999999999
230.0,461.62299999999999,217.46299999999999,34.0901,13.4353,31.710000000000001,176.745,-161.785
231.0,452.86399999999998,259.70800000000003,64.628799999999998,14.4983,19.057099999999998,160.096,-159.95400000000001
232.0,444.15300000000002,247.506,42.040500000000002,-33.9739,7.2837300000000003,141.351,-156.589
233.0,436.23599999999999,288.18400000000003,73.242500000000007,-24.043099999999999,-4.4100599999999996,121.71899999999999,-151.90000000000001
234.0,428.32799999999997,270.71199999999999,48.735300000000002,-65.844200000000001,-15.1737,101.188,-146.31200000000001
235.0,345.71300000000002,27.007000000000001,-21.717600000000001,249.964,104.76900000000001,-80.614699999999999,37.169400000000003
236.0,350.01600000000002,44.842100000000002,6.1331499999999997,288.95999999999998,109.47199999999999,-67.544499999999999,27.874300000000002
237.0,354.39299999999997,10.359999999999999,-19.3307,272.87400000000002,113.55800000000001,-52.753599999999999,17.979700000000001
238.0,358.65899999999999,30.814800000000002,8.8884500000000006,308.02699999999999,117.035,-36.388300000000001,7.46272
239.0,363.11900000000003,-0.31878899999999999,-15.9451,287.99900000000002,119.57599999999999,-18.6417,-3.69876
240.0,367.745,26.028099999999998,14.984299999999999,321.26100000000002,121.063,0.2437,-15.5121
241.0,373.36799999999999,-2.5775899999999998,-10.9709,296.40600000000001,120.93000000000001,20.221900000000002,-27.892499999999998
242.0,379.86700000000002,29.418600000000001,21.516100000000002,328.02499999999998,119.334,40.848399999999998,-40.7545
243.0,388.56999999999999,4.9483100000000002,-5.15252,300.47300000000001,115.76600000000001,62.6449,-53.498199999999997
244.0,397.37799999999999,43.022100000000002,28.461600000000001,329.02499999999998,111.863,83.779799999999994,-66.176400000000001
245.0,407.005,22.252400000000002,-0.95067100000000004,291.60199999999998,107.804,105.95,-76.971999999999994
246.0,411.089,68.781300000000002,38.7973,309.59300000000002,107.066,121.69499999999999,-89.566400000000002
247.0,412.70699999999999,30.947099999999999,-13.000999999999999,226.99700000000001,109.83499999999999,138.893,-95.357500000000002
248.0,417.80000000000001,-3.7447300000000001,-60.329099999999997,153.81999999999999,107.02800000000001,151.52199999999999,-107.03700000000001
249.0,418.71899999999999,-41.852400000000003,-108.67400000000001,78.076499999999996,99.590999999999994,158.233,-120.548
250.0,419.62700000000001,36.323300000000003,-44.332299999999996,120.081,85.933499999999995,166.31200000000001,-129.97200000000001
251.0,419.86200000000002,95.064599999999999,-2.1690100000000001,140.17400000000001,71.778700000000001,174.01300000000001,-134.30199999999999
252.0,422.24099999999999,177.03299999999999,52.743499999999997,175.58000000000001,59.317100000000003,182.55500000000001,-132.268
253.0,421.87,162.22300000000001,20.069900000000001,119.648,45.903799999999997,183.36600000000001,-135.17400000000001
254.0,414.15800000000002,208.73099999999999,52.174399999999999,119.613,37.185299999999998,176.50899999999999,-135.90799999999999
255.0,405.447,193.352,26.189599999999999,61.5488,28.019300000000001,166.34100000000001,-136.31
256.0,396.82499999999999,233.98500000000001,56.740900000000003,61.874200000000002,19.350999999999999,153.161,-135.941
257.0,389.61399999999998,216.727,29.8324,8.6962299999999999,9.4687999999999999,138.60400000000001,-134.87100000000001
258.0,382.82999999999998,255.72,60.094499999999996,16.008400000000002,-0.20895900000000001,122.55200000000001,-132.495
259.0,376.94799999999998,237.965,34.1736,-28.831399999999999,-9.7902900000000006,105.83,-128.922
260.0,371.39100000000002,274.06599999999997,63.775100000000002,-14.7431,-18.761299999999999,88.3904,-124.55
261.0,314.27999999999997,61.505400000000002,3.5584699999999998,257.93000000000001,95.250500000000002,-70.438800000000001,33.3994
262.0,318.02999999999997,29.223400000000002,-19.915800000000001,244.28999999999999,99.424199999999999,-58.883899999999997,24.8261
263.0,321.74400000000003,46.338500000000003,5.181,277.517,103.002,-45.816600000000001,15.7186
264.0,325.24799999999999,16.4726,-17.806699999999999,260.45100000000002,105.93000000000001,-31.351199999999999,6.06168
265.0,328.68700000000001,35.671599999999998,7.0009199999999998,289.05399999999997,107.944,-15.6839,-4.1693499999999997
266.0,332.20699999999999,7.9260799999999998,-16.584299999999999,267.14499999999998,108.84,0.97968200000000005,-14.9598
267.0,336.38600000000002,32.671399999999998,10.716699999999999,294.82400000000001,108.139,18.557400000000001,-26.324200000000001
268.0,341.67200000000003,11.3149,-9.9183500000000002,273.524,105.738,36.866900000000001,-38.070599999999999
269.0,348.887,42.634599999999999,19.892600000000002,302.55900000000003,101.343,56.143900000000002,-49.884900000000002
270.0,357.20800000000003,30.445,3.7099700000000002,283.358,96.2654,75.539100000000005,-61.200000000000003
271.0,365.54899999999998,64.833299999999994,30.717199999999998,303.40800000000002,91.400599999999997,94.973500000000001,-71.374499999999998
272.0,368.53300000000002,52.177199999999999,10.1722,263.85300000000001,90.216999999999999,109.73,-81.270099999999999
273.0,368.89600000000002,59.997300000000003,3.3432499999999998,231.44,92.072199999999995,123.598,-86.617199999999997
274.0,370.95499999999998,-14.2691,-83.221000000000004,120.23999999999999,90.466300000000004,132.589,-96.942800000000005
275.0,373.65899999999999,-2.3919000000000001,-79.380600000000001,100.35299999999999,84.563699999999997,139.446,-108.687
276.0,375.60599999999999,33.107900000000001,-52.9696,108.919,72.161600000000007,146.47300000000001,-117.492
277.0,374.78699999999998,140.274,37.7029,181.83099999999999,58.293599999999998,154.38300000000001,-118.685
278.0,377.017,153.96199999999999,27.9329,154.727,44.519500000000001,163.405,-115.63200000000001
279.0,375.44600000000003,188.53899999999999,49.308799999999998,153.18199999999999,33.198700000000002,163.81700000000001,-117.52
280.0,367.98000000000002,179.80199999999999,27.722999999999999,102.50700000000001,27.4176,157.06899999999999,-118.03100000000001
281.0,359.88799999999998,209.48699999999999,47.763300000000001,94.4649,20.4436,146.84800000000001,-119.429
282.0,351.61700000000002,194.80799999999999,25.059200000000001,44.789900000000003,13.714399999999999,134.26599999999999,-119.907
283.0,345.15499999999997,228.274,50.768599999999999,46.865000000000002,5.6301699999999997,121.18600000000001,-119.39100000000001
284.0,339.601,213.63,28.7727,4.4404500000000002,-2.7147299999999999,107.169,-117.741
285.0,334.95999999999998,247.34700000000001,55.390500000000003,14.1137,-11.1365,92.614500000000007,-114.919
286.0,330.77300000000002,229.97499999999999,32.151600000000002,-23.0594,-19.126200000000001,77.470200000000006,-111.361
287.0,285.54300000000001,35.494799999999998,-29.8215,208.75200000000001,85.376800000000003,-61.686900000000001,29.725100000000001
288.0,289.149,50.386400000000002,-7.3696700000000002,239.97499999999999,89.419700000000006,-51.467799999999997,21.9343
289.0,292.61900000000003,22.7532,-28.1587,226.352,92.883700000000005,-39.887799999999999,13.671900000000001
290.0,295.83699999999999,39.632300000000001,-5.3756000000000004,254.24299999999999,95.75,-27.087800000000001,4.8837200000000003
291.0,298.87599999999998,15.1341,-25.0351,237.63900000000001,97.778199999999998,-13.257400000000001,-4.4148199999999997
292.0,301.84699999999998,36.688699999999997,0.154892,263.887,98.724500000000006,1.44533,-14.274900000000001
293.0,305.286,14.5077,-19.619800000000001,243.96299999999999,98.100300000000004,16.8858,-24.683399999999999
294.0,309.74799999999999,40.216299999999997,7.0327999999999999,269.79399999999998,95.630899999999997,33.093600000000002,-35.5792
295.0,316.18099999999998,22.692399999999999,-11.2506,251.05199999999999,91.031800000000004,50.180700000000002,-46.562199999999997
296.0,324.06799999999998,53.149799999999999,15.9781,276.45100000000002,85.357600000000005,67.893199999999993,-57.120699999999999
297.0,332.04700000000003,41.657299999999999,-1.6132,253.47399999999999,79.994399999999999,85.371799999999993,-66.555400000000006
298.0,334.84199999999998,77.904899999999998,25.8476,264.63499999999999,78.782300000000006,98.798299999999998,-75.093999999999994
299.0,336.36799999999999,37.796199999999999,-28.1267,187.911,81.031400000000005,111.318,-80.609300000000005
300.0,337.10300000000001,18.871200000000002,-56.1051,135.977,80.903000000000006,117.792,-89.930400000000006
301.0,337.09300000000002,-26.290900000000001,-108.063,62.887900000000002,74.4178,124.371,-97.777600000000007
302.0,337.81999999999999,35.7027,-49.374099999999999,106.57599999999999,60.243400000000001,131.18299999999999,-105.383
303.0,337.15499999999997,111.78100000000001,10.7753,151.33000000000001,47.655299999999997,138.10499999999999,-106.27
304.0,341.72899999999998,174.87799999999999,47.746400000000001,175.37799999999999,35.190100000000001,147.11799999999999,-103.128
305.0,339.892,157.19900000000001,18.590599999999998,126.256,24.877199999999998,146.74799999999999,-105.172
306.0,331.70400000000001,192.149,42.351199999999999,123.063,20.9678,139.62899999999999,-105.44499999999999
307.0,324.08100000000002,172.846,16.264900000000001,70.866,15.8468,130.09200000000001,-107.322
308.0,316.06099999999998,202.23699999999999,39.621699999999997,69.426699999999997,10.798,118.21599999999999,-108.22
309.0,310.06099999999998,184.80600000000001,16.066500000000001,24.775600000000001,3.7589999999999999,106.358,-108.136
310.0,304.947,215.499,40.652700000000003,31.206199999999999,-3.6353399999999998,93.872399999999999,-106.77800000000001
311.0,301.03899999999999,199.93700000000001,18.927,-5.6337700000000002,-11.4322,81.195499999999996,-104.309
312.0,297.47699999999998,230.143,43.967599999999997,6.8526100000000003,-18.764800000000001,67.924999999999997,-101.071
313.0,258.84300000000002,65.164199999999994,-4.8524099999999999,218.85900000000001,74.936700000000002,-54.331200000000003,25.898
314.0,262.29300000000001,40.452300000000001,-23.246500000000001,208.37,78.816999999999993,-45.220500000000001,18.942900000000002
315.0,265.62799999999999,53.025100000000002,-4.9656700000000003,233.07599999999999,82.221199999999996,-34.908299999999997,11.5327
316.0,268.67399999999998,30.388400000000001,-22.7546,219.76400000000001,85.1113,-23.542999999999999,3.6389399999999998
317.0,271.517,44.107799999999997,-5.0990799999999998,239.977,87.270200000000003,-11.283799999999999,-4.7275600000000004
318.0,274.15199999999999,23.052900000000001,-23.209599999999998,222.41800000000001,88.477599999999995,1.6706700000000001,-13.620100000000001
319.0,277.18700000000001,40.998800000000003,-3.2374200000000002,241.881,88.199700000000007,15.2683,-23.0886
320.0,281.04199999999997,25.6647,-17.547499999999999,226.476,86.066400000000002,29.4816,-33.090499999999999
321.0,287.07799999999997,49.142600000000002,5.7091399999999997,249.608,81.636399999999995,44.733199999999997,-43.348999999999997
322.0,294.63499999999999,43.3078,-2.3597399999999999,240.602,75.850300000000004,60.668399999999998,-53.189300000000003
323.0,302.90800000000002,69.845600000000005,18.879100000000001,258.35199999999998,70.203599999999994,76.823599999999999,-61.974299999999999
324.0,305.98500000000001,64.849900000000005,6.1436999999999999,231.04499999999999,69.107500000000002,89.014200000000002,-70.011200000000002
325.0,306.66399999999999,59.120800000000003,-12.3628,190.78299999999999,71.161000000000001,101.012,-73.901300000000006
326.0,306.89699999999999,-12.2164,-90.480999999999995,92.0047,70.8215,105.911,-82.347300000000004
327.0,306.25200000000001,-4.9826600000000001,-92.757400000000004,73.437100000000001,65.995199999999997,108.89100000000001,-90.213399999999993
328.0,308.04399999999998,21.263000000000002,-75.105599999999995,81.6267,53.117100000000001,115.187,-96.393299999999996
329.0,307.96600000000001,124.13500000000001,19.270700000000001,160.708,40.086500000000001,123.149,-97.222200000000001
330.0,310.88299999999998,149.91,25.3233,151.66,28.670100000000001,132.09299999999999,-93.262699999999995
331.0,309.94499999999999,171.75999999999999,35.758699999999997,143.48099999999999,19.1829,132.40700000000001,-94.722099999999998
332.0,301.95499999999998,165.70500000000001,20.2395,103.072,15.886699999999999,125.33799999999999,-95.427300000000002
333.0,293.774,182.89699999999999,31.447099999999999,91.368499999999997,12.229900000000001,115.7,-97.026799999999994
334.0,285.75799999999998,170.08600000000001,14.1128,52.002699999999997,8.1661300000000008,104.46599999999999,-98.090000000000003
335.0,279.84199999999998,192.60300000000001,31.9343,51.092300000000002,2.2864100000000001,93.612099999999998,-98.154499999999999
336.0,275.02499999999998,181.649,16.037400000000002,18.937200000000001,-4.4731800000000002,82.492800000000003,-96.967500000000001
337.0,271.45699999999999,207.10300000000001,36.166400000000003,25.5852,-11.682700000000001,71.377300000000005,-94.614000000000004
338.0,268.33600000000001,194.941,19.4038,-2.4449700000000001,-18.613800000000001,59.7605,-91.515299999999996
339.0,233.779,47.214100000000002,-24.2408,184.976,63.927700000000002,-48.3322,22.0351
340.0,236.995,57.7498,-8.4739699999999996,207.94,67.537999999999997,-40.157899999999998,15.873699999999999
341.0,240.065,37.370399999999997,-24.211099999999998,198.011,70.754599999999996,-30.890899999999998,9.3050700000000006
342.0,242.922,49.3504,-8.3685200000000002,217.91399999999999,73.556799999999996,-20.726900000000001,2.30958
343.0,245.51300000000001,31.640000000000001,-23.075099999999999,205.35400000000001,75.796899999999994,-9.7944499999999994,-5.1148199999999999
344.0,247.93799999999999,47.203200000000002,-5.3544099999999997,223.393,77.226399999999998,1.6963900000000001,-13.0031
345.0,250.55099999999999,30.9939,-20.098800000000001,207.732,77.360200000000006,13.659599999999999,-21.491
346.0,254.09399999999999,49.271000000000001,-0.95452400000000004,225.774,75.6601,26.1905,-30.505400000000002
347.0,259.55599999999998,37.087000000000003,-12.9604,213.571,71.591999999999999,39.621099999999998,-39.997100000000003
348.0,267.31999999999999,59.303400000000003,7.77224,234.60300000000001,65.842600000000004,54.2423,-49.020899999999997
349.0,275.702,54.3538,-1.36025,223.428,60.001800000000003,68.854799999999997,-57.380899999999997
350.0,278.56999999999999,82.076700000000002,18.758500000000002,230.71799999999999,58.5182,80.431100000000001,-64.305599999999998
351.0,279.61099999999999,35.156799999999997,-42.4161,151.79400000000001,60.552199999999999,91.114000000000004,-67.348100000000002
352.0,280.40300000000002,-6.2061099999999998,-92.311999999999998,85.983099999999993,60.754399999999997,94.275999999999996,-75.359999999999999
353.0,279.83499999999998,-18.8536,-108.30800000000001,51.330199999999998,58.588200000000001,96.194599999999994,-83.752799999999993
354.0,282.18099999999998,39.922699999999999,-54.836399999999998,92.141900000000007,49.497100000000003,104.23099999999999,-87.616
355.0,283.73599999999999,83.502700000000004,-19.604399999999998,117.026,35.463099999999997,112.18000000000001,-89.0107
356.0,284.28500000000003,154.46299999999999,34.5901,158.13999999999999,23.5929,118.30800000000001,-86.282499999999999
357.0,282.60000000000002,154.012,20.8446,128.06800000000001,14.7788,119.01600000000001,-85.168800000000005
358.0,274.99900000000002,172.63999999999999,31.398199999999999,116.613,10.3413,112.861,-85.470399999999998
359.0,266.50599999999997,159.066,12.898999999999999,76.942800000000005,7.9558600000000004,103.518,-86.760999999999996
360.0,258.61900000000003,175.245,25.6859,70.465599999999995,5.0101599999999999,93.008399999999995,-87.903800000000004
361.0,252.31999999999999,162.08799999999999,9.2302900000000001,37.123600000000003,0.215979,82.819299999999998,-87.955100000000002
362.0,247.761,182.94900000000001,26.119499999999999,39.523099999999999,-5.8648499999999997,72.976299999999995,-86.857600000000005
363.0,244.405,172.875,11.5504,12.7217,-12.458299999999999,63.164099999999998,-84.5792
364.0,241.75899999999999,195.339,29.845700000000001,20.766999999999999,-18.925799999999999,53.044899999999998,-81.564700000000002
365.0,211.34399999999999,70.143500000000003,-0.55405199999999999,194.80099999999999,53.655000000000001,-43.4343,18.4316
366.0,214.178,51.722099999999998,-14.5883,187.31,56.870199999999997,-36.0107,13.0015
367.0,216.90899999999999,61.0124,-1.4741899999999999,205.70699999999999,59.777500000000003,-27.6387,7.1932099999999997
368.0,219.434,44.137300000000003,-15.3102,195.55199999999999,62.3538,-18.463100000000001,1.00807
369.0,221.70699999999999,54.149299999999997,-3.0884499999999999,209.64699999999999,64.502399999999994,-8.6479400000000002,-5.5282200000000001
370.0,223.792,37.944200000000002,-17.890499999999999,194.93600000000001,66.023200000000003,1.63178,-12.489699999999999
371.0,226.03800000000001,51.449800000000003,-3.5210699999999999,208.17599999999999,66.457099999999997,12.1999,-19.9712
372.0,229.18000000000001,39.326999999999998,-15.078099999999999,195.35300000000001,65.180499999999995,23.267700000000001,-28.055299999999999
373.0,234.28200000000001,57.871099999999998,3.9180700000000002,214.27500000000001,61.549999999999997,35.093600000000002,-36.590699999999998
374.0,241.99199999999999,53.915399999999998,-0.81582900000000003,210.48099999999999,55.897399999999998,48.438400000000001,-44.983199999999997
375.0,250.77199999999999,77.119,19.3278,230.15000000000001,49.892800000000001,61.990000000000002,-52.562199999999997
376.0,253.751,74.346299999999999,8.8122000000000007,209.59299999999999,47.918599999999998,72.536100000000005,-58.5
377.0,255.31200000000001,55.650199999999998,-24.4833,160.95099999999999,49.933199999999999,82.710999999999999,-61.191000000000003
378.0,256.99200000000002,-8.9936100000000003,-96.626099999999994,74.302099999999996,51.213999999999999,85.589600000000004,-68.998199999999997
379.0,254.654,-2.2843100000000001,-93.276700000000005,60.365699999999997,50.018599999999999,85.654300000000006,-76.218100000000007
380.0,255.458,4.3594400000000002,-92.834100000000007,49.290300000000002,42.431199999999997,92.915899999999993,-77.727900000000005
381.0,258.58699999999999,58.509999999999998,-42.050899999999999,90.588499999999996,29.7257,101.559,-79.385800000000003
382.0,258.005,104.723,-5.3024800000000001,112.667,18.243500000000001,107.01900000000001,-77.815700000000007
383.0,255.87200000000001,157.62,32.812899999999999,135.209,9.6325800000000008,107.61499999999999,-75.647099999999995
384.0,251.083,156.864,20.829799999999999,106.081,5.00901,102.611,-75.7273
385.0,242.459,167.446,27.094000000000001,94.198300000000003,3.2416100000000001,93.666300000000007,-76.706000000000003
386.0,233.80500000000001,154.58600000000001,11.797800000000001,61.668900000000001,1.44577,83.503,-77.429100000000005
387.0,227.48500000000001,169.26900000000001,24.169499999999999,58.943399999999997,-2.3761399999999999,74.004900000000006,-77.642099999999999
388.0,222.91499999999999,160.27500000000001,12.1328,33.8581,-7.5425399999999998,65.075400000000002,-76.629499999999993
389.0,219.90899999999999,179.52199999999999,27.5532,38.071199999999997,-13.5511,56.431699999999999,-74.4953
390.0,217.66999999999999,171.43700000000001,15.7453,16.8048,-19.4925,47.548999999999999,-71.604799999999997
391.0,191.56299999999999,55.364699999999999,-12.898300000000001,169.20599999999999,44.534700000000001,-39.387,15.2925
392.0,193.959,64.111000000000004,-0.38486999999999999,187.63200000000001,47.3185,-32.609499999999997,10.476900000000001
393.0,196.28800000000001,48.100200000000001,-13.186500000000001,179.65100000000001,49.8217,-24.9862,5.3294600000000001
394.0,198.40299999999999,58.126600000000003,-0.73133400000000004,195.41,52.094099999999997,-16.644600000000001,-0.14324300000000001
395.0,200.33099999999999,44.320599999999999,-12.9541,184.87700000000001,54.042099999999998,-7.7386999999999997,-5.8996399999999998
396.0,201.99700000000001,57.436999999999998,0.90107099999999996,198.59100000000001,55.559899999999999,1.5103500000000001,-12.0296
397.0,203.92500000000001,44.034399999999998,-12.218999999999999,184.29900000000001,56.1509,10.976000000000001,-18.585699999999999
398.0,206.56100000000001,59.115600000000001,3.0719799999999999,198.054,55.259399999999999,20.674800000000001,-25.7744
399.0,211.49199999999999,47.906300000000002,-7.5613999999999999,187.67500000000001,51.956299999999999,31.295300000000001,-33.305100000000003
400.0,218.73699999999999,66.978399999999993,11.664099999999999,208.017,46.497799999999998,43.063200000000002,-41.001300000000001
401.0,228.072,62.322400000000002,4.76762,202.08199999999999,40.229300000000002,56.327599999999997,-47.448799999999999
402.0,232.095,89.904700000000005,25.566800000000001,215.89400000000001,37.746299999999998,65.6434,-53.380200000000002
403.0,232.578,56.691000000000003,-23.685300000000002,152.256,39.5396,75.177599999999998,-55.296900000000001
404.0,235.001,4.4092799999999999,-84.091099999999997,80.151499999999999,40.464399999999998,78.682599999999994,-61.827500000000001
405.0,232.35400000000001,-12.510899999999999,-103.371,46.2468,41.281599999999997,76.366100000000003,-69.122600000000006
406.0,233.31700000000001,14.245200000000001,-86.475800000000007,51.846400000000003,36.610100000000003,82.836600000000004,-69.485100000000003
407.0,237.24799999999999,15.1317,-88.563599999999994,44.007100000000001,24.1296,90.572800000000001,-71.528099999999995
408.0,234.983,100.149,-9.9104200000000002,110.762,13.0197,93.533699999999996,-70.873599999999996
409.0,232.846,145.279,22.705200000000001,126.002,5.0478399999999999,95.638900000000007,-67.496300000000005
410.0,229.35499999999999,164.239,34.169800000000002,119.46299999999999,0.21293799999999999,93.748500000000007,-66.177999999999997
411.0,220.625,149.892,16.6435,84.964699999999993,-1.49028,85.684200000000004,-66.643000000000001
412.0,211.78700000000001,161.20400000000001,25.4771,78.416300000000007,-2.4388200000000002,75.841700000000003,-67.183000000000007
413.0,205.19200000000001,147.01599999999999,9.8607800000000001,49.444499999999998,-5.1180199999999996,66.886399999999995,-67.464699999999993
414.0,200.58600000000001,162.566,23.161100000000001,50.839500000000001,-9.3559000000000001,58.6143,-66.643199999999993
415.0,197.88900000000001,153.79499999999999,11.177899999999999,28.561,-14.677199999999999,50.9176,-64.738699999999994
416.0,196.15100000000001,172.28999999999999,26.262599999999999,34.793500000000002,-20.072500000000002,43.058700000000002,-62.0578
417.0,174.54900000000001,72.994,7.5410700000000004,177.38300000000001,36.986600000000003,-35.907200000000003,12.670400000000001
418.0,176.51599999999999,58.325099999999999,-3.7879700000000001,171.36699999999999,39.349899999999998,-29.686199999999999,8.3889399999999998
419.0,178.44800000000001,66.253500000000003,6.95092,186.44999999999999,41.473500000000001,-22.718599999999999,3.7890999999999999
420.0,180.14599999999999,53.0242,-4.2740499999999999,178.161,43.408799999999999,-15.096399999999999,-1.08819
421.0,181.68899999999999,61.139600000000002,4.9912400000000003,188.898,45.097499999999997,-6.9617300000000002,-6.2151399999999999
422.0,182.94200000000001,48.427300000000002,-7.4916200000000002,176.09999999999999,46.508699999999997,1.41832,-11.634600000000001
423.0,184.518,58.991599999999998,2.8587500000000001,185.20400000000001,47.1629,9.9496800000000007,-17.4345
424.0,186.751,49.786900000000003,-6.4741600000000004,174.251,46.545099999999998,18.4893,-23.7484
425.0,191.47300000000001,63.694000000000003,8.0691500000000005,189.214,43.573300000000003,28.003299999999999,-30.4529
426.0,198.54599999999999,62.519399999999997,7.8708799999999997,190.648,38.416200000000003,38.473799999999997,-37.179000000000002
427.0,208.19300000000001,80.159700000000001,24.231200000000001,208.964,32.018500000000003,51.1449,-42.813299999999998
428.0,212.71299999999999,83.353700000000003,22.3767,201.19499999999999,29.280899999999999,60.095500000000001,-48.476799999999997
429.0,212.78999999999999,78.125500000000002,2.3020800000000001,167.39400000000001,31.096499999999999,69.492000000000004,-49.680999999999997
430.0,215.571,1.7143699999999999,-83.752600000000001,72.562200000000004,31.482299999999999,72.819199999999995,-55.408700000000003
431.0,212.56200000000001,2.1510400000000001,-86.008399999999995,57.992100000000001,32.5015,69.746600000000001,-62.1997
432.0,213.04499999999999,7.6765299999999996,-90.998099999999994,42.266500000000001,29.979800000000001,74.927599999999998,-61.921799999999998
433.0,218.02500000000001,25.0715,-76.804400000000001,50.447000000000003,20.925799999999999,81.827200000000005,-64.617599999999996
434.0,216.62700000000001,77.172300000000007,-25.3171,87.0227,12.3735,85.762,-65.299099999999996
435.0,213.267,143.44499999999999,32.500399999999999,128.51400000000001,3.8083499999999999,87.961299999999994,-61.516199999999998
436.0,209.256,149.136,27.876000000000001,110.175,-3.10954,85.849199999999996,-58.169699999999999
437.0,201.64599999999999,159.095,32.867800000000003,100.73999999999999,-5.8407900000000001,79.007400000000004,-57.328200000000002
438.0,192.73599999999999,145.69800000000001,17.498699999999999,71.671800000000005,-6.2111200000000002,69.852199999999996,-57.643999999999998
439.0,185.65899999999999,154.95699999999999,25.723400000000002,68.060199999999995,-7.6707599999999996,61.065300000000001,-57.9758
440.0,180.947,145.17500000000001,14.433299999999999,45.992899999999999,-10.9879,53.264600000000002,-57.459899999999998
441.0,178.489,160.35300000000001,26.9451,48.963799999999999,-15.579499999999999,46.2532,-55.877499999999998
442.0,177.26300000000001,153.703,17.167899999999999,30.8887,-20.474799999999998,39.271000000000001,-53.482500000000002
443.0,159.79599999999999,59.645800000000001,-2.8250700000000002,155.63399999999999,30.840599999999998,-32.8322,10.5589
444.0,161.38900000000001,67.1755,7.7251399999999997,170.94200000000001,32.833300000000001,-27.117799999999999,6.7138200000000001
445.0,162.91800000000001,54.294499999999999,-2.6581100000000002,164.411,34.608600000000003,-20.7241,2.5710500000000001
446.0,164.25999999999999,62.941899999999997,7.7106399999999997,177.38300000000001,36.231000000000002,-13.729699999999999,-1.8147500000000001
447.0,165.41200000000001,52.168799999999997,-2.2595800000000001,168.59999999999999,37.693600000000004,-6.2739599999999998,-6.4441899999999999
448.0,166.36799999999999,63.441200000000002,8.8602500000000006,179.346,38.948700000000002,1.3847400000000001,-11.2905
449.0,167.55099999999999,52.669600000000003,-2.5561699999999998,166.53100000000001,39.620100000000001,9.0549700000000009,-16.4893
450.0,169.601,64.948700000000002,9.3164400000000001,177.001,39.114600000000003,16.704999999999998,-22.008299999999998
451.0,173.87100000000001,55.418500000000002,0.64012500000000006,168.68899999999999,36.393999999999998,25.017399999999999,-27.9527
452.0,181.15000000000001,70.287199999999999,17.142499999999998,187.66300000000001,31.407900000000001,34.799999999999997,-33.583199999999998
453.0,190.77099999999999,67.650700000000001,14.801500000000001,187.87700000000001,25.0627,46.202599999999997,-38.745699999999999
454.0,194.38399999999999,90.745999999999995,33.686,200.64099999999999,22.046399999999998,55.402700000000003,-42.876800000000003
455.0,195.28100000000001,51.7224,-18.505400000000002,136.84999999999999,22.716799999999999,64.895700000000005,-43.951500000000003
456.0,196.69999999999999,7.5056399999999996,-71.809799999999996,75.775700000000001,22.992100000000001,66.672499999999999,-49.674500000000002
457.0,194.922,-4.7531600000000003,-90.135300000000001,47.832500000000003,24.040299999999998,64.891099999999994,-55.024500000000003
458.0,195.88399999999999,19.081499999999998,-75.087100000000007,53.942700000000002,22.371700000000001,68.865499999999997,-55.604799999999997
459.0,197.15899999999999,11.5336,-85.878399999999999,33.469299999999997,16.5107,73.999099999999999,-56.329300000000003
460.0,196.48699999999999,39.3247,-58.4831,47.701599999999999,8.2631200000000007,78.915099999999995,-55.5687
461.0,193.19,87.286799999999999,-12.506,80.203800000000001,-0.59268200000000004,80.013400000000004,-54.199800000000003
462.0,189.61699999999999,150.661,39.4512,117.93000000000001,-6.0555399999999997,78.188900000000004,-50.679299999999998
463.0,185.45699999999999,146.37200000000001,27.214400000000001,93.070800000000006,-9.3247400000000003,73.720100000000002,-48.789499999999997
464.0,176.43100000000001,151.80500000000001,31.420999999999999,85.355500000000006,-9.73996,65.090699999999998,-49.072699999999998
465.0,168.61000000000001,137.56,16.238299999999999,59.479700000000001,-9.8859899999999996,56.258400000000002,-49.323900000000002
466.0,163.77199999999999,147.321,25.1755,58.705800000000004,-12.4138,48.755099999999999,-49.260199999999998
467.0,161.45699999999999,139.072,14.6868,39.492699999999999,-16.1813,42.216799999999999,-48.078200000000002
468.0,160.703,154.08699999999999,26.822900000000001,43.8444,-20.6219,35.955399999999997,-46.013100000000001
469.0,146.994,73.855500000000006,13.8711,161.995,25.917400000000001,-30.019300000000001,8.8510299999999997
470.0,148.26400000000001,61.6111,4.3983299999999996,156.75399999999999,27.610499999999998,-24.7605,5.3885300000000003
471.0,149.43700000000001,68.948899999999995,14.0021,169.708,29.1235,-18.8918,1.6381300000000001
472.0,150.44300000000001,57.760300000000001,4.3260100000000001,162.27500000000001,30.481400000000001,-12.463200000000001,-2.3606400000000001
473.0,151.22300000000001,65.290499999999994,12.4198,171.24299999999999,31.728000000000002,-5.6284900000000002,-6.5901300000000003
474.0,151.91399999999999,54.081699999999998,0.80602799999999997,159.172,32.794899999999998,1.3856900000000001,-11.0212
475.0,152.78800000000001,64.138099999999994,9.9318299999999997,166.83500000000001,33.406300000000002,8.26877,-15.699999999999999
476.0,154.69300000000001,55.111199999999997,0.402117,156.15299999999999,32.869199999999999,15.151999999999999,-20.570699999999999
477.0,158.68199999999999,68.665899999999993,15.0527,171.364,30.360099999999999,22.386399999999998,-25.7163
478.0,166.11799999999999,65.542500000000004,14.273300000000001,173.76499999999999,25.428100000000001,31.621500000000001,-30.366099999999999
479.0,175.47999999999999,84.112899999999996,34.580800000000004,196.82900000000001,19.3688,41.853400000000001,-34.982300000000002
480.0,178.85900000000001,84.313100000000006,29.759799999999998,187.15299999999999,16.268000000000001,50.943100000000001,-37.632599999999996
481.0,180.078,59.095199999999998,-8.4282699999999995,139.40799999999999,15.6911,59.791899999999998,-38.866
482.0,180.67699999999999,1.9921899999999999,-72.575100000000006,67.503299999999996,15.917199999999999,61.125,-44.490499999999997
483.0,179.30699999999999,9.1894299999999998,-71.364400000000003,59.787599999999998,16.7591,60.635300000000001,-48.831499999999998
484.0,180.51499999999999,12.535500000000001,-75.956500000000005,47.319899999999997,15.070499999999999,64.594899999999996,-49.220599999999997
485.0,179.88800000000001,24.819700000000001,-69.412800000000004,45.770600000000002,11.5984,66.749399999999994,-49.317900000000002
486.0,180.34,18.4711,-81.903400000000005,23.551600000000001,5.5564299999999998,70.127399999999994,-48.529699999999998
487.0,178.506,72.462500000000006,-24.2392,69.160399999999996,-3.0816300000000001,71.7821,-49.447200000000002
488.0,172.47999999999999,135.28399999999999,32.773299999999999,109.453,-8.1171900000000008,70.502399999999994,-45.137099999999997
489.0,170.59299999999999,156.714,44.5839,107.68000000000001,-11.8027,68.770499999999998,-40.892800000000001
490.0,162.48099999999999,138.054,26.033899999999999,78.214200000000005,-12.8857,61.420200000000001,-41.467599999999997
491.0,153.69499999999999,146.08600000000001,32.551499999999997,75.0642,-11.821099999999999,52.033299999999997,-41.671599999999998
492.0,148.94999999999999,132.65899999999999,18.787500000000001,52.927700000000002,-13.6142,44.902900000000002,-42.176699999999997
493.0,146.447,145.107,29.414400000000001,55.640700000000002,-16.481400000000001,38.514499999999998,-41.406100000000002
494.0,146.244,138.26900000000001,19.895600000000002,38.9024,-20.564399999999999,32.956099999999999,-39.735300000000002
495.0,135.685,62.102400000000003,4.3397100000000002,142.95400000000001,21.934100000000001,-27.4175,7.48733
496.0,136.655,68.636399999999995,13.408300000000001,155.74100000000001,23.382300000000001,-22.582100000000001,4.3489000000000004
497.0,137.495,58.087400000000002,4.8973699999999996,150.10499999999999,24.666499999999999,-17.1875,0.93361000000000005
498.0,138.17099999999999,65.514200000000002,13.6556,160.70400000000001,25.820699999999999,-11.2805,-2.7387199999999998
499.0,138.63800000000001,57.171799999999998,5.6642099999999997,153.28899999999999,26.892700000000001,-5.0139100000000001,-6.66052
500.0,139.09,66.7547,14.697900000000001,161.75,27.771000000000001,1.3795599999999999,-10.7621
501.0,139.78299999999999,58.442799999999998,5.3244199999999999,150.97999999999999,28.228100000000001,7.5591400000000002,-15.025399999999999
502.0,141.55600000000001,68.209100000000007,14.7835,159.595,27.535299999999999,13.702400000000001,-19.254899999999999
503.0,145.25200000000001,60.795699999999997,9.1372599999999995,154.78999999999999,24.958300000000001,20.099299999999999,-23.511500000000002
504.0,152.58699999999999,71.582899999999995,23.543800000000001,172.69999999999999,19.974499999999999,28.775600000000001,-27.152100000000001
505.0,161.44399999999999,71.530600000000007,26.897400000000001,178.72200000000001,14.0618,38.244500000000002,-30.641400000000001
506.0,164.78899999999999,89.150999999999996,39.801000000000002,186.96299999999999,11.303900000000001,47.261099999999999,-32.872100000000003
507.0,166.12700000000001,51.435099999999998,-10.864000000000001,127.587,11.140599999999999,55.5077,-34.438099999999999
508.0,166.80699999999999,7.6763300000000001,-61.378900000000002,70.678100000000001,10.787699999999999,56.812100000000001,-39.599200000000003
509.0,165.04900000000001,3.0290300000000001,-71.152699999999996,52.815600000000003,10.5419,56.589599999999997,-43.3035
510.0,167.03800000000001,19.411799999999999,-63.4084,53.8095,8.7166300000000003,61.267000000000003,-42.902000000000001
511.0,165.93700000000001,17.302399999999999,-69.893500000000003,39.373600000000003,7.1670400000000001,62.226399999999998,-43.779600000000002
512.0,164.31800000000001,26.794899999999998,-66.991799999999998,29.609200000000001,4.4187500000000002,64.473100000000002,-42.440300000000001
513.0,163.81800000000001,38.3977,-49.953699999999998,36.030700000000003,-3.8099599999999998,67.069400000000002,-43.571599999999997
514.0,157.21100000000001,124.96299999999999,34.957500000000003,105.712,-9.4665400000000002,65.394499999999994,-40.324300000000001
515.0,156.28999999999999,146.422,43.448700000000002,101.485,-13.5929,64.175200000000004,-34.260899999999999
516.0,150.245,142.72999999999999,38.755200000000002,88.052400000000006,-15.613099999999999,58.122399999999999,-34.603499999999997
517.0,140.78,132.738,27.167100000000001,67.490200000000002,-13.702,48.467700000000001,-35.0914
518.0,135.89500000000001,133.959,28.099499999999999,61.6098,-14.5852,41.462200000000003,-36.009799999999998
519.0,133.23099999999999,127.43899999999999,20.111899999999999,46.627899999999997,-16.682700000000001,35.152099999999997,-35.740200000000002
520.0,133.376,137.648,27.806699999999999,47.806600000000003,-20.285499999999999,30.146999999999998,-34.4467
521.0,125.63500000000001,74.345399999999998,18.220600000000001,148.19999999999999,18.650500000000001,-24.9666,6.3568499999999997
522.0,126.34699999999999,63.7849,9.9726499999999998,143.18799999999999,19.912299999999998,-20.520700000000001,3.5226799999999998
523.0,126.87,70.798500000000004,18.822900000000001,154.41999999999999,21.038599999999999,-15.5693,0.40924100000000002
524.0,127.218,61.007599999999996,10.1919,147.20500000000001,22.030999999999999,-10.152699999999999,-2.9870199999999998
525.0,127.346,68.082400000000007,17.509699999999999,154.73599999999999,22.9221,-4.4393599999999998,-6.6534399999999998
526.0,127.598,58.011699999999998,6.8825099999999999,143.42599999999999,23.581399999999999,1.34375,-10.4963
527.0,128.14599999999999,67.611900000000006,15.648400000000001,150.91200000000001,23.772600000000001,6.8424699999999996,-14.3513
528.0,129.87,59.077800000000003,7.3513999999999999,142.19499999999999,22.811900000000001,12.3294,-17.941500000000001
529.0,133.44200000000001,72.383099999999999,23.252199999999998,159.41399999999999,20.122399999999999,18.037299999999998,-21.226400000000002
530.0,140.529,68.893699999999995,24.6492,164.411,15.098100000000001,26.247699999999998,-23.7379
531.0,149.27500000000001,87.715199999999996,47.430799999999998,190.07900000000001,9.4986700000000006,34.972799999999999,-26.5715
532.0,151.61699999999999,86.898899999999998,42.582099999999997,179.77000000000001,6.9992299999999998,43.831299999999999,-28.120699999999999
533.0,152.25399999999999,55.210700000000003,0.072930200000000001,127.926,6.7191700000000001,51.836399999999998,-29.708500000000001
534.0,153.49000000000001,1.1435999999999999,-60.857500000000002,62.273299999999999,6.3826599999999996,52.807200000000002,-35.118899999999996
535.0,152.727,12.3339,-55.667999999999999,61.467100000000002,5.8844500000000002,53.091799999999999,-38.235500000000002
536.0,155.32300000000001,14.5863,-61.462699999999998,49.064999999999998,3.4933100000000001,58.474200000000003,-37.579799999999999
537.0,153.22499999999999,28.372399999999999,-51.939300000000003,50.929099999999998,2.0899999999999999,58.7226,-38.075899999999997
538.0,149.84800000000001,16.812999999999999,-72.097700000000003,19.508600000000001,0.60840300000000003,58.885899999999999,-36.049100000000003
539.0,149.37200000000001,32.623899999999999,-52.1447,31.765499999999999,-6.1346499999999997,60.967399999999998,-36.213299999999997
540.0,142.92500000000001,95.588999999999999,14.0463,82.3536,-11.7879,60.022599999999997,-33.947400000000002
541.0,142.61000000000001,149.60300000000001,57.043599999999998,109.569,-15.5389,59.658900000000003,-28.7013
542.0,139.072,134.227,38.492400000000004,83.195099999999996,-17.399899999999999,54.923000000000002,-28.863399999999999
543.0,129.768,138.959,41.304900000000004,78.5715,-15.6076,45.4086,-29.648599999999998
544.0,124.381,123.405,25.18,57.077800000000003,-15.399699999999999,38.235900000000001,-30.772400000000001
545.0,121.62,132.13399999999999,32.687600000000003,58.7896,-16.854600000000001,32.091000000000001,-30.954599999999999
546.0,121.84999999999999,124.747,23.0183,43.354900000000001,-19.897300000000001,27.418099999999999,-30.061900000000001
547.0,116.601,64.100700000000003,9.3231199999999994,131.34999999999999,15.9209,-22.655100000000001,5.4366099999999999
548.0,117.051,70.187200000000004,17.493600000000001,142.27699999999999,17.017700000000001,-18.5762,2.8700999999999999
549.0,117.27,61.052799999999998,9.9837000000000007,136.68100000000001,17.994199999999999,-14.0357,0.032054699999999998
550.0,117.25700000000001,67.911100000000005,17.842199999999998,145.47300000000001,18.853000000000002,-9.0866699999999998,-3.1085199999999999
551.0,117.089,60.972999999999999,11.0749,138.571,19.593599999999999,-3.9147099999999999,-6.5541099999999997
552.0,117.12,69.715999999999994,19.485600000000002,146.148,20.0017,1.2470000000000001,-10.135300000000001
553.0,117.648,62.723300000000002,12.1837,137.83099999999999,19.855699999999999,6.0906700000000003,-13.6083
554.0,119.373,71.466099999999997,22.216999999999999,147.97900000000001,18.526900000000001,11.0046,-16.4222
555.0,122.81699999999999,64.896900000000002,19.753699999999998,147.119,15.7036,16.254999999999999,-18.630199999999999
556.0,129.68600000000001,73.939800000000005,35.215299999999999,165.857,11.044499999999999,24.213799999999999,-19.881599999999999
557.0,137.24299999999999,74.419600000000003,41.684699999999999,173.21700000000001,6.2380699999999996,32.519500000000001,-22.209900000000001
558.0,138.62200000000001,88.869500000000002,50.675899999999999,176.446,3.89283,40.681699999999999,-24.0304
559.0,140.33600000000001,47.106699999999996,-5.1974799999999997,114.38800000000001,3.0868000000000002,47.603000000000002,-26.369
560.0,142.10300000000001,4.5998900000000003,-53.4925,62.956299999999999,3.1346400000000001,48.429499999999997,-31.397500000000001
561.0,141.41499999999999,4.6522899999999998,-57.1447,53.061999999999998,2.44068,49.895400000000002,-33.4557
562.0,144.73500000000001,20.961500000000001,-47.856200000000001,55.720100000000002,-0.766509,55.8523,-32.923400000000001
563.0,142.62,19.2362,-54.144799999999996,42.363399999999999,-1.62741,56.270899999999997,-32.744
564.0,137.75399999999999,24.9833,-56.366599999999998,28.3581,-1.76919,55.078099999999999,-31.422899999999998
565.0,137.184,25.0304,-54.975099999999998,23.3428,-6.0173899999999998,55.788400000000003,-32.171599999999998
566.0,131.58000000000001,100.393,23.2943,90.058300000000003,-11.3385,54.381,-30.558800000000002
567.0,130.018,136.595,52.067700000000002,101.714,-16.173500000000001,54.122199999999999,-25.293299999999999
568.0,128.34200000000001,139.08099999999999,51.412300000000002,91.221100000000007,-18.5687,51.162100000000002,-24.5227
569.0,120.294,126.349,36.553100000000001,70.101100000000002,-17.190799999999999,42.7117,-25.3964
570.0,114.271,125.988,35.069499999999998,64.482500000000002,-16.219000000000001,35.2714,-26.327100000000002
571.0,111.386,116.52200000000001,24.560099999999998,49.581299999999999,-17.062799999999999,29.326499999999999,-26.902000000000001
572.0,111.429,124.55,30.526700000000002,50.692399999999999,-19.4498,24.792899999999999,-26.372699999999998
573.0,108.47199999999999,75.189899999999994,21.214200000000002,136.01300000000001,13.561500000000001,-20.4452,4.6384800000000004
574.0,108.71899999999999,66.086100000000002,13.983599999999999,131.11600000000001,14.5312,-16.712900000000001,2.3467799999999999
575.0,108.611,72.8001,22.100899999999999,140.63,15.409599999999999,-12.5642,-0.233044
576.0,108.28,64.200999999999993,14.383800000000001,133.40000000000001,16.1511,-8.0673200000000005,-3.1157599999999999
577.0,107.69799999999999,70.762299999999996,21.170000000000002,139.559,16.715900000000001,-3.4610699999999999,-6.3407200000000001
578.0,107.621,61.660699999999999,12.201000000000001,129.738,16.842400000000001,1.08935,-9.6550799999999999
579.0,108.04000000000001,70.765500000000003,22.078800000000001,138.81299999999999,16.297699999999999,5.2472599999999998,-12.640700000000001
580.0,110.057,62.855699999999999,16.911200000000001,134.511,14.613,9.8051499999999994,-14.674099999999999
581.0,113.596,76.746099999999998,35.481900000000003,155.125,11.8886,14.5892,-15.9306
582.0,120.417,73.733599999999996,38.118099999999998,161.01499999999999,7.8022299999999998,22.470600000000001,-16.407800000000002
583.0,126.242,93.677400000000006,60.932600000000001,184.78100000000001,3.6794699999999998,28.6998,-18.886399999999998
584.0,126.828,92.696799999999996,52.2042,169.22499999999999,2.96671,36.856099999999998,-21.5151
585.0,130.78299999999999,47.8461,-1.5668200000000001,110.00700000000001,3.9147799999999999,44.089300000000001,-24.829599999999999
586.0,130.827,-0.84555000000000002,-53.322499999999998,55.43,2.7706,43.865699999999997,-28.554500000000001
587.0,131.46600000000001,13.3431,-43.600499999999997,59.552399999999999,-0.29628199999999999,47.300600000000003,-29.222200000000001
588.0,135.38,15.984,-45.3262,51.893300000000004,-3.7481800000000001,53.342199999999998,-28.863499999999998
589.0,133.53200000000001,28.470400000000001,-38.390700000000002,51.203899999999997,-4.7448600000000001,54.479199999999999,-28.001100000000001
590.0,127.313,20.172699999999999,-53.328000000000003,26.222899999999999,-4.6144299999999996,51.842500000000001,-27.0688
591.0,123.81699999999999,26.2971,-47.837699999999998,21.683599999999998,-5.8753799999999998,50.723799999999997,-27.887499999999999
592.0,121.09,64.8245,-5.12934,53.3934,-8.8003599999999995,50.5884,-29.029900000000001
593.0,117.992,130.941,56.409500000000001,102.157,-13.837,48.8127,-25.57
594.0,117.691,130.577,49.774700000000003,85.750799999999998,-18.179400000000001,46.289700000000003,-22.474299999999999
595.0,112.069,131.15899999999999,48.607100000000003,78.464600000000004,-18.382300000000001,40.096800000000002,-22.2193
596.0,105.629,118.53100000000001,34.392200000000003,60.970999999999997,-17.080400000000001,32.549100000000003,-22.7621
597.0,102.40000000000001,120.94499999999999,35.883400000000002,59.538200000000003,-17.221399999999999,26.8108,-23.498799999999999
598.0,101.97499999999999,113.878,27.178000000000001,46.852800000000002,-19.0669,22.214200000000002,-23.3066
599.0,101.15900000000001,66.5869,13.104100000000001,121.289,11.5305,-18.334299999999999,3.9780500000000001
600.0,101.185,72.033900000000003,20.182400000000001,130.26499999999999,12.380000000000001,-14.9299,1.91577
601.0,100.8,64.432900000000004,13.7888,124.813,13.143599999999999,-11.1562,-0.37673600000000002
602.0,100.08,70.351100000000002,20.459199999999999,131.43000000000001,13.7789,-7.1116200000000003,-3.0314399999999999
603.0,99.211399999999998,65.143699999999995,15.643800000000001,125.633,14.203200000000001,-3.0578099999999999,-5.9521899999999999
604.0,98.8279,72.319199999999995,23.7483,132.661,14.0472,0.81903499999999996,-8.9780999999999995
605.0,99.484200000000001,67.387100000000004,20.930299999999999,129.64699999999999,13.138299999999999,4.4369899999999998,-11.4497
606.0,101.875,74.288300000000007,32.461799999999997,142.78399999999999,11.1622,8.6056100000000004,-12.603300000000001
607.0,105.29900000000001,70.325400000000002,34.171500000000002,146.102,9.1072100000000002,13.461,-12.9938
608.0,111.351,76.278300000000002,43.034700000000001,157.203,7.2173600000000002,20.954999999999998,-13.919499999999999
609.0,115.277,78.600300000000004,44.7712,157.64400000000001,7.2622900000000001,26.553000000000001,-17.7852
610.0,116.884,67.398200000000003,26.619199999999999,133.21799999999999,7.6869500000000004,34.2682,-20.674399999999999
611.0,119.923,1.0314700000000001,-45.215200000000003,59.308500000000002,4.4889299999999999,38.729100000000003,-23.030100000000001
612.0,119.676,-1.4600900000000001,-50.217199999999998,51.7468,1.17326,39.061500000000002,-25.419699999999999
613.0,123.21899999999999,9.1915300000000002,-43.492100000000001,53.617199999999997,-2.0324,45.287599999999998,-25.349900000000002
614.0,126.72,19.334199999999999,-34.948300000000003,56.304099999999998,-5.6086600000000004,50.982999999999997,-24.802399999999999
615.0,124.958,19.8156,-40.311500000000002,41.9848,-7.1728899999999998,52.520699999999998,-24.118099999999998
616.0,119.071,26.195699999999999,-40.047199999999997,33.898099999999999,-6.5754799999999998,49.5259,-24.028099999999998
617.0,111.405,16.651399999999999,-53.255699999999997,10.8757,-6.4296600000000002,44.8919,-23.976199999999999
618.0,108.959,22.473199999999999,-45.768599999999999,7.56691,-8.7905200000000008,44.361699999999999,-24.995699999999999
619.0,107.30800000000001,69.372600000000006,4.73665,46.811,-12.6629,44.051299999999998,-25.716100000000001
620.0,105.88500000000001,127.06699999999999,55.619700000000002,88.665000000000006,-16.553699999999999,41.121499999999997,-22.217199999999998
621.0,104.661,122.09099999999999,44.590400000000002,71.259799999999998,-18.760400000000001,36.942700000000002,-19.604900000000001
622.0,98.531599999999997,120.247,42.893000000000001,66.499099999999999,-18.042200000000001,30.6068,-20.055599999999998
623.0,94.055700000000002,108.175,29.577200000000001,51.511699999999998,-17.221,24.208200000000001,-20.525500000000001
624.0,93.666399999999996,113.583,33.796300000000002,52.7164,-18.887699999999999,19.909099999999999,-20.814
625.0,94.638499999999993,76.589600000000004,23.054400000000001,125.298,9.6731599999999993,-16.287600000000001,3.3575699999999999
626.0,94.485200000000006,68.974900000000005,16.838100000000001,120.57299999999999,10.4282,-13.2037,1.5708
627.0,93.876599999999996,75.167500000000004,23.983899999999998,128.244,11.1242,-9.7874800000000004,-0.48105999999999999
628.0,92.799499999999995,68.046999999999997,17.5641,121.25,11.663399999999999,-6.1992399999999996,-2.7904599999999999
629.0,91.582499999999996,73.445599999999999,23.6142,125.90000000000001,11.9216,-2.7247300000000001,-5.4826800000000002
630.0,91.054599999999994,65.996700000000004,18.0318,119.297,11.545299999999999,0.50407199999999996,-8.0052299999999992
631.0,91.707300000000004,73.362499999999997,29.470700000000001,130.83799999999999,10.3454,3.56806,-9.9726900000000001
632.0,94.950000000000003,68.078900000000004,30.027200000000001,133.94499999999999,8.3425799999999999,7.7148500000000002,-10.575699999999999
633.0,98.621300000000005,81.516900000000007,47.859400000000001,153.98500000000001,6.6142599999999998,12.0969,-10.524900000000001
634.0,100.536,69.909899999999993,36.2819,140.29900000000001,6.4558900000000001,19.211400000000001,-11.8704
635.0,103.63200000000001,42.413499999999999,6.6480800000000002,107.752,7.8458600000000001,25.520299999999999,-15.446400000000001
636.0,106.462,-5.0101899999999997,-46.6145,54.030099999999997,7.0679499999999997,28.612300000000001,-18.755099999999999
637.0,108.751,-0.12819700000000001,-48.155799999999999,52.042000000000002,3.4211399999999998,31.247800000000002,-21.043299999999999
638.0,111.892,1.6746300000000001,-46.876300000000001,50.606099999999998,0.22393399999999999,36.091700000000003,-22.2469
639.0,115.27,14.562900000000001,-32.718600000000002,59.130400000000002,-3.0198999999999998,43.034100000000002,-21.4084
640.0,118.273,14.8162,-33.391399999999997,51.220599999999997,-6.6372499999999999,48.795299999999997,-20.889600000000002
641.0,116.491,29.261099999999999,-23.524100000000001,51.792200000000001,-8.7157400000000003,50.124400000000001,-20.990100000000002
642.0,111.009,20.117100000000001,-39.694499999999998,27.1433,-8.6185200000000002,47.405700000000003,-20.9068
643.0,101.837,25.951799999999999,-38.864600000000003,21.5776,-7.22098,40.1402,-21.9375
644.0,97.662300000000002,8.7784999999999993,-60.860199999999999,-9.1850900000000006,-8.3563399999999994,36.309800000000003,-21.999700000000001
645.0,98.268799999999999,28.260100000000001,-34.024299999999997,9.4338300000000004,-13.608000000000001,37.963099999999997,-23.919699999999999
646.0,95.044600000000003,98.466200000000001,36.500500000000002,69.038899999999998,-16.366099999999999,36.048299999999998,-21.979199999999999
647.0,96.843000000000004,132.95599999999999,60.545200000000001,84.123099999999994,-18.128699999999998,33.563000000000002,-17.523399999999999
648.0,92.496499999999997,109.91500000000001,38.455300000000001,59.7911,-18.8108,28.930399999999999,-17.758500000000002
649.0,86.464799999999997,115.907,43.593299999999999,63.489100000000001,-17.331199999999999,21.5944,-18.163
650.0,86.278099999999995,102.02200000000001,28.577400000000001,46.889099999999999,-18.7441,17.753399999999999,-18.795400000000001
651.0,88.822299999999998,69.658699999999996,15.6995,112.512,7.9978999999999996,-14.3017,2.8003399999999998
652.0,88.639399999999995,74.406000000000006,21.579899999999999,119.658,8.6567299999999996,-11.526199999999999,1.25539
653.0,87.709000000000003,68.3249,16.209199999999999,114.25700000000001,9.2525099999999991,-8.4792299999999994,-0.49381900000000001
654.0,86.509,73.171300000000002,21.666499999999999,118.889,9.7104400000000002,-5.3045,-2.5150000000000001
655.0,84.7834,69.786699999999996,19.331399999999999,114.56399999999999,9.8724399999999992,-2.4861399999999998,-4.7335599999999998
656.0,84.261799999999994,74.931399999999996,27.559000000000001,122.018,9.3795699999999993,0.230682,-6.9295099999999996
657.0,85.067800000000005,72.550299999999993,30.639700000000001,125.77,8.0851600000000001,2.6483699999999999,-8.1670599999999993
658.0,88.870699999999999,77.408699999999996,42.880699999999997,140.83099999999999,6.4978300000000004,7.2035799999999997,-8.3911700000000007
659.0,91.272599999999997,77.360200000000006,45.084400000000002,144.00299999999999,5.8755699999999997,10.6839,-9.1436899999999994
660.0,91.064899999999994,70.247799999999998,30.534600000000001,126.17100000000001,5.7893600000000003,17.772400000000001,-10.3154
661.0,96.476799999999997,-3.2904100000000001,-50.176600000000001,48.417299999999997,5.3037599999999996,21.4359,-13.5219
662.0,98.518600000000006,-17.4421,-67.657499999999999,32.148699999999998,4.2363099999999996,20.7026,-17.2746
663.0,100.256,-4.4373699999999996,-54.135300000000001,41.381599999999999,2.5245099999999998,26.748100000000001,-18.6129
664.0,104.789,2.6312000000000002,-42.031799999999997,50.713500000000003,-0.20421,34.301299999999998,-18.2271
665.0,107.333,9.4753299999999996,-32.703699999999998,53.492400000000004,-3.65239,40.834499999999998,-17.366399999999999
666.0,109.819,17.9664,-24.453299999999999,53.366300000000003,-7.0554600000000001,46.330599999999997,-17.4847
667.0,107.91800000000001,19.480699999999999,-26.534199999999998,41.8812,-9.3565199999999997,47.4574,-18.048300000000001
668.0,102.971,23.9194,-29.304099999999998,30.432300000000001,-10.059799999999999,44.950000000000003,-18.404699999999998
669.0,92.987399999999994,17.1968,-40.9512,13.0238,-8.5130499999999998,36.889499999999998,-19.923100000000002
670.0,87.457300000000004,11.440799999999999,-53.689,-6.5042299999999997,-8.21922,30.7407,-20.1328
671.0,89.044200000000004,10.457000000000001,-49.544899999999998,-6.5741199999999997,-13.355700000000001,31.963999999999999,-22.0624
672.0,87.045199999999994,83.831699999999998,28.110199999999999,60.043300000000002,-16.7882,31.996500000000001,-20.9346
673.0,88.662499999999994,118.56,53.827500000000001,73.807100000000005,-18.0579,30.728100000000001,-15.8529
674.0,86.3232,114.285,48.514600000000002,66.862300000000005,-18.985800000000001,26.920500000000001,-15.711600000000001
675.0,80.050600000000003,102.48999999999999,36.149500000000003,54.183799999999998,-17.744199999999999,19.3811,-16.3992
676.0,79.345200000000006,103.325,35.927100000000003,53.570099999999996,-18.568200000000001,15.460100000000001,-17.122800000000002
677.0,83.877200000000002,78.897599999999997,24.0121,116.116,6.3432199999999996,-12.370900000000001,2.24865
678.0,83.551299999999998,72.012600000000006,17.873200000000001,110.84,6.9386599999999996,-9.8850700000000007,0.90376500000000004
679.0,82.695800000000006,78.568700000000007,24.900700000000001,117.738,7.4610500000000002,-7.17157,-0.46044600000000002
680.0,81.068200000000004,71.855599999999995,18.6297,109.94499999999999,7.8651099999999996,-4.5033500000000002,-2.1974100000000001
681.0,79.420199999999994,77.161799999999999,25.4495,114.994,7.9039000000000001,-2.11477,-3.8688500000000001
682.0,78.357399999999998,70.150899999999993,22.398800000000001,110.858,7.3384600000000004,-0.38650699999999999,-5.6788800000000004
683.0,79.884399999999999,77.119200000000006,36.441899999999997,126.645,6.3835100000000002,2.5257399999999999,-6.2729799999999996
684.0,83.737799999999993,73.411600000000007,38.680100000000003,132.28100000000001,4.7378799999999996,5.4316899999999997,-6.8215300000000001
685.0,83.136200000000002,90.150599999999997,53.309199999999997,144.71000000000001,5.0510900000000003,10.3156,-7.5679600000000002
686.0,85.606200000000001,42.497300000000003,-2.5187400000000002,87.504499999999993,7.0086500000000003,16.767199999999999,-9.3006200000000003
687.0,89.409099999999995,-2.46184,-53.203800000000001,40.364400000000003,6.6875999999999998,15.972,-13.071400000000001
688.0,90.365600000000001,-5.8088899999999999,-56.682600000000001,35.944600000000001,4.7778400000000003,17.444600000000001,-15.587300000000001
689.0,93.5608,7.4009299999999998,-38.298400000000001,52.182400000000001,1.74553,25.193300000000001,-15.276199999999999
690.0,97.508700000000005,3.93574,-35.637900000000002,51.658799999999999,-1.11266,32.625900000000001,-13.8896
691.0,99.6828,15.726599999999999,-21.272099999999998,58.488799999999998,-3.7547600000000001,38.935099999999998,-13.7464
692.0,101.122,13.1333,-24.082899999999999,47.0623,-6.8007799999999996,43.4358,-14.468500000000001
693.0,99.347200000000001,27.325900000000001,-13.0913,48.677599999999998,-9.3186999999999998,44.401000000000003,-15.7332
694.0,94.811700000000002,20.014700000000001,-26.9148,26.238099999999999,-10.6105,42.035299999999999,-16.507000000000001
695.0,84.692499999999995,25.277100000000001,-26.9406,20.9419,-9.8515200000000007,33.642099999999999,-17.955500000000001
696.0,78.620199999999997,7.6762300000000003,-51.481400000000001,-9.5180000000000007,-9.2926000000000002,26.679300000000001,-18.335999999999999
697.0,79.403800000000004,17.274999999999999,-36.197299999999998,2.4645199999999998,-12.887499999999999,27.822700000000001,-19.980899999999998
698.0,79.035499999999999,70.883499999999998,21.5015,50.878599999999999,-16.900200000000002,28.8537,-18.630299999999998
699.0,82.009799999999998,120.809,63.0379,79.760400000000004,-19.148299999999999,28.123200000000001,-14.1637
700.0,80.309200000000004,107.25,47.479799999999997,62.849499999999999,-19.3797,24.694600000000001,-14.1816
701.0,74.2761,107.88800000000001,47.006599999999999,63.594499999999996,-18.043500000000002,17.194700000000001,-15.0716
702.0,73.340299999999999,94.417299999999997,32.633899999999997,49.787500000000001,-18.667400000000001,13.175800000000001,-15.926500000000001
703.0,79.708699999999993,71.698300000000003,15.4832,103.41,4.7597500000000004,-10.4754,1.62249
704.0,79.358699999999999,79.159000000000006,23.284700000000001,111.76900000000001,5.2529399999999997,-8.2983499999999992,0.599553
705.0,78.575599999999994,70.290400000000005,14.683199999999999,102.926,5.6732899999999997,-5.9057899999999997,-0.53895899999999997
706.0,76.766499999999994,79.368499999999997,23.950800000000001,110.233,6.0115299999999996,-3.7308400000000002,-1.70662
707.0,75.090000000000003,70.969800000000006,17.632400000000001,102.23699999999999,6.0827400000000003,-1.7748999999999999,-3.0481099999999999
708.0,73.516199999999998,82.596900000000005,34.344700000000003,117.676,5.8099999999999996,-0.79167699999999996,-4.08169
709.0,75.921199999999999,71.938999999999993,31.2058,117.70699999999999,4.7192699999999999,2.1554000000000002,-4.6585900000000002
710.0,78.359499999999997,90.111000000000004,52.975299999999997,141.35900000000001,5.2189800000000002,4.1719900000000001,-5.7078800000000003
711.0,77.331900000000005,68.315299999999993,25.9053,110.465,6.59511,11.390599999999999,-5.7067300000000003
712.0,79.896799999999999,3.2693400000000001,-44.545099999999998,40.965699999999998,5.85168,13.8385,-8.0952199999999994
713.0,79.647199999999998,-19.649899999999999,-69.335400000000007,16.587900000000001,4.3706300000000002,10.7212,-10.9427
714.0,82.0565,-1.76234,-48.434399999999997,37.052,2.2126000000000001,16.6099,-11.4679
715.0,87.322800000000001,-5.6067200000000001,-44.112200000000001,41.240299999999998,0.26751599999999998,24.3156,-11.1073
716.0,90.608400000000003,8.2386400000000002,-25.9011,54.485199999999999,-1.48916,31.6721,-10.1776
717.0,92.203800000000001,7.7696300000000003,-24.668500000000002,48.860500000000002,-3.6587100000000001,36.686900000000001,-10.8012
718.0,92.360100000000003,17.9665,-15.694100000000001,49.196399999999997,-6.1634799999999998,40.072000000000003,-12.104799999999999
719.0,90.630300000000005,15.4171,-20.930399999999999,35.347700000000003,-8.7311700000000005,40.625700000000002,-14.035600000000001
720.0,86.758799999999994,21.384399999999999,-21.1053,26.639399999999998,-10.433299999999999,38.526400000000002,-15.181100000000001
721.0,76.887500000000003,14.182700000000001,-32.398200000000003,10.291700000000001,-10.192600000000001,30.2318,-16.8767
722.0,70.736400000000003,7.1479400000000002,-46.508699999999997,-10.2256,-10.0435,23.0105,-16.9695
723.0,71.898200000000003,4.64961,-43.023600000000002,-7.0347400000000002,-13.430300000000001,24.299499999999998,-18.299399999999999
724.0,71.392600000000002,84.945800000000006,40.753700000000002,69.274900000000002,-17.076599999999999,24.767800000000001,-17.085699999999999
725.0,76.825699999999998,115.166,61.557499999999997,76.389499999999998,-19.770600000000002,25.0947,-13.4366
726.0,75.170299999999997,107.992,53.923900000000003,67.237099999999998,-19.956399999999999,22.4998,-13.617699999999999
727.0,68.869399999999999,96.625799999999998,41.094000000000001,56.238399999999999,-18.456199999999999,14.7324,-14.1165
728.0,68.465100000000007,94.573300000000003,37.751300000000001,54.818399999999997,-18.9712,11.1653,-15.0944
729.0,76.276200000000003,81.866299999999995,23.824400000000001,107.95699999999999,3.0776300000000001,-8.6246700000000001,0.91652500000000003
730.0,76.246099999999998,75.190899999999999,17.166,101.999,3.4621900000000001,-6.7424299999999997,0.16894600000000001
731.0,75.402000000000001,82.7607,24.567299999999999,108.73999999999999,3.7985099999999998,-4.7570199999999998,-0.60836000000000001
732.0,73.857699999999994,75.5471,17.560500000000001,99.978399999999993,4.0822500000000002,-2.82999,-1.28101
733.0,71.755399999999995,81.965100000000007,26.004799999999999,106.21299999999999,4.0278400000000003,-1.7303999999999999,-2.21896
734.0,70.598799999999997,73.881900000000002,23.753399999999999,103.958,3.6053099999999998,-0.57142999999999999,-2.5223
735.0,72.463300000000004,83.141499999999994,41.118200000000002,124.221,3.3084699999999998,0.74021800000000004,-3.4951300000000001
736.0,72.103399999999993,76.919600000000003,37.277099999999997,119.355,3.78241,4.56318,-3.60337
737.0,73.095500000000001,41.579599999999999,-4.6735800000000003,75.743200000000002,3.9294500000000001,11.153499999999999,-3.4998900000000002
738.0,74.347200000000001,-10.437200000000001,-62.297899999999998,19.448,3.5000499999999999,9.1356199999999994,-5.9956300000000002
739.0,73.093500000000006,0.099314700000000006,-49.910400000000003,30.275700000000001,3.2073200000000002,8.2082999999999995,-7.93649
740.0,76.055499999999995,2.4540799999999998,-38.969700000000003,41.021599999999999,1.65164,16.061599999999999,-8.19224
741.0,81.641099999999994,10.734299999999999,-21.985399999999998,57.401499999999999,-0.12554299999999999,23.8978,-7.6716300000000004
742.0,84.3934,8.3075700000000001,-21.2837,52.716200000000001,-1.6045,30.458300000000001,-7.5173199999999998
743.0,84.543199999999999,15.309699999999999,-14.1652,53.240099999999998,-3.1093099999999998,34.012799999999999,-8.6112199999999994
744.0,83.780600000000007,11.255699999999999,-20.418399999999998,39.096899999999998,-5.3604099999999999,36.182299999999998,-10.7281
745.0,81.887799999999999,24.099599999999999,-10.8582,41.480400000000003,-7.69719,35.934699999999999,-13.1937
746.0,79.190399999999997,15.9633,-25.4085,19.767600000000002,-9.9200599999999994,33.676900000000003,-15.165800000000001
747.0,70.773200000000003,23.036000000000001,-22.5215,19.039400000000001,-10.075900000000001,25.4956,-16.780999999999999
748.0,65.830500000000001,3.3469199999999999,-49.108800000000002,-12.952500000000001,-10.401899999999999,17.944099999999999,-17.134799999999998
749.0,66.914299999999997,13.3919,-32.975900000000003,3.0397799999999999,-12.7614,19.196000000000002,-19.204000000000001
750.0,66.068399999999997,78.024900000000002,37.047800000000002,64.859999999999999,-15.549200000000001,20.493500000000001,-18.857199999999999
751.0,71.337199999999996,120.473,71.209699999999998,85.222399999999993,-19.052,21.756900000000002,-14.686400000000001
752.0,70.541700000000006,99.627399999999994,49.923999999999999,62.291499999999999,-20.293199999999999,19.772099999999998,-13.652699999999999
753.0,64.860299999999995,102.607,51.761800000000001,66.274199999999993,-19.298300000000001,12.358700000000001,-13.8253
754.0,64.398700000000005,85.728700000000003,33.107900000000001,50.780500000000004,-19.254999999999999,9.1633499999999994,-14.510899999999999
755.0,73.743899999999996,76.239500000000007,16.123799999999999,96.993499999999997,1.3317699999999999,-6.8433299999999999,0.160914
756.0,73.867999999999995,81.445800000000006,21.124199999999998,102.619,1.5765,-5.3025200000000003,-0.38457200000000002
757.0,73.184899999999999,75.912899999999993,15.234299999999999,96.005600000000001,1.7863199999999999,-3.6635499999999999,-0.68049300000000001
758.0,71.656499999999994,81.180300000000003,20.895,99.840000000000003,1.9014899999999999,-2.1745100000000002,-0.860626
759.0,69.255200000000002,78.214799999999997,19.874300000000002,96.140199999999993,2.3096800000000002,-1.39618,-1.11521
760.0,68.454300000000003,82.167400000000001,30.581199999999999,108.012,2.5213399999999999,-0.20356099999999999,-1.22902
761.0,68.570999999999998,81.789100000000005,39.200600000000001,118.075,2.2725399999999998,-0.51470700000000003,-1.81569
762.0,68.406199999999998,89.789400000000001,46.240400000000001,124.304,1.68906,4.9140499999999996,-1.5913200000000001
763.0,71.757400000000004,29.904399999999999,-21.758199999999999,57.290999999999997,1.4885699999999999,9.9679800000000007,-1.86954
764.0,69.657700000000006,-7.1069500000000003,-60.829599999999999,16.315899999999999,2.4682400000000002,6.0705799999999996,-3.1764299999999999
765.0,67.1066,-9.5038499999999999,-57.085299999999997,17.459299999999999,2.2709299999999999,7.3543500000000002,-4.1474000000000002
766.0,70.631299999999996,-0.15674299999999999,-36.3675,38.592599999999997,0.83799400000000002,15.322100000000001,-4.7080700000000002
767.0,76.140199999999993,-0.54464000000000001,-29.1432,44.226199999999999,-0.27346799999999999,23.249300000000002,-4.9272900000000002
768.0,78.309100000000001,8.0081600000000002,-19.410299999999999,49.271799999999999,-1.41947,28.508600000000001,-5.8368599999999997
769.0,76.993399999999994,9.1770499999999995,-20.3033,42.351799999999997,-2.6544099999999999,30.503699999999998,-7.4782999999999999
770.0,75.405299999999997,15.193,-17.587,38.750399999999999,-4.7245100000000004,31.104900000000001,-10.242800000000001
771.0,74.060699999999997,10.532500000000001,-26.253299999999999,24.360800000000001,-7.0592499999999996,30.3308,-13.1975
772.0,72.360500000000002,14.3878,-28.058900000000001,16.908200000000001,-9.3728099999999994,27.662299999999998,-15.935600000000001
773.0,67.051299999999998,5.0552400000000004,-42.18,-0.264154,-9.6704699999999999,20.646599999999999,-17.590599999999998
774.0,62.979999999999997,-1.3202100000000001,-52.730499999999999,-14.609400000000001,-10.2722,12.7685,-18.4788
775.0,63.103099999999998,-8.7349599999999992,-56.326900000000002,-19.979900000000001,-12.213800000000001,12.7378,-19.9285
776.0,63.646099999999997,52.404400000000003,11.5831,41.963799999999999,-14.924899999999999,16.566600000000001,-20.083500000000001
777.0,65.154499999999999,98.239099999999993,53.523800000000001,71.212400000000002,-18.359100000000002,17.854800000000001,-15.876300000000001
778.0,66.248400000000004,104.54300000000001,57.227600000000002,69.895300000000006,-20.4542,16.0899,-13.628500000000001
779.0,62.356900000000003,88.091300000000004,41.079599999999999,56.288899999999998,-20.265899999999998,10.6547,-14.0154
780.0,60.848300000000002,88.618300000000005,39.683799999999998,58.457999999999998,-19.508400000000002,6.9251500000000004,-14.006500000000001
781.0,71.982399999999998,84.318299999999994,22.116800000000001,100.08,-0.62678199999999995,-5.1855599999999997,-0.75965300000000002
782.0,72.210499999999996,79.356300000000005,16.758299999999998,95.209400000000002,-0.52647699999999997,-4.0208300000000001,-0.969912
783.0,71.740499999999997,85.984899999999996,23.1326,101.032,-0.489012,-2.6621700000000001,-0.84455100000000005
784.0,70.2654,80.725499999999997,18.266300000000001,94.231300000000005,-0.41244799999999998,-1.7300800000000001,-0.45556799999999997
785.0,67.045199999999994,84.946600000000004,25.673200000000001,98.404799999999994,-0.23787900000000001,-0.89568700000000001,0.321409
786.0,64.912300000000002,67.864199999999997,17.100000000000001,90.236199999999997,0.0436292,-0.24348500000000001,0.271789
787.0,64.8001,87.044700000000006,45.3127,119.932,0.46083800000000003,-0.89163000000000003,0.40017399999999997
788.0,64.089500000000001,80.417299999999997,39.187800000000003,112.34699999999999,0.50468900000000005,4.8382199999999997,0.456231
789.0,66.237899999999996,33.347200000000001,-14.4879,58.322400000000002,0.64887399999999995,9.6488499999999995,0.288051
790.0,64.848799999999997,-5.2187700000000001,-56.706200000000003,15.114800000000001,1.43615,5.4113100000000003,0.050359599999999997
791.0,63.508400000000002,5.7374200000000002,-41.195099999999996,29.768899999999999,1.6675800000000001,6.1973399999999996,-0.75834900000000005
792.0,66.767899999999997,6.6926300000000003,-29.788599999999999,41.936,1.0827899999999999,13.9496,-1.99793
793.0,71.295900000000003,14.536799999999999,-14.9252,54.878500000000003,-0.033421800000000002,21.305,-3.5293199999999998
794.0,72.159099999999995,11.565799999999999,-17.844000000000001,47.396099999999997,-1.04349,25.322900000000001,-5.0802300000000002
795.0,70.061300000000003,12.9504,-19.429600000000001,40.310200000000002,-2.2853599999999998,26.137599999999999,-7.3136799999999997
796.0,67.774600000000007,9.2615099999999995,-26.874600000000001,27.660699999999999,-4.2398499999999997,25.138500000000001,-10.5581
797.0,68.110600000000005,15.457599999999999,-25.4907,25.288799999999998,-7.0211100000000002,23.8795,-14.195
798.0,68.290899999999993,11.593500000000001,-34.863799999999998,13.161300000000001,-9.9474800000000005,20.5839,-16.952200000000001
799.0,67.489000000000004,11.888999999999999,-40.990600000000001,5.95777,-11.667400000000001,14.6067,-18.1524
800.0,65.334299999999999,1.4289099999999999,-53.639299999999999,-6.8830200000000001,-12.169700000000001,6.5643000000000002,-18.718299999999999
801.0,63.572899999999997,-5.1116099999999998,-58.323300000000003,-16.1145,-12.8545,5.7027200000000002,-18.984000000000002
802.0,63.019399999999997,13.8423,-29.299099999999999,7.1021900000000002,-15.0534,12.666600000000001,-19.953800000000001
803.0,60.278799999999997,92.856099999999998,51.860300000000002,75.236099999999993,-17.930499999999999,13.6279,-16.7639
804.0,62.845700000000001,101.346,55.128500000000003,69.637,-20.544799999999999,12.088100000000001,-13.771000000000001
805.0,60.403100000000002,89.878600000000006,45.680599999999998,63.300600000000003,-20.848400000000002,9.1367700000000003,-14.247299999999999
806.0,58.281199999999998,83.303899999999999,37.5501,58.063699999999997,-19.964200000000002,4.6108200000000004,-13.681699999999999
807.0,70.760599999999997,79.391599999999997,15.409000000000001,90.575800000000001,-2.7126800000000002,-3.7251400000000001,-1.72235
808.0,70.9268,85.497900000000001,21.360299999999999,96.895700000000005,-2.77861,-2.9357899999999999,-1.53139
809.0,70.200299999999999,78.909000000000006,15.2913,90.160600000000002,-2.8495200000000001,-1.9863900000000001,-0.87066500000000002
810.0,68.208799999999997,85.726100000000002,23.3277,95.817999999999998,-2.7422800000000001,-1.2450699999999999,0.192942
811.0,65.594399999999993,81.013000000000005,21.764199999999999,91.831299999999999,-2.7867600000000001,-0.63168199999999997,1.7986200000000001
812.0,62.627499999999998,88.600899999999996,37.028500000000001,106.304,-2.5848900000000001,-0.561164,2.2469399999999999
813.0,61.7577,83.430300000000003,42.442900000000002,113.238,-1.3113999999999999,0.29047699999999999,2.4736500000000001
814.0,61.283799999999999,98.123000000000005,59.8309,129.93100000000001,-1.7077100000000001,3.2441300000000002,2.5377200000000002
815.0,62.102899999999998,51.093499999999999,5.3370300000000004,72.838700000000003,-3.24579,8.8441500000000008,3.11022
816.0,62.459600000000002,0.32102399999999998,-50.095700000000001,18.051300000000001,-0.96884700000000001,6.3958700000000004,2.91778
817.0,61.768900000000002,-9.8275400000000008,-57.7438,11.1236,1.2289600000000001,4.4755399999999996,1.9967200000000001
818.0,63.374699999999997,4.1429,-35.970799999999997,32.887999999999998,0.85365500000000005,11.9084,0.30471799999999999
819.0,66.992400000000004,-1.6922600000000001,-35.280799999999999,32.677,-0.027123100000000001,18.2714,-2.7444299999999999
820.0,66.694599999999994,9.2011199999999995,-26.148,37.674300000000002,-1.2281500000000001,20.831900000000001,-4.9987599999999999
821.0,65.092299999999994,6.3978799999999998,-33.521799999999999,26.5151,-2.8938899999999999,20.155100000000001,-7.9965799999999998
822.0,63.521000000000001,12.3299,-31.020499999999998,25.340299999999999,-4.9611000000000001,18.170100000000001,-10.9254
823.0,64.186599999999999,0.26817299999999999,-44.777900000000002,7.3553600000000001,-8.0808099999999996,17.163399999999999,-14.624700000000001
824.0,65.755799999999994,5.2036100000000003,-42.875599999999999,5.8220499999999999,-10.1877,15.702999999999999,-17.616199999999999
825.0,65.148499999999999,-10.2342,-61.283200000000001,-16.2318,-11.262600000000001,11.707000000000001,-19.2944
826.0,62.494599999999998,-11.6015,-62.677999999999997,-19.5992,-11.247400000000001,5.1510999999999996,-19.850999999999999
827.0,60.242899999999999,-26.4192,-76.355199999999996,-35.856000000000002,-12.723800000000001,4.1164399999999999,-18.085599999999999
828.0,59.546799999999998,10.813000000000001,-30.447800000000001,7.7790100000000004,-16.325800000000001,9.7479200000000006,-17.075199999999999
829.0,57.511000000000003,78.943899999999999,39.687399999999997,66.564999999999998,-18.676100000000002,10.2501,-15.6798
830.0,59.695500000000003,100.776,56.665399999999998,74.380600000000001,-20.472999999999999,9.0533599999999996,-13.929600000000001
831.0,58.075899999999997,77.190100000000001,35.3874,55.962299999999999,-21.007400000000001,6.9410100000000003,-14.0671
832.0,57.048699999999997,84.013999999999996,40.969099999999997,63.853700000000003,-20.765699999999999,2.8106200000000001,-13.4871
833.0,69.753799999999998,86.439499999999995,21.484300000000001,93.779399999999995,-4.9989600000000003,-2.5483600000000002,-2.66568
834.0,69.639600000000002,83.683099999999996,19.153400000000001,91.662300000000002,-5.2105499999999996,-2.1342099999999999,-1.9934000000000001
835.0,68.606399999999994,88.686099999999996,25.557500000000001,97.405900000000003,-5.3734700000000002,-1.5147200000000001,-0.73377099999999995
836.0,66.428899999999999,86.432100000000005,25.0932,94.449100000000001,-5.4077700000000002,-0.91753600000000002,1.16161
837.0,63.389099999999999,87.0458,30.072900000000001,97.063999999999993,-4.6629500000000004,-0.20372899999999999,3.4536500000000001
838.0,59.298400000000001,85.157600000000002,35.191600000000001,99.504900000000006,-3.1695799999999998,-0.58933599999999997,4.6832399999999996
839.0,58.604500000000002,86.3566,46.781199999999998,113.111,-2.0791300000000001,1.96286,4.79915
840.0,58.760800000000003,89.380300000000005,53.9131,121.107,-1.2976700000000001,1.7060999999999999,4.0518099999999997
841.0,59.215000000000003,87.932900000000004,41.548299999999998,104.999,-2.5104799999999998,8.20397,4.1299700000000001
842.0,63.783700000000003,14.7559,-39.507100000000001,27.732800000000001,-2.14419,7.72309,4.4189299999999996
843.0,63.629199999999997,2.69842,-51.359099999999998,18.115200000000002,-0.020322900000000001,1.90429,3.8518400000000002
844.0,63.4876,14.1744,-35.902900000000002,32.983600000000003,-0.088865600000000003,8.5555500000000002,1.595
845.0,65.487300000000005,14.2644,-29.7195,39.997599999999998,-1.0438400000000001,13.4008,-2.4462199999999998
846.0,64.505200000000002,13.5885,-32.021700000000003,33.2988,-2.2307700000000001,15.227499999999999,-5.2467499999999996
847.0,62.816099999999999,6.75075,-41.347299999999997,19.9617,-3.8450799999999998,13.6152,-8.6026000000000007
848.0,62.575200000000002,2.0922200000000002,-48.4574,9.5382899999999999,-6.1405900000000004,11.757899999999999,-11.556900000000001
849.0,62.711399999999998,13.5467,-34.176200000000001,20.535499999999999,-9.33535,11.705399999999999,-14.146599999999999
850.0,61.441899999999997,7.5981899999999998,-36.987200000000001,10.1828,-12.8537,13.247400000000001,-14.6425
851.0,58.8855,10.8096,-30.933299999999999,9.2825799999999994,-16.030000000000001,12.1326,-13.831899999999999
852.0,55.688600000000001,1.40883,-40.389000000000003,-2.8515600000000001,-17.450399999999998,7.3624700000000001,-12.081899999999999
853.0,55.864400000000003,10.771100000000001,-31.539400000000001,7.2140300000000002,-17.991,5.7573499999999997,-11.518599999999999
854.0,56.482900000000001,47.483899999999998,8.4029199999999999,46.767000000000003,-18.429500000000001,7.1697899999999999,-13.1319
855.0,56.051099999999998,91.861199999999997,51.914299999999997,80.433099999999996,-19.140899999999998,7.5716200000000002,-14.151300000000001
856.0,56.776400000000002,86.214200000000005,45.7836,67.610100000000003,-20.563700000000001,6.7119099999999996,-14.038600000000001
857.0,56.254899999999999,85.038600000000002,45.356099999999998,69.228300000000004,-21.261900000000001,3.9420000000000002,-13.717599999999999
858.0,56.860100000000003,74.061300000000003,33.113900000000001,59.258800000000001,-21.651,1.54023,-13.2913
859.0,68.694199999999995,82.438900000000004,17.5932,86.907799999999995,-7.3249300000000002,-1.66038,-3.4130600000000002
860.0,67.761399999999995,89.404399999999995,26.229199999999999,95.325000000000003,-7.5222100000000003,-1.6651100000000001,-2.10859
861.0,65.887200000000007,81.495599999999996,21.3797,89.643500000000003,-7.4487100000000002,-1.2276899999999999,-0.087062600000000004
862.0,63.124600000000001,90.033199999999994,32.699800000000003,98.057100000000005,-7.1438300000000003,-0.76239299999999999,2.47221
863.0,60.806800000000003,83.824600000000004,30.1816,93.425299999999993,-6.8258400000000004,0.358209,4.9177400000000002
864.0,57.900799999999997,97.965999999999994,48.613700000000001,108.95,-5.9772100000000004,-0.34089999999999998,6.9895800000000001
865.0,57.262599999999999,85.130200000000002,42.633600000000001,105.34699999999999,-4.8167,2.45275,6.25929
866.0,59.026800000000001,109.277,68.848699999999994,135.41399999999999,-3.5940099999999999,0.496533,4.8445499999999999
867.0,60.034500000000001,91.522000000000006,40.355800000000002,103.006,-3.8926799999999999,7.0032699999999997,4.9706700000000001
868.0,65.8613,14.010999999999999,-45.5321,21.5061,-3.0336699999999999,7.6924400000000004,5.31487
869.0,67.225300000000004,-12.5885,-74.431600000000003,-3.97485,-1.6955199999999999,-0.39891399999999999,5.1208799999999997
870.0,66.025899999999993,3.8773,-56.194299999999998,13.1312,-2.01918,5.15097,2.4121100000000002
871.0,65.983000000000004,-5.3037099999999997,-59.239699999999999,11.7095,-2.3328099999999998,8.3735800000000005,-1.90693
872.0,65.457800000000006,3.59354,-51.937600000000003,15.1412,-4.5281799999999999,9.5698699999999999,-5.4817400000000003
873.0,65.415700000000001,3.98624,-53.301299999999998,12.0192,-6.7696800000000001,6.7171399999999997,-8.1606900000000007
874.0,63.750900000000001,2.74268,-54.371099999999998,5.0254799999999999,-8.3956900000000001,6.6658299999999997,-10.3576
875.0,60.680599999999998,-0.75940200000000002,-46.685699999999997,9.3145799999999994,-9.9579400000000007,9.2522400000000005,-12.308199999999999
876.0,57.436399999999999,50.552399999999999,11.0222,57.353299999999997,-14.6274,11.351699999999999,-11.441800000000001
877.0,58.472700000000003,67.195700000000002,28.049900000000001,66.778000000000006,-18.631599999999999,12.6805,-11.240399999999999
878.0,56.423299999999998,76.994200000000006,37.730499999999999,75.5184,-19.1676,8.7763799999999996,-11.022
879.0,54.3964,74.038499999999999,34.971699999999998,70.292699999999996,-18.759899999999998,6.0433899999999996,-11.5425
880.0,52.628999999999998,84.374300000000005,48.543199999999999,80.965199999999996,-17.646899999999999,6.1920599999999997,-13.505800000000001
881.0,53.216900000000003,83.165700000000001,45.984099999999998,73.010800000000003,-18.872800000000002,5.6127900000000004,-13.674300000000001
882.0,54.997700000000002,81.546300000000002,44.773800000000001,70.265699999999995,-21.1586,4.1722700000000001,-13.7212
883.0,55.6419,72.870500000000007,35.630699999999997,62.828299999999999,-21.9621,1.25891,-13.298999999999999
884.0,56.901800000000001,73.9833,34.973100000000002,64.541799999999995,-22.433199999999999,0.36944100000000002,-12.715199999999999
885.0,67.171499999999995,88.829300000000003,25.574000000000002,91.591099999999997,-9.6401299999999992,-1.1698,-3.89635
886.0,65.485699999999994,87.726100000000002,27.3262,92.810900000000004,-9.85534,-1.40517,-1.8203
887.0,63.7881,92.653499999999994,35.535800000000002,100.501,-9.8778500000000005,-1.0363100000000001,0.48939300000000002
888.0,61.9739,92.793400000000005,37.720199999999998,100.456,-9.7285000000000004,-0.35838999999999999,3.7701899999999999
889.0,60.138100000000001,91.783699999999996,38.414200000000001,99.0304,-8.2219599999999993,1.08595,6.3949100000000003
890.0,59.035200000000003,90.182699999999997,36.301200000000001,94.454899999999995,-6.4533800000000001,0.50496600000000003,8.3224999999999998
891.0,58.495699999999999,90.941500000000005,39.499099999999999,100.13200000000001,-4.8306699999999996,2.8104,6.4415300000000002
892.0,60.084800000000001,75.8322,27.2652,93.364699999999999,-1.6727000000000001,0.42858200000000002,5.2789400000000004
893.0,59.817900000000002,75.059100000000001,21.1203,82.480199999999996,-2.8051300000000001,5.7542,5.4922399999999998
894.0,65.0672,10.917,-49.823399999999999,14.6084,-5.4992999999999999,6.63896,5.2770999999999999
895.0,70.314300000000003,3.0367799999999998,-64.206500000000005,6.0934400000000002,-5.3460999999999999,-1.5328999999999999,6.1852900000000002
896.0,70.997100000000003,14.7819,-54.284100000000002,16.302399999999999,-6.3489300000000002,1.3525,3.4990299999999999
897.0,70.239000000000004,14.3009,-49.691299999999998,23.385899999999999,-6.7188299999999996,3.6129099999999998,-0.076987100000000003
898.0,67.063199999999995,8.7720099999999999,-52.3444,15.7494,-7.3972199999999999,4.9682399999999998,-4.0386699999999998
899.0,62.756399999999999,-1.2542599999999999,-58.371899999999997,4.0423499999999999,-6.9629399999999997,4.16066,-7.0231000000000003
900.0,58.422899999999998,-9.8297699999999999,-62.086300000000001,-7.1998100000000003,-8.6350999999999996,6.0460399999999996,-8.2621199999999995
901.0,56.238,26.302700000000002,-13.498200000000001,39.711300000000001,-10.8665,8.8197100000000006,-9.6181800000000006
902.0,52.682499999999997,96.127300000000005,60.747399999999999,103.121,-12.34,11.0321,-11.624599999999999
903.0,53.728000000000002,118.014,82.927099999999996,114.328,-13.6465,14.226900000000001,-14.206200000000001
904.0,50.869900000000001,103.52,72.221699999999998,99.983599999999996,-14.087400000000001,11.2883,-15.585100000000001
905.0,48.460799999999999,105.771,74.463399999999993,99.340999999999994,-15.539300000000001,7.07944,-14.7591
906.0,49.253700000000002,83.847700000000003,52.354999999999997,79.136600000000001,-17.477799999999998,5.6094799999999996,-13.5337
907.0,51.965000000000003,87.297200000000004,53.852800000000002,81.545500000000004,-19.897099999999998,3.1655000000000002,-13.2082
908.0,54.842799999999997,73.907700000000006,39.5045,68.808599999999998,-21.8918,1.12608,-13.316800000000001
909.0,56.334200000000003,77.2911,42.315800000000003,73.334299999999999,-22.960599999999999,-0.76558000000000004,-12.7759
910.0,57.115200000000002,67.967699999999994,30.968599999999999,63.617699999999999,-23.167100000000001,-0.82662800000000003,-11.875
911.0,65.4846,86.726699999999994,25.808800000000002,88.540400000000005,-11.755599999999999,-0.782941,-3.95967
912.0,63.0608,92.444199999999995,35.658799999999999,98.024199999999993,-11.5207,-0.940299,-1.0421
913.0,60.7455,86.692499999999995,32.901800000000001,93.915700000000001,-10.7508,-0.740151,1.5796399999999999
914.0,60.277299999999997,91.989699999999999,38.862099999999998,99.144099999999995,-10.2639,0.79116600000000004,4.5316400000000003
915.0,61.549700000000001,92.126199999999997,36.3553,94.274299999999997,-11.834099999999999,0.53436899999999998,6.6473100000000001
916.0,64.5244,104.10299999999999,42.6873,98.267899999999997,-13.196999999999999,1.8510899999999999,7.8121700000000001
917.0,63.7697,64.036600000000007,4.5632400000000004,64.750600000000006,-10.071199999999999,2.3031700000000002,7.4458000000000002
918.0,60.448900000000002,64.129300000000001,13.1912,75.151700000000005,-7.4169400000000003,-1.28928,8.2947699999999998
919.0,58.264200000000002,59.841900000000003,9.6138499999999993,67.453900000000004,-8.5693300000000008,4.7088200000000002,6.9464300000000003
920.0,62.742400000000004,19.802199999999999,-37.304099999999998,23.933700000000002,-8.7208699999999997,5.3126199999999999,6.0455399999999999
921.0,67.729500000000002,-12.3728,-77.717799999999997,-11.8665,-7.0678299999999998,0.0230771,6.6861899999999999
922.0,68.683300000000003,-4.1202100000000002,-72.115799999999993,-4.95669,-6.0421399999999998,-0.11321000000000001,3.67944
923.0,67.513300000000001,-14.9276,-79.925899999999999,-11.7851,-5.7948599999999999,2.47417,0.095291600000000004
924.0,63.044499999999999,-2.5980300000000001,-59.365699999999997,5.3972699999999998,-7.6728800000000001,3.45594,-2.6956500000000001
925.0,57.622100000000003,13.319599999999999,-36.204900000000002,20.823699999999999,-11.163,4.0539199999999997,-2.3481000000000001
926.0,55.302799999999998,29.781500000000001,-14.4671,37.212400000000002,-13.3345,6.86571,-3.7235499999999999
927.0,52.1038,57.132599999999996,20.815999999999999,69.748800000000003,-11.835000000000001,8.4229000000000003,-6.9647699999999997
928.0,48.198099999999997,97.739999999999995,65.279499999999999,102.21599999999999,-11.3446,11.478400000000001,-10.3714
929.0,48.057299999999998,88.798599999999993,60.198599999999999,87.810400000000001,-13.2721,13.474399999999999,-12.189
930.0,46.503700000000002,86.407300000000006,60.454900000000002,84.651200000000003,-15.8847,10.3147,-12.3209
931.0,46.5107,76.271500000000003,49.529299999999999,73.704599999999999,-17.648099999999999,6.0281000000000002,-12.473699999999999
932.0,49.024000000000001,82.257499999999993,52.832700000000003,80.475300000000004,-18.9863,2.8670900000000001,-12.658300000000001
933.0,52.866399999999999,70.4054,39.316600000000001,69.733500000000006,-21.207000000000001,0.249115,-12.902200000000001
934.0,55.448,72.767099999999999,41.074100000000001,73.5077,-22.882200000000001,-1.53562,-12.492100000000001
935.0,56.996400000000001,63.3202,30.771000000000001,64.856800000000007,-23.8569,-2.1870500000000002,-11.760999999999999
936.0,57.3354,70.074799999999996,35.395699999999998,70.359399999999994,-23.9741,-1.68987,-10.6759
937.0,63.869700000000002,94.903800000000004,36.931199999999997,96.201899999999995,-14.126200000000001,-0.86514800000000003,-3.68289
938.0,62.559100000000001,89.038399999999996,34.263500000000001,93.840500000000006,-14.425599999999999,-0.60339399999999999,-0.79240699999999997
939.0,63.008299999999998,104.678,49.319800000000001,107.89100000000001,-15.390000000000001,-0.569137,1.39212
940.0,67.359099999999998,95.490099999999998,35.660800000000002,97.040999999999997,-16.479199999999999,1.83158,3.5473400000000002
941.0,72.728300000000004,109.24299999999999,37.271799999999999,97.605699999999999,-15.227399999999999,1.12649,6.1163999999999996
942.0,77.545000000000002,81.653000000000006,0.052590400000000002,59.292999999999999,-12.1111,5.6943900000000003,6.8773799999999996
943.0,73.167000000000002,41.642499999999998,-31.98,31.882999999999999,-10.6469,0.67678799999999995,8.4647500000000004
944.0,66.712100000000007,74.694800000000001,15.0824,75.775599999999997,-12.6518,-3.4650699999999999,10.2475
945.0,61.8996,100.22499999999999,48.5137,105.857,-13.651,5.7237799999999996,7.6852600000000004
946.0,60.163200000000003,54.874699999999997,5.6970299999999998,62.851599999999998,-12.6258,5.1504000000000003,7.9043099999999997
947.0,60.626800000000003,31.842199999999998,-20.473600000000001,35.306600000000003,-12.710100000000001,3.30071,8.7195599999999995
948.0,60.199199999999998,10.374499999999999,-41.422600000000003,16.2181,-12.1105,1.53783,7.2359600000000004
949.0,58.828099999999999,13.941800000000001,-35.540999999999997,21.2667,-12.604100000000001,3.8396699999999999,5.0087000000000002
950.0,58.045999999999999,25.608899999999998,-18.4069,40.369500000000002,-12.9184,4.08413,2.1344699999999999
951.0,56.286900000000003,77.092799999999997,33.0212,88.434399999999997,-13.5275,4.0170700000000004,0.12400799999999999
952.0,54.288400000000003,90.1554,46.889899999999997,97.644099999999995,-13.3683,6.5527600000000001,-3.1776900000000001
953.0,50.009599999999999,101.309,63.6004,110.38500000000001,-11.327199999999999,7.1741599999999996,-6.1932400000000003
954.0,48.013800000000003,99.779899999999998,64.156599999999997,103.898,-12.186299999999999,8.0911200000000001,-8.7697400000000005
955.0,48.809899999999999,101.97799999999999,68.3476,104.25700000000001,-14.5898,7.1002999999999998,-11.250999999999999
956.0,50.053100000000001,95.284599999999998,62.326099999999997,96.188199999999995,-16.971699999999998,3.63978,-12.7094
957.0,51.643099999999997,91.680199999999999,60.129100000000001,93.594499999999996,-19.158100000000001,0.69313999999999998,-12.9735
958.0,53.105600000000003,76.561099999999996,46.057899999999997,79.927199999999999,-20.8599,-1.5692999999999999,-12.422499999999999
959.0,55.456499999999998,76.539599999999993,46.373800000000003,81.743300000000005,-22.542000000000002,-3.0220899999999999,-11.966100000000001
960.0,57.200600000000001,66.547499999999999,36.781399999999998,73.167599999999993,-23.877500000000001,-3.8467099999999999,-11.4048
961.0,57.585299999999997,70.706400000000002,40.575600000000001,77.258799999999994,-24.5214,-3.3327200000000001,-10.4979
962.0,56.947899999999997,65.321600000000004,33.372799999999998,69.476100000000002,-24.500599999999999,-1.9851399999999999,-9.3036799999999999
963.0,1758.8299999999999,-383.74099999999999,96.290899999999993,1104.4000000000001,258.40699999999998,-610.29300000000001,122.655
964.0,1760.5899999999999,-429.93700000000001,105.508,1203.3099999999999,253.655,-518.31299999999999,83.700900000000004
965.0,1762.22,-458.72300000000001,119.262,1296.5799999999999,242.08799999999999,-417.60199999999998,44.015900000000002
966.0,1764.45,-472.55000000000001,134.58699999999999,1380.0599999999999,223.64099999999999,-309.40899999999999,4.3649100000000001
967.0,1766.8900000000001,-465.31799999999998,154.96100000000001,1456.55,198.50800000000001,-194.851,-34.503900000000002
968.0,1770.04,-434.52199999999999,182.476,1526.72,166.58500000000001,-75.973299999999995,-71.684200000000004
969.0,1774.3,-396.39999999999998,201.17599999999999,1573.0999999999999,127.946,45.206800000000001,-106.14700000000001
970.0,1779.8299999999999,-330.94999999999999,229.619,1614.27,83.265699999999995,166.364,-136.97300000000001
971.0,1786.8499999999999,-257.108,249.69399999999999,1631.3099999999999,33.127299999999998,285.11399999999998,-163.03999999999999
972.0,1795.24,-164.84200000000001,271.27800000000002,1634.5,-21.422899999999998,398.87700000000001,-183.59100000000001
973.0,1804.1900000000001,-47.614100000000001,298.779,1630.3599999999999,-78.482600000000005,504.77100000000002,-198.23699999999999
974.0,1813.6300000000001,93.154700000000005,333.755,1620.98,-136.86500000000001,600.21600000000001,-206.34999999999999
975.0,1823.4400000000001,231.851,355.73500000000001,1585.47,-195.511,683.51499999999999,-207.14599999999999
976.0,1832.6600000000001,379.209,376.06799999999998,1538.26,-252.392,752.52300000000002,-201.32300000000001
977.0,1840.1900000000001,543.53300000000002,405.661,1493.1300000000001,-305.584,805.70299999999997,-188.87299999999999
978.0,1845.8800000000001,689.22900000000004,414.87700000000001,1420.98,-354.29199999999997,843.10500000000002,-170.03999999999999
979.0,1848.26,845.03599999999994,433.75700000000001,1355.0699999999999,-396.18799999999999,864.45600000000002,-146.36500000000001
980.0,1847.29,991.18200000000002,445.54599999999999,1282.0699999999999,-430.416,870.41800000000001,-119.387
981.0,1841.0999999999999,1132.22,459.68799999999999,1210.55,-456.185,862.19399999999996,-89.592399999999998
982.0,1833.0899999999999,1248.2,456.95800000000003,1124.77,-474.55599999999998,842.75400000000002,-58.565600000000003
983.0,1815.49,1360.6500000000001,466.05500000000001,1047.96,-483.55700000000002,811.13400000000001,-28.141300000000001
984.0,1803.6199999999999,1432.4100000000001,427.404,933.81399999999996,-480.67700000000002,775.05899999999997,7.8076600000000003
985.0,1810.0899999999999,1468.5,358.04300000000001,801.87099999999998,-485.70999999999998,736.58699999999999,35.360300000000002
986.0,1801.78,1512.2,329.15199999999999,699.15200000000004,-491.18000000000001,686.93600000000004,52.323500000000003
987.0,1784.04,1609.8499999999999,363.10000000000002,648.77099999999996,-483.596,628.78999999999996,71.298599999999993
988.0,1774.75,1709.8699999999999,396.69099999999997,598.62699999999995,-469.96600000000001,565.85000000000002,94.064899999999994
989.0,1714.05,-706.81200000000001,-172.61000000000001,482.56999999999999,582.04999999999995,-486.56599999999997,221.16900000000001
990.0,1718.01,-772.54700000000003,-181.49000000000001,543.77300000000002,588.58500000000004,-415.03800000000001,174.60400000000001
991.0,1720.51,-797.92999999999995,-157.52500000000001,629.75599999999997,589.51199999999994,-334.54500000000002,126.12
992.0,1720.9000000000001,-843.36800000000005,-163.04400000000001,676.49599999999998,584.053,-246.10599999999999,76.599500000000006
993.0,1719.6800000000001,-844.48699999999997,-134.72499999999999,746.25699999999995,571.99400000000003,-151.03200000000001,26.733000000000001
994.0,1716.8299999999999,-870.48099999999999,-143.23500000000001,767.46199999999999,553.09400000000005,-50.501199999999997,-22.7181
995.0,1712.3499999999999,-833.60400000000004,-102.57899999999999,825.36599999999999,527.43100000000004,53.907299999999999,-70.853800000000007
996.0,1706.51,-823.86800000000005,-103.33,828.47199999999998,495.072,160.34899999999999,-116.801
997.0,1699.3299999999999,-749.721,-55.083399999999997,866.73800000000006,456.51400000000001,266.74799999999999,-159.602
998.0,1691.1099999999999,-696.21600000000001,-42.772599999999997,854.84799999999996,412.30399999999997,370.82999999999998,-198.393
999.0,1682.24,-595.44799999999998,2.4600399999999998,861.17700000000002,363.35599999999999,470.36200000000002,-232.23400000000001
1000.0,1672.8299999999999,-527.22400000000005,1.31656,806.88800000000003,310.65300000000002,563.03499999999997,-260.608
1001.0,1662.74,-392.988,52.474200000000003,792.16399999999999,255.59,646.36099999999999,-283.01400000000001
1002.0,1652.1800000000001,-288.19900000000001,63.264000000000003,724.98400000000004,199.30699999999999,718.38599999999997,-299.07100000000003
1003.0,1641.5899999999999,-147.67699999999999,101.003,673.83799999999997,143.52000000000001,777.63599999999997,-309.0
1004.0,1631.1800000000001,-23.715599999999998,115.648,591.55899999999997,89.781899999999993,822.63099999999997,-313.13600000000002
1005.0,1620.1900000000001,127.643,154.55000000000001,526.95600000000002,39.327199999999998,852.42600000000004,-311.47199999999998
1006.0,1609.1800000000001,237.56,151.99600000000001,415.863,-7.2529199999999996,867.15800000000002,-304.98399999999998
1007.0,1597.22,378.577,183.441,335.36200000000002,-47.989699999999999,866.44000000000005,-294.69900000000001
1008.0,1586.0799999999999,479.55700000000002,178.727,218.93700000000001,-83.5137,851.83199999999999,-281.58199999999999
1009.0,1570.9000000000001,603.45500000000004,209.29900000000001,134.93199999999999,-111.95999999999999,821.78399999999999,-267.05099999999999
1010.0,1560.1099999999999,674.16099999999994,178.36699999999999,-0.042402299999999997,-130.208,781.91899999999998,-246.83199999999999
1011.0,1562.21,739.67200000000003,150.03,-123.85599999999999,-156.523,734.43899999999996,-234.23500000000001
1012.0,1554.8199999999999,806.59199999999998,161.30600000000001,-223.59700000000001,-181.18799999999999,671.28800000000001,-226.696
1013.0,1543.46,920.64700000000005,221.80600000000001,-270.31,-189.15000000000001,596.96799999999996,-209.25999999999999
1014.0,1542.6800000000001,965.22400000000005,209.785,-372.48599999999999,-196.44200000000001,518.62400000000002,-189.36099999999999
1015.0,1567.75,-672.25599999999997,-252.69800000000001,228.92500000000001,654.02800000000002,-364.27999999999997,235.523
1016.0,1582.47,-704.12400000000002,-232.322,299.63299999999998,670.73199999999997,-310.02999999999997,191.191
1017.0,1596.22,-768.73599999999999,-249.04900000000001,326.28800000000001,682.88900000000001,-248.69300000000001,145.22999999999999
1018.0,1608.6600000000001,-784.69299999999998,-222.86099999999999,388.80000000000001,690.01099999999997,-180.44300000000001,97.176599999999993
1019.0,1619.1099999999999,-830.71199999999999,-233.821,405.36700000000002,691.55200000000002,-105.866,47.644199999999998
1020.0,1627.52,-818.30700000000002,-194.952,462.36799999999999,687.11800000000005,-25.876899999999999,-2.7595900000000002
1021.0,1633.76,-848.13300000000004,-207.685,457.10700000000003,676.39700000000005,58.417299999999997,-53.303899999999999
1022.0,1637.7,-814.07899999999995,-167.42400000000001,493.50900000000001,659.31600000000003,145.64599999999999,-103.203
1023.0,1639.3499999999999,-819.73900000000003,-178.245,466.577,635.875,234.22,-151.56299999999999
1024.0,1638.5599999999999,-767.51199999999994,-143.535,472.41699999999997,606.399,322.25900000000001,-197.566
1025.0,1635.21,-737.553,-143.797,430.31200000000001,571.202,407.75,-240.334
1026.0,1629.3599999999999,-641.38300000000004,-90.440299999999993,428.82600000000002,531.09100000000001,488.42899999999997,-279.101
1027.0,1621.5699999999999,-589.31200000000001,-92.599199999999996,358.78699999999998,486.92599999999999,562.44399999999996,-313.30700000000002
1028.0,1612.3800000000001,-482.24099999999999,-50.5916,321.21699999999998,439.95400000000001,627.60799999999995,-342.70999999999998
1029.0,1601.52,-396.93700000000001,-39.359099999999998,242.51400000000001,390.93299999999999,681.98099999999999,-366.50999999999999
1030.0,1589.5599999999999,-282.93700000000001,-6.3349099999999998,176.166,340.815,724.22400000000005,-384.904
1031.0,1578.04,-191.976,-1.34779,74.667500000000004,291.49200000000002,753.25900000000001,-398.54500000000002
1032.0,1566.8399999999999,-60.4253,41.512300000000003,6.8329199999999997,244.303,768.05999999999995,-407.48599999999999
1033.0,1555.29,31.616599999999998,45.837600000000002,-102.482,199.834,768.21299999999997,-411.73599999999999
1034.0,1543.8099999999999,148.34100000000001,77.559700000000007,-185.01499999999999,158.41499999999999,754.08799999999997,-412.14299999999997
1035.0,1532.3,225.75200000000001,77.6053,-298.94600000000003,121.345,725.69399999999996,-410.02199999999999
1036.0,1523.1300000000001,317.90199999999999,91.563599999999994,-392.80000000000001,90.461699999999993,685.35900000000004,-404.45400000000001
1037.0,1518.05,361.07999999999998,62.584600000000002,-523.42600000000004,55.953099999999999,635.07500000000005,-399.04399999999998
1038.0,1509.97,437.02800000000002,93.638099999999994,-597.81799999999998,21.566099999999999,572.13699999999994,-392.90800000000002
1039.0,1501.4300000000001,492.98099999999999,109.536,-677.774,-0.37009300000000001,499.76999999999998,-381.31200000000001
1040.0,1498.8299999999999,556.66300000000001,130.99100000000001,-735.73900000000003,-21.1648,421.63299999999998,-369.89499999999998
1041.0,1257.6500000000001,-462.00200000000001,-234.54499999999999,191.124,556.60900000000004,-262.02300000000002,197.08099999999999
1042.0,1282.02,-466.166,-196.083,265.06099999999998,578.721,-223.53899999999999,162.023
1043.0,1305.3599999999999,-555.84699999999998,-244.97800000000001,245.691,597.64200000000005,-178.572,124.94799999999999
1044.0,1327.78,-548.995,-201.37200000000001,313.685,612.83799999999997,-128.209,85.2376
1045.0,1349.0999999999999,-630.26900000000001,-249.77500000000001,282.76299999999998,623.85900000000004,-72.587199999999996,43.4071
1046.0,1368.9300000000001,-615.91099999999994,-208.41800000000001,334.37,630.25900000000001,-12.1843,-0.16483700000000001
1047.0,1386.9400000000001,-675.30700000000002,-247.03700000000001,297.69,631.38400000000001,52.168700000000001,-44.956200000000003
1048.0,1402.8800000000001,-637.75099999999998,-196.696,341.00799999999998,627.14700000000005,119.524,-90.275499999999994
1049.0,1416.3800000000001,-674.17399999999998,-228.47999999999999,292.32900000000001,617.08500000000004,188.65700000000001,-135.376
1050.0,1427.24,-603.88300000000004,-163.13800000000001,330.29599999999999,601.49199999999996,258.06599999999997,-179.45699999999999
1051.0,1435.28,-624.18600000000004,-197.404,257.26400000000001,580.36099999999999,326.20600000000002,-221.691
1052.0,1440.4200000000001,-546.16200000000003,-143.35300000000001,261.02300000000002,554.31100000000004,391.25799999999998,-261.483
1053.0,1442.27,-539.60699999999997,-169.876,172.68199999999999,523.46199999999999,451.25400000000002,-298.05099999999999
1054.0,1441.03,-428.17000000000002,-100.587,168.86500000000001,488.50200000000001,504.65100000000001,-330.887
1055.0,1438.4000000000001,-415.88999999999999,-138.21899999999999,49.032699999999998,450.35199999999998,549.77300000000002,-360.38099999999997
1056.0,1434.22,-278.44,-58.883800000000001,39.340400000000002,410.70699999999999,584.40800000000002,-385.98000000000002
1057.0,1428.1800000000001,-248.89599999999999,-91.744399999999999,-88.5428,369.03300000000002,608.66300000000001,-406.00900000000001
1058.0,1420.6099999999999,-121.496,-28.124700000000001,-123.928,326.51799999999997,620.96100000000001,-421.32999999999998
1059.0,1411.46,-92.6678,-63.867199999999997,-260.404,284.88299999999998,620.37099999999998,-432.19499999999999
1060.0,1401.1300000000001,38.680700000000002,3.5662799999999999,-293.17899999999997,244.95599999999999,606.92399999999998,-439.08100000000002
1061.0,1390.54,62.3003,-32.030299999999997,-427.47500000000002,206.74100000000001,581.76800000000003,-442.51100000000002
1062.0,1379.4000000000001,185.97900000000001,37.018099999999997,-453.11000000000001,171.36000000000001,545.11300000000006,-442.63299999999998
1063.0,1367.77,194.761,-5.5505699999999996,-582.01800000000003,136.983,498.75799999999998,-439.815
1064.0,1355.29,295.27199999999999,55.448300000000003,-600.79999999999995,102.515,443.33300000000003,-435.92000000000002
1065.0,1342.3199999999999,294.65300000000002,25.326899999999998,-704.06700000000001,72.556700000000006,380.78300000000002,-428.18900000000002
1066.0,1329.98,381.77199999999999,87.712900000000005,-703.00400000000002,45.6051,313.28800000000001,-417.91000000000003
1067.0,952.84400000000005,-265.82299999999998,-171.47399999999999,224.191,419.62900000000002,-192.887,147.47499999999999
1068.0,977.53200000000004,-277.51799999999997,-152.0,269.983,441.08600000000001,-164.15600000000001,121.473
1069.0,1002.34,-338.63400000000001,-182.773,260.536,460.95299999999997,-130.381,93.719300000000004
1070.0,1027.1900000000001,-344.28899999999999,-160.179,300.60000000000002,478.32400000000001,-92.524799999999999,63.2744
1071.0,1051.5999999999999,-396.637,-187.14400000000001,285.55399999999997,492.96499999999997,-50.503999999999998,30.6083
1072.0,1075.4100000000001,-385.892,-154.536,324.60399999999998,504.13099999999997,-4.7713700000000001,-4.0887200000000004
1073.0,1098.3099999999999,-433.08499999999998,-184.32300000000001,294.75099999999998,511.52100000000002,44.174100000000003,-40.437199999999997
1074.0,1119.95,-413.11900000000003,-152.07499999999999,319.99299999999999,514.58399999999995,95.677400000000006,-77.906099999999995
1075.0,1139.98,-447.99799999999999,-180.65700000000001,276.654,513.15899999999999,148.78299999999999,-115.871
1076.0,1157.8900000000001,-421.86399999999998,-154.601,279.25700000000001,507.05799999999999,202.458,-153.63300000000001
1077.0,1173.1700000000001,-432.87,-172.71600000000001,228.43600000000001,496.30000000000001,255.34800000000001,-190.453
1078.0,1185.28,-374.03699999999998,-127.785,229.941,481.12400000000002,305.90899999999999,-225.84399999999999
1079.0,1194.72,-371.84800000000001,-146.50200000000001,157.851,461.79500000000002,353.142,-259.14999999999998
1080.0,1200.97,-308.38400000000001,-110.804,130.727,438.69499999999999,393.97899999999998,-291.09899999999999
1081.0,1204.49,-275.96600000000001,-113.011,55.5503,412.05000000000001,429.72899999999998,-318.851
1082.0,1207.51,-214.06700000000001,-87.629800000000003,3.8371200000000001,380.459,459.875,-343.24599999999998
1083.0,1206.3399999999999,-177.51499999999999,-91.631,-78.644499999999994,346.589,477.80099999999999,-365.76400000000001
1084.0,1199.6500000000001,-85.718199999999996,-49.731699999999996,-116.244,312.23599999999999,484.81,-382.20299999999997
1085.0,1190.8699999999999,-36.733800000000002,-52.345799999999997,-199.096,276.21300000000002,483.08499999999998,-393.74900000000002
1086.0,1180.98,44.479799999999997,-19.018599999999999,-246.62200000000001,240.44399999999999,471.38499999999999,-401.815
1087.0,1169.1600000000001,84.943100000000001,-23.005400000000002,-329.11399999999998,206.03700000000001,449.60199999999998,-406.09699999999998
1088.0,1155.5,150.947,3.5181300000000002,-377.17099999999999,172.845,418.56299999999999,-407.09300000000002
1089.0,1141.0599999999999,179.73099999999999,-2.69936,-451.69900000000001,141.12,380.00200000000001,-405.08300000000003
1090.0,1125.74,234.70599999999999,23.877099999999999,-486.61200000000002,110.10899999999999,335.07499999999999,-400.589
1091.0,1109.05,254.10499999999999,20.496400000000001,-542.68100000000004,81.012900000000002,284.79899999999998,-393.13900000000001
1092.0,1091.1500000000001,297.137,47.720100000000002,-558.56100000000004,53.668999999999997,230.761,-383.49599999999998
1093.0,705.428,-16.962700000000002,-0.51866199999999996,371.03899999999999,291.13299999999998,-149.626,102.88200000000001
1094.0,725.697,-189.511,-150.95400000000001,241.56399999999999,308.89299999999997,-127.05800000000001,84.198400000000007
1095.0,746.20000000000005,-74.303100000000001,-14.488799999999999,394.964,325.88299999999998,-100.337,64.009100000000004
1096.0,767.298,-244.25899999999999,-164.62700000000001,258.59399999999999,341.27499999999998,-70.716300000000004,41.548499999999997
1097.0,788.69299999999998,-124.441,-27.189800000000002,405.35500000000002,355.07299999999998,-37.880400000000002,17.1569
1098.0,810.26099999999997,-296.53899999999999,-183.999,253.624,366.43599999999998,-2.3156400000000001,-9.1500900000000005
1099.0,831.71000000000004,-160.977,-36.648800000000001,401.06999999999999,375.19499999999999,35.715499999999999,-37.074199999999998
1100.0,852.83100000000002,-321.50299999999999,-188.881,243.845,380.68799999999999,75.633700000000005,-66.232399999999998
1101.0,873.19100000000003,-170.417,-34.115400000000001,387.56999999999999,382.93900000000002,116.843,-96.099000000000004
1102.0,892.30899999999997,-310.89400000000001,-175.25200000000001,228.83000000000001,381.57799999999997,158.42699999999999,-125.991
1103.0,909.60500000000002,-152.001,-21.952400000000001,355.82400000000001,377.17700000000002,199.423,-155.48699999999999
1104.0,924.54700000000003,-296.83699999999999,-176.61799999999999,166.05000000000001,369.44900000000001,238.655,-183.82300000000001
1105.0,936.50099999999998,-120.962,-15.345599999999999,280.71899999999999,358.92200000000003,274.37799999999999,-211.84299999999999
1106.0,947.38099999999997,-244.56100000000001,-155.94999999999999,83.465199999999996,345.27499999999998,308.07100000000003,-237.19
1107.0,955.08199999999999,-77.704800000000006,-9.9658499999999997,168.999,326.99700000000001,336.245,-260.43400000000003
1108.0,956.84699999999998,-209.102,-171.18199999999999,-49.728099999999998,302.226,357.67700000000002,-281.03500000000003
1109.0,955.51199999999994,-21.950900000000001,-13.1996,48.570900000000002,272.858,369.88900000000001,-302.63299999999998
1110.0,951.86300000000006,-98.085300000000004,-124.785,-127.545,246.97,373.30900000000003,-318.42700000000002
1111.0,946.29200000000003,114.687,41.8247,-21.431699999999999,220.441,372.286,-326.58699999999999
1112.0,937.80600000000004,11.935700000000001,-97.631,-222.22200000000001,190.15899999999999,363.32600000000002,-333.56900000000002
1113.0,926.154,205.45599999999999,63.490499999999997,-122.191,162.511,345.12400000000002,-336.75299999999999
1114.0,912.548,101.142,-69.752200000000002,-313.07299999999998,134.715,320.274,-336.93799999999999
1115.0,897.10599999999999,286.88600000000002,91.164100000000005,-204.50399999999999,107.89400000000001,289.19099999999997,-334.35899999999998
1116.0,880.56799999999998,172.75999999999999,-43.814500000000002,-385.06099999999998,81.852099999999993,253.66399999999999,-329.14299999999997
1117.0,863.39499999999998,347.02300000000002,113.372,-265.72500000000002,57.231200000000001,214.84,-321.596
1118.0,845.12300000000005,223.43700000000001,-21.2408,-431.036,33.917200000000001,173.655,-312.11399999999998
1119.0,546.13199999999995,-85.202799999999996,-102.65000000000001,241.88399999999999,203.32300000000001,-123.265,72.247
1120.0,559.78200000000004,16.2745,14.7135,376.77800000000002,216.18199999999999,-104.104,58.052999999999997
1121.0,574.00199999999995,-123.07299999999999,-109.491,267.08600000000001,228.607,-81.888900000000007,42.694299999999998
1122.0,588.92700000000002,-17.623000000000001,9.5392600000000005,397.71800000000002,240.17099999999999,-57.305399999999999,25.636600000000001
1123.0,604.36699999999996,-152.69499999999999,-113.697,282.55200000000002,250.57300000000001,-30.339700000000001,7.0714499999999996
1124.0,620.40999999999997,-34.338799999999999,14.2379,415.12599999999998,259.38900000000001,-1.3390200000000001,-13.0404
1125.0,636.94000000000005,-170.32400000000001,-114.715,287.00099999999998,266.28100000000001,29.472999999999999,-34.454799999999999
1126.0,653.95600000000002,-47.186199999999999,12.388999999999999,411.24400000000003,270.875,61.6648,-56.9651
1127.0,671.03499999999997,-178.702,-118.456,272.85599999999999,273.14499999999998,94.776399999999995,-79.972700000000003
1128.0,688.00900000000001,-55.527700000000003,1.8119000000000001,380.65899999999999,273.02100000000002,128.21700000000001,-103.086
1129.0,703.31899999999996,-172.67099999999999,-121.53,236.643,271.17200000000003,160.76599999999999,-125.563
1130.0,717.40700000000004,-27.374500000000001,13.9641,343.70100000000002,267.44900000000001,192.02699999999999,-147.64500000000001
1131.0,728.38199999999995,-140.02500000000001,-108.651,177.613,263.39400000000001,219.28299999999999,-169.55199999999999
1132.0,737.06500000000005,-18.765899999999998,-3.78409,234.80099999999999,255.364,248.101,-184.61600000000001
1133.0,744.10199999999998,-166.364,-165.00700000000001,31.377099999999999,238.535,269.12599999999998,-205.64599999999999
1134.0,746.65300000000002,-17.3567,-38.358800000000002,114.247,221.08000000000001,279.649,-227.83500000000001
1135.0,747.01700000000005,-87.6053,-141.93299999999999,-33.463299999999997,200.13999999999999,288.07600000000002,-245.00200000000001
1136.0,745.27800000000002,116.16200000000001,35.010899999999999,91.887900000000002,178.31100000000001,292.85399999999998,-256.61900000000003
1137.0,741.96199999999999,51.459200000000003,-62.459499999999998,-54.396900000000002,158.46899999999999,294.12799999999999,-260.45699999999999
1138.0,734.70600000000002,209.977,67.864199999999997,29.280200000000001,134.96899999999999,287.33300000000003,-264.76100000000002
1139.0,723.024,118.04600000000001,-47.5383,-135.482,113.00700000000001,272.40899999999999,-265.90699999999998
1140.0,710.25699999999995,268.80700000000002,81.868200000000002,-51.759500000000003,91.052499999999995,252.351,-265.05900000000003
1141.0,696.61199999999997,168.95099999999999,-36.2941,-211.58099999999999,69.8536,227.68700000000001,-262.22000000000003
1142.0,682.59199999999998,316.56099999999998,95.754400000000004,-115.512,49.3645,199.995,-257.286
1143.0,667.94200000000001,211.37299999999999,-22.415099999999999,-263.35199999999998,29.820599999999999,169.95699999999999,-250.19
1144.0,652.56700000000001,353.30799999999999,110.81399999999999,-153.66,11.4796,138.375,-241.608
1145.0,448.73899999999998,81.632300000000001,50.783000000000001,367.74000000000001,149.917,-105.94499999999999,53.644599999999997
1146.0,457.56299999999999,-33.126300000000001,-51.267800000000001,280.85599999999999,158.751,-89.146000000000001,42.056699999999999
1147.0,466.68400000000003,51.546100000000003,45.059399999999997,389.84100000000001,167.173,-69.911100000000005,29.502300000000002
1148.0,476.29000000000002,-60.655799999999999,-56.969299999999997,297.81799999999998,174.923,-48.697400000000002,15.796900000000001
1149.0,486.39400000000001,26.2135,38.347200000000001,400.18400000000003,181.78999999999999,-25.6234,0.95274599999999998
1150.0,497.11399999999998,-88.659599999999998,-70.123400000000004,295.84399999999999,187.42400000000001,-0.91936799999999996,-15.0258
1151.0,508.61200000000002,9.9341899999999992,32.445900000000002,399.79500000000002,191.48599999999999,25.093299999999999,-32.020200000000003
1152.0,520.92999999999995,-95.724800000000002,-71.917100000000005,293.88799999999998,193.78200000000001,52.227800000000002,-49.802999999999997
1153.0,534.10799999999995,13.440099999999999,35.482500000000002,396.94400000000002,194.208,79.995900000000006,-67.8613
1154.0,547.39700000000005,-76.154700000000005,-58.870399999999997,293.38299999999998,193.26499999999999,107.99299999999999,-85.892499999999998
1155.0,560.29600000000005,34.114400000000003,43.585999999999999,381.11399999999998,191.559,135.37799999999999,-102.71899999999999
1156.0,570.54200000000003,-64.267600000000002,-64.015299999999996,247.30699999999999,189.887,160.035,-120.43300000000001
1157.0,577.25099999999998,48.877000000000002,38.573099999999997,310.54199999999997,189.24600000000001,183.37100000000001,-133.70500000000001
1158.0,585.43899999999996,-80.690200000000004,-109.09,127.755,184.40899999999999,205.905,-145.31800000000001
1159.0,593.87900000000002,-17.290800000000001,-62.081000000000003,146.37200000000001,171.303,220.11600000000001,-166.51499999999999
1160.0,597.69000000000005,-69.527000000000001,-125.286,45.256399999999999,156.881,226.048,-189.227
1161.0,597.78099999999995,124.676,43.905799999999999,173.69800000000001,143.81100000000001,233.21899999999999,-199.364
1162.0,596.23500000000001,70.532300000000006,-40.5548,52.490200000000002,125.405,241.81399999999999,-201.85300000000001
1163.0,591.48500000000001,197.08799999999999,64.274000000000001,119.004,105.31,243.642,-204.233
1164.0,583.80499999999995,124.31399999999999,-29.448899999999998,-13.2706,88.457400000000007,236.97900000000001,-206.12299999999999
1165.0,573.71699999999998,251.64500000000001,77.748199999999997,54.6374,71.884,223.929,-206.90100000000001
1166.0,562.89599999999996,177.636,-13.5748,-74.494500000000002,55.620100000000001,206.99299999999999,-205.84100000000001
1167.0,552.01099999999997,300.93299999999999,95.366100000000003,-0.085787299999999997,39.156399999999998,187.22,-203.28299999999999
1168.0,540.72500000000002,219.73500000000001,2.0019499999999999,-123.246,23.4572,164.94200000000001,-198.95500000000001
1169.0,529.66600000000005,337.76799999999997,109.36499999999999,-40.526600000000002,8.3860499999999991,141.126,-192.971
1170.0,518.34400000000005,250.374,14.5761,-155.13200000000001,-5.6027800000000001,116.229,-185.86799999999999
1171.0,390.06099999999998,-16.209499999999998,-55.637599999999999,237.071,122.563,-92.483500000000006,43.706200000000003
1172.0,395.87599999999998,60.765900000000002,32.411200000000001,338.17399999999998,128.68199999999999,-77.602599999999995,33.412199999999999
1173.0,401.935,-35.205800000000004,-53.576700000000002,263.18299999999999,134.328,-60.720999999999997,22.385400000000001
1174.0,408.149,44.349699999999999,34.537700000000001,359.78800000000001,139.34999999999999,-42.046799999999998,10.545999999999999
1175.0,414.68299999999999,-46.858600000000003,-49.813299999999998,281.42700000000002,143.48500000000001,-21.864799999999999,-2.1745299999999999
1176.0,421.62099999999998,43.513599999999997,45.485900000000001,380.084,146.52099999999999,-0.30014200000000002,-15.694900000000001
1177.0,429.48700000000002,-48.9221,-44.204099999999997,291.81200000000001,148.03899999999999,22.2897,-30.0395
1178.0,438.17200000000003,44.661099999999998,49.6312,384.56799999999998,148.077,45.819600000000001,-44.883400000000002
1179.0,448.50799999999998,-45.426499999999997,-42.982100000000003,289.70999999999998,146.27199999999999,70.039599999999993,-59.869900000000001
1180.0,458.697,47.549900000000001,44.698399999999999,370.06900000000002,143.94800000000001,94.171800000000005,-74.583200000000005
1181.0,469.73899999999998,-34.349400000000003,-46.052500000000002,268.923,140.995,118.711,-87.708500000000001
1182.0,475.64400000000001,80.057299999999998,59.753500000000003,349.81400000000002,140.32300000000001,137.827,-102.501
1183.0,480.09899999999999,-13.888999999999999,-50.588299999999997,206.53700000000001,142.22999999999999,159.167,-109.20999999999999
1184.0,488.779,24.0242,-27.204999999999998,203.149,137.934,176.89099999999999,-121.203
1185.0,494.58800000000002,-79.576800000000006,-139.642,61.967700000000001,127.895,186.62,-140.14400000000001
1186.0,496.65300000000002,49.054600000000001,-17.814699999999998,150.87700000000001,113.401,193.232,-157.50299999999999
1187.0,493.45299999999997,51.526000000000003,-32.503799999999998,102.054,100.95399999999999,199.029,-163.52699999999999
1188.0,492.78300000000002,195.29400000000001,75.136799999999994,186.62799999999999,87.350899999999996,207.45599999999999,-160.58099999999999
1189.0,490.42500000000001,118.997,-24.307600000000001,61.265500000000003,69.132800000000003,208.542,-163.41399999999999
1190.0,482.38299999999998,230.38999999999999,71.581299999999999,121.925,56.580300000000001,201.477,-164.874
1191.0,474.31599999999997,167.50299999999999,-5.8209999999999997,8.7772699999999997,44.970100000000002,190.559,-165.57599999999999
1192.0,465.52199999999999,272.21100000000001,85.363,66.224000000000004,33.3459,176.17500000000001,-164.72999999999999
1193.0,456.92700000000002,195.87,-2.4416000000000002,-51.330100000000002,20.487100000000002,159.67099999999999,-162.917
1194.0,448.32499999999999,297.904,89.686000000000007,14.672700000000001,8.3402100000000008,141.04900000000001,-159.68799999999999
1195.0,440.39299999999997,220.47999999999999,3.1467499999999999,-93.518299999999996,-3.5119500000000001,121.426,-155.01599999999999
1196.0,432.47899999999998,319.988,96.0214,-18.342700000000001,-14.4979,100.91800000000001,-149.44300000000001
1197.0,349.02100000000002,91.152100000000004,43.185000000000002,315.142,107.358,-81.008499999999998,38.011499999999998
1198.0,353.49599999999998,-1.0692600000000001,-39.025799999999997,244.27199999999999,112.185,-67.826400000000007,28.613399999999999
1199.0,358.01100000000002,71.729900000000001,42.783000000000001,335.54599999999999,116.41800000000001,-52.927199999999999,18.575900000000001
1200.0,362.46300000000002,-17.709599999999998,-38.938600000000001,260.952,119.989,-36.424799999999998,7.9179500000000003
1201.0,367.04700000000003,56.517600000000002,41.539999999999999,346.26299999999998,122.654,-18.607900000000001,-3.4640300000000002
1202.0,371.82600000000002,-35.140500000000003,-45.632899999999999,261.55200000000002,124.21299999999999,0.38957000000000003,-15.4755
1203.0,377.43900000000002,49.2119,41.2943,349.40499999999997,124.208,20.291599999999999,-28.205200000000001
1204.0,383.90300000000002,-33.492899999999999,-41.154299999999999,266.04700000000003,122.68000000000001,40.983600000000003,-41.286499999999997
1205.0,392.279,59.726700000000001,49.767600000000002,355.613,119.242,62.501199999999997,-54.506900000000002
1206.0,400.76799999999997,-7.1491199999999999,-22.214500000000001,278.31299999999999,115.419,83.904700000000005,-67.116600000000005
1207.0,410.11200000000002,84.874300000000005,60.916499999999999,353.14499999999998,111.29300000000001,105.941,-78.299899999999994
1208.0,413.81700000000001,9.3678899999999992,-22.252500000000001,246.999,110.925,122.453,-90.120500000000007
1209.0,416.59800000000001,89.716999999999999,41.619399999999999,281.24700000000001,113.386,141.87,-93.798400000000001
1210.0,423.57100000000003,-48.240000000000002,-110.33799999999999,107.563,108.783,155.80199999999999,-105.33
1211.0,425.62099999999998,16.1784,-53.655500000000004,139.988,99.376099999999994,161.04599999999999,-122.294
1212.0,425.54000000000002,-14.2311,-93.970600000000005,75.756500000000003,85.626999999999995,166.32300000000001,-134.74199999999999
1213.0,423.52100000000002,151.88999999999999,56.493299999999998,200.52699999999999,73.052700000000002,172.68899999999999,-138.792
1214.0,424.88499999999999,118.247,-6.5069299999999997,116.342,62.101799999999997,181.53399999999999,-135.11000000000001
1215.0,424.98200000000003,215.17400000000001,70.304199999999994,170.28999999999999,48.700200000000002,182.94300000000001,-137.345
1216.0,417.45999999999998,149.97499999999999,-8.6977799999999998,58.733899999999998,39.4178,176.16399999999999,-138.42599999999999
1217.0,408.87700000000001,246.61699999999999,77.656599999999997,112.136,30.1496,166.27600000000001,-138.56399999999999
1218.0,400.49299999999999,178.91900000000001,0.32971499999999998,4.4318499999999998,21.0519,153.357,-138.24100000000001
1219.0,393.34899999999999,276.24400000000003,88.1524,65.845399999999998,10.923400000000001,138.85400000000001,-137.17699999999999
1220.0,386.60300000000001,205.102,8.5996199999999998,-36.799300000000002,0.89907899999999996,122.855,-134.887
1221.0,380.62799999999999,300.67700000000002,96.173400000000001,31.641200000000001,-8.8436800000000009,106.06399999999999,-131.28999999999999
1222.0,374.96600000000001,224.59800000000001,13.806699999999999,-66.414500000000004,-18.036999999999999,88.564099999999996,-126.905
1223.0,316.495,-2.39323,-60.0214,194.708,96.931899999999999,-70.692800000000005,33.965600000000002
1224.0,320.37400000000002,67.114999999999995,18.401299999999999,283.02199999999999,101.214,-59.098399999999998,25.3127
1225.0,324.20100000000002,-15.284599999999999,-55.920999999999999,216.85900000000001,104.90600000000001,-45.952199999999998,16.1251
1226.0,327.85700000000003,56.100000000000001,22.419499999999999,301.20600000000002,107.926,-31.398499999999999,6.3727099999999997
1227.0,331.43200000000002,-21.5503,-49.554400000000001,233.036,110.051,-15.674799999999999,-4.0000799999999996
1228.0,335.08999999999997,59.1783,35.372100000000003,319.67500000000001,111.033,1.0438400000000001,-14.9495
1229.0,339.30900000000003,-19.5564,-40.720799999999997,243.78800000000001,110.468,18.561499999999999,-26.557400000000001
1230.0,344.553,63.337800000000001,42.8996,326.56099999999998,108.182,36.833799999999997,-38.525700000000001
1231.0,351.49099999999999,-12.6837,-34.555900000000001,247.82499999999999,103.97499999999999,55.896000000000001,-50.6616
1232.0,359.47399999999999,68.833100000000002,42.688699999999997,321.64100000000002,99.039000000000001,75.402299999999997,-62.004800000000003
1233.0,367.42599999999999,2.3178299999999998,-31.5031,240.02099999999999,94.267099999999999,94.790499999999994,-72.344200000000001
1234.0,370.12900000000002,100.202,57.418300000000002,309.10199999999998,93.346199999999996,110.506,-81.266900000000007
1235.0,371.96800000000002,5.3634399999999998,-54.615699999999997,173.113,94.886799999999994,126.34699999999999,-84.969700000000003
1236.0,376.33699999999999,33.748800000000003,-40.308,166.84,91.738200000000006,136.52199999999999,-95.591399999999993
1237.0,380.13,-49.818600000000004,-128.59,56.8003,84.024299999999997,142.274,-110.48699999999999
1238.0,381.21899999999999,74.173699999999997,-9.0511700000000008,156.72499999999999,71.858500000000006,146.726,-121.98399999999999
1239.0,378.02300000000002,77.717399999999998,-22.3764,122.735,59.752299999999998,153.13900000000001,-122.86199999999999
1240.0,379.04599999999999,199.50800000000001,73.461600000000004,199.477,47.2166,162.53800000000001,-118.107
1241.0,377.834,136.91,-3.4103599999999998,99.450299999999999,35.880299999999998,163.672,-119.295
1242.0,370.47500000000002,228.584,75.560599999999994,149.03800000000001,29.744299999999999,157.01599999999999,-119.81100000000001
1243.0,362.58100000000002,158.66399999999999,-4.1715200000000001,41.003999999999998,22.464700000000001,147.042,-120.95
1244.0,354.52300000000002,242.56200000000001,72.119200000000006,90.3536,15.1798,134.637,-121.571
1245.0,348.10599999999999,171.52199999999999,-6.5189700000000004,-12.0223,6.83568,121.59099999999999,-121.07299999999999
1246.0,342.54899999999998,257.99200000000002,72.803600000000003,46.871400000000001,-1.82637,107.59099999999999,-119.489
1247.0,337.80799999999999,187.03700000000001,-5.14879,-48.088200000000001,-10.3992,92.953800000000001,-116.672
1248.0,333.50799999999998,273.613,75.621600000000001,18.717099999999999,-18.533300000000001,77.701999999999998,-113.10599999999999
1249.0,287.18000000000001,90.745800000000003,25.2225,264.31999999999999,86.584599999999995,-61.827100000000002,30.106999999999999
1250.0,290.88299999999998,14.2036,-43.657499999999999,204.256,90.705699999999993,-51.5627,22.280799999999999
1251.0,294.43799999999999,75.253200000000007,24.3414,279.40600000000001,94.269999999999996,-39.937100000000001,13.9537
1252.0,297.779,1.29637,-43.590299999999999,216.62700000000001,97.207400000000007,-27.074300000000001,5.1009700000000002
1253.0,300.92500000000001,62.819800000000001,22.902799999999999,286.14100000000002,99.325699999999998,-13.208500000000001,-4.3056400000000004
1254.0,304.024,-13.494999999999999,-49.618400000000001,214.65899999999999,100.34999999999999,1.5235399999999999,-14.285
1255.0,307.50400000000002,56.8459,23.280899999999999,287.22199999999998,99.852599999999995,16.888100000000001,-24.8948
1256.0,311.94200000000001,-11.607699999999999,-44.085599999999999,218.81200000000001,97.508899999999997,33.002899999999997,-35.983800000000002
1257.0,318.10000000000002,67.338800000000006,34.204500000000003,296.13400000000001,93.117699999999999,49.837000000000003,-47.248399999999997
1258.0,325.63,13.288500000000001,-23.241,236.446,87.597899999999996,67.5518,-57.848399999999998
1259.0,333.13299999999998,93.291499999999999,50.490200000000002,304.15600000000001,82.436400000000006,84.953599999999994,-67.374099999999999
1260.0,335.84899999999999,29.5017,-23.522500000000001,213.346,81.497600000000006,99.427800000000005,-74.950199999999995
1261.0,339.024,87.258399999999995,18.406700000000001,233.83199999999999,83.391499999999994,113.86799999999999,-79.289400000000001
1262.0,342.0,-18.486599999999999,-97.229900000000001,97.260199999999998,82.026899999999998,121.697,-88.762200000000007
1263.0,342.971,20.568300000000001,-62.0471,113.354,73.722200000000001,127.47199999999999,-99.124399999999994
1264.0,342.91399999999999,-6.2235399999999998,-87.317499999999995,71.605999999999995,59.494599999999998,131.74700000000001,-109.47499999999999
1265.0,339.91500000000002,155.23400000000001,58.370199999999997,198.99700000000001,48.998800000000003,137.108,-110.163
1266.0,343.01600000000002,126.01900000000001,-0.303068,125.884,37.907699999999998,146.40700000000001,-105.045
1267.0,341.46699999999998,199.797,60.625500000000002,166.90100000000001,27.311699999999998,146.68000000000001,-106.37
1268.0,333.38900000000001,143.571,-6.6711200000000002,72.580100000000002,23.067900000000002,139.57400000000001,-106.71299999999999
1269.0,326.04899999999998,217.12299999999999,59.569499999999998,112.761,17.656700000000001,130.22499999999999,-108.35899999999999
1270.0,318.27600000000001,156.92599999999999,-6.2762500000000001,22.280100000000001,12.0158,118.523,-109.443
1271.0,312.30500000000001,235.04599999999999,65.803200000000004,73.253600000000006,4.7298999999999998,106.691,-109.363
1272.0,307.21100000000001,174.012,-1.1044400000000001,-11.762,-2.9941599999999999,94.248000000000005,-108.102
1273.0,303.19,253.36600000000001,72.146000000000001,46.359200000000001,-10.895099999999999,81.475899999999996,-105.63200000000001
1274.0,299.52699999999999,189.50200000000001,3.22051,-35.1098,-18.383199999999999,68.139099999999999,-102.41
1275.0,260.00700000000001,15.904400000000001,-54.887900000000002,169.62200000000001,75.656099999999995,-54.337899999999998,26.151299999999999
1276.0,263.50700000000001,69.135999999999996,4.7278000000000002,237.15000000000001,79.581800000000001,-45.230699999999999,19.151499999999999
1277.0,266.87599999999998,6.1515399999999998,-52.481400000000001,186.34299999999999,83.041600000000003,-34.891199999999998,11.700900000000001
1278.0,270.00599999999997,60.561399999999999,6.86754,250.214,85.968599999999995,-23.4834,3.7682199999999999
1279.0,272.92399999999998,1.88185,-47.790700000000001,198.09200000000001,88.189800000000005,-11.2171,-4.6771700000000003
1280.0,275.66699999999997,64.129099999999994,17.513999999999999,263.96800000000002,89.442999999999998,1.7505500000000001,-13.6503
1281.0,278.72800000000001,3.8200500000000002,-40.596600000000002,205.17400000000001,89.270300000000006,15.231299999999999,-23.281700000000001
1282.0,282.56400000000002,67.208500000000001,23.985600000000002,268.46899999999999,87.247600000000006,29.322099999999999,-33.435200000000002
1283.0,288.31400000000002,8.9108300000000007,-34.301099999999998,209.52099999999999,83.027699999999996,44.238399999999999,-43.941499999999998
1284.0,295.50299999999999,71.235900000000001,25.737200000000001,268.166,77.425899999999999,60.1233,-53.794699999999999
1285.0,303.20699999999999,22.303000000000001,-28.6082,209.67699999999999,71.985699999999994,76.083799999999997,-62.667299999999997
1286.0,306.06299999999999,100.916,40.834699999999998,263.779,71.1965,89.392399999999995,-69.703699999999998
1287.0,308.56700000000001,18.408200000000001,-55.773499999999999,146.304,72.797200000000004,103.74299999999999,-72.295500000000004
1288.0,310.81200000000001,23.036300000000001,-57.6982,126.60899999999999,71.106800000000007,109.764,-81.001499999999993
1289.0,311.04500000000002,-39.195900000000002,-127.60899999999999,43.122599999999998,64.796800000000005,111.45699999999999,-91.311999999999998
1290.0,312.339,53.160899999999998,-40.206200000000003,119.55800000000001,51.965200000000003,115.637,-100.02200000000001
1291.0,310.43400000000003,75.721599999999995,-24.935099999999998,116.441,40.923999999999999,122.413,-100.83199999999999
1292.0,311.79000000000002,182.64500000000001,59.123800000000003,184.572,31.110399999999998,131.23099999999999,-95.123000000000005
1293.0,310.83199999999999,133.90899999999999,-3.3068399999999998,103.958,21.471299999999999,131.89099999999999,-95.625
1294.0,302.94400000000002,202.13499999999999,55.687199999999997,137.91800000000001,17.7301,124.973,-96.2821
1295.0,295.048,145.488,-7.2308700000000004,51.997399999999999,13.751899999999999,115.571,-97.690799999999996
1296.0,287.327,206.339,49.438499999999998,86.793599999999998,9.1349199999999993,104.56399999999999,-98.916300000000007
1297.0,281.47500000000002,149.70500000000001,-11.6975,6.88429,2.9775800000000001,93.780699999999996,-99.029399999999995
1298.0,276.69400000000002,215.00299999999999,48.879600000000003,51.280299999999997,-4.0679499999999997,82.725499999999997,-97.938000000000002
1299.0,273.04300000000001,160.55799999999999,-10.7736,-21.877500000000001,-11.378399999999999,71.552099999999996,-95.612200000000001
1300.0,269.846,227.57599999999999,51.685000000000002,29.341000000000001,-18.387,59.871400000000001,-92.523899999999998
1301.0,234.803,89.975800000000007,17.398800000000001,227.541,64.495800000000003,-48.296599999999998,22.2119
1302.0,238.047,33.367199999999997,-33.951599999999999,183.405,68.137900000000002,-40.098999999999997,16.0303
1303.0,241.148,77.734300000000005,15.0944,238.251,71.395799999999994,-30.8201,9.4245900000000002
1304.0,244.05500000000001,23.384,-35.344099999999997,191.90199999999999,74.218599999999995,-20.625800000000002,2.3927900000000002
1305.0,246.702,67.3001,11.6692,241.05799999999999,76.484899999999996,-9.6844999999999999,-5.0869400000000002
1306.0,249.196,10.345000000000001,-43.009099999999997,186.691,77.941599999999994,1.80087,-13.0494
1307.0,251.84200000000001,61.503100000000003,9.7754499999999993,238.44499999999999,78.145600000000002,13.665100000000001,-21.658899999999999
1308.0,255.34800000000001,11.205299999999999,-39.476100000000002,187.893,76.546599999999998,26.0152,-30.834199999999999
1309.0,260.56,69.799800000000005,19.468299999999999,246.196,72.682599999999994,39.106000000000002,-40.531199999999998
1310.0,267.91699999999997,32.859099999999998,-18.987200000000001,207.601,67.117000000000004,53.524299999999997,-49.625900000000001
1311.0,275.64600000000002,93.553399999999996,37.3459,261.21499999999997,61.533200000000001,67.881900000000002,-58.0349
1312.0,278.108,48.170299999999997,-16.998100000000001,193.11199999999999,60.333199999999998,80.626199999999997,-63.825499999999998
1313.0,280.90600000000001,72.980000000000004,-8.1342499999999998,185.46899999999999,61.581099999999999,93.691900000000004,-65.419499999999999
1314.0,283.65499999999997,-27.8032,-116.986,63.781599999999997,60.162700000000001,97.578900000000004,-74.2239
1315.0,283.87400000000002,14.184100000000001,-75.897900000000007,87.575599999999994,57.103499999999997,98.294799999999995,-85.056700000000006
1316.0,286.02699999999999,9.8544400000000003,-82.145200000000003,66.555499999999995,48.501800000000003,105.193,-90.668300000000002
1317.0,286.36099999999999,115.352,17.405100000000001,153.08000000000001,36.119399999999999,112.446,-92.094499999999996
1318.0,285.17899999999997,116.685,0.231846,122.289,25.803100000000001,117.973,-88.187600000000003
1319.0,282.92399999999998,182.47,49.317100000000003,155.792,17.106999999999999,118.425,-86.033500000000004
1320.0,275.51999999999998,138.53999999999999,-3.9209700000000001,81.090199999999996,12.152699999999999,112.29900000000001,-86.069999999999993
1321.0,267.35899999999998,190.37799999999999,42.717100000000002,106.675,9.3214900000000007,103.157,-87.2654
1322.0,259.755,143.87899999999999,-6.9623799999999996,37.855200000000004,5.87209,92.874399999999994,-88.489099999999993
1323.0,253.59800000000001,199.05699999999999,45.190100000000001,73.130700000000004,0.73072199999999998,82.8262,-88.643500000000003
1324.0,249.07599999999999,154.69,-2.9049100000000001,10.5657,-5.5879799999999999,73.054699999999997,-87.634600000000006
1325.0,245.68199999999999,212.80799999999999,50.864699999999999,52.092799999999997,-12.296900000000001,63.233600000000003,-85.405299999999997
1326.0,242.95400000000001,167.67500000000001,1.6679999999999999,-7.3448900000000004,-18.8279,53.071599999999997,-82.416399999999996
1327.0,212.21100000000001,32.6785,-39.194400000000002,157.101,54.067700000000002,-43.352899999999998,18.579699999999999
1328.0,215.05699999999999,71.504499999999993,4.0130699999999999,206.85599999999999,57.296300000000002,-35.939100000000003,13.113099999999999
1329.0,217.78999999999999,25.718699999999998,-37.957599999999999,170.16900000000001,60.216000000000001,-27.5504,7.2770599999999996
1330.0,220.35400000000001,65.332099999999997,4.7170899999999998,216.56399999999999,62.795099999999998,-18.352699999999999,1.0649999999999999
1331.0,222.673,23.525099999999998,-34.871699999999997,178.87899999999999,64.954099999999997,-8.52468,-5.5151000000000003
1332.0,224.82900000000001,69.673400000000001,12.7455,226.624,66.480000000000004,1.7465599999999999,-12.5313
1333.0,227.101,25.789100000000001,-30.168399999999998,182.512,66.957599999999999,12.2204,-20.114699999999999
1334.0,230.20699999999999,71.677599999999998,16.470199999999998,227.72999999999999,65.756500000000003,23.0932,-28.334099999999999
1335.0,235.04400000000001,29.133299999999998,-25.419599999999999,185.339,62.307200000000002,34.552199999999999,-37.0595
1336.0,242.32300000000001,73.140699999999995,17.8703,229.12100000000001,56.842799999999997,47.624000000000002,-45.5244
1337.0,250.38399999999999,40.878700000000002,-17.548400000000001,192.53299999999999,51.121099999999998,60.849600000000002,-53.136600000000001
1338.0,252.83099999999999,100.581,32.545900000000003,232.05699999999999,49.332500000000003,72.327699999999993,-57.933300000000003
1339.0,256.21499999999997,27.351299999999998,-57.664999999999999,127.98999999999999,50.464199999999998,84.706299999999999,-59.354900000000001
1340.0,259.90800000000002,17.0046,-74.693799999999996,99.0197,50.262500000000003,88.383700000000005,-68.026300000000006
1341.0,257.82600000000002,-25.898199999999999,-117.873,38.834699999999998,48.392600000000002,87.658600000000007,-77.012799999999999
1342.0,258.21199999999999,28.354500000000002,-66.402299999999997,76.347800000000007,41.036200000000001,94.595500000000001,-79.470699999999994
1343.0,260.74900000000002,24.657699999999998,-70.474400000000003,61.188299999999998,29.228100000000001,102.68600000000001,-81.515500000000003
1344.0,258.47300000000001,126.724,21.279800000000002,138.68700000000001,19.1495,106.71599999999999,-79.624799999999993
1345.0,255.38800000000001,128.352,4.1583100000000002,106.721,11.388199999999999,106.551,-76.526399999999995
1346.0,251.00700000000001,183.07900000000001,45.603700000000003,131.22300000000001,6.6809900000000004,101.714,-76.100899999999996
1347.0,242.90299999999999,140.27799999999999,-1.7779100000000001,65.724400000000003,4.4874599999999996,93.096800000000002,-77.013400000000004
1348.0,234.596,180.88,36.585000000000001,86.930000000000007,2.2096499999999999,83.176199999999994,-77.834400000000002
1349.0,228.46799999999999,137.65000000000001,-8.6527999999999992,26.555900000000001,-1.9606300000000001,73.876000000000005,-78.145399999999995
1350.0,223.98099999999999,183.81800000000001,34.787300000000002,56.913600000000002,-7.3771000000000004,65.067999999999998,-77.244699999999995
1351.0,220.95599999999999,144.58000000000001,-8.0931099999999994,2.7899799999999999,-13.484,56.443199999999997,-75.171999999999997
1352.0,218.66900000000001,193.97499999999999,37.669899999999998,39.070099999999996,-19.461200000000002,47.533099999999997,-72.313199999999995
1353.0,192.38300000000001,90.018000000000001,20.546800000000001,203.55199999999999,44.936399999999999,-39.314399999999999,15.414999999999999
1354.0,194.79599999999999,45.848100000000002,-19.871700000000001,169.06999999999999,47.734999999999999,-32.521900000000002,10.5807
1355.0,197.13300000000001,80.784899999999993,18.253399999999999,212.011,50.262099999999997,-24.892700000000001,5.4012900000000004
1356.0,199.285,38.5672,-21.530799999999999,175.578,52.528700000000001,-16.5199,-0.091304399999999994
1357.0,201.24199999999999,72.483999999999995,14.003299999999999,212.81,54.475200000000001,-7.6091199999999999,-5.8906400000000003
1358.0,202.97300000000001,27.588200000000001,-30.079899999999999,168.63499999999999,55.977400000000003,1.6617599999999999,-12.0534
1359.0,204.92400000000001,67.424499999999995,10.1462,207.631,56.595700000000001,11.0204,-18.7135
1360.0,207.53899999999999,28.2699,-28.665500000000002,167.18000000000001,55.761600000000001,20.5687,-26.003900000000002
1361.0,212.23500000000001,73.792299999999997,17.6037,213.35499999999999,52.630099999999999,30.75,-33.767299999999999
1362.0,219.029,47.414900000000003,-8.7048699999999997,187.74199999999999,47.382399999999997,42.232199999999999,-41.520099999999999
1363.0,227.71000000000001,94.407300000000006,36.045499999999997,232.905,41.383499999999998,55.105899999999998,-48.073999999999998
1364.0,231.15899999999999,63.969900000000003,-3.0377900000000002,186.34200000000001,39.251399999999997,64.984800000000007,-53.162399999999998
1365.0,233.57400000000001,87.181399999999996,1.4391099999999999,177.619,40.353700000000003,76.846599999999995,-53.760100000000001
1366.0,237.99299999999999,-9.9834999999999994,-102.60299999999999,64.008799999999994,39.744700000000002,81.417100000000005,-60.852499999999999
1367.0,235.15000000000001,13.8751,-78.581199999999995,74.090900000000005,39.7348,78.124700000000004,-69.538899999999998
1368.0,235.477,-5.6324699999999996,-106.583,33.6081,34.887500000000003,84.233400000000003,-70.2851
1369.0,239.43000000000001,45.537500000000001,-55.301200000000001,78.371099999999998,22.6828,91.607299999999995,-73.144400000000005
1370.0,236.03299999999999,71.396900000000002,-34.5518,86.965100000000007,13.132300000000001,93.031400000000005,-73.286799999999999
1371.0,232.446,165.61600000000001,43.987000000000002,147.672,6.7644700000000002,94.350700000000003,-68.930700000000002
1372.0,229.072,137.38800000000001,5.9271099999999999,91.638400000000004,1.99899,92.712599999999995,-66.619699999999995
1373.0,220.78999999999999,174.17699999999999,39.180100000000003,108.166,-0.24171999999999999,84.955299999999994,-66.896799999999999
1374.0,212.32300000000001,136.71600000000001,-0.61853199999999997,53.021900000000002,-1.6587700000000001,75.347800000000007,-67.501199999999997
1375.0,206.00800000000001,176.625,38.118200000000002,78.345799999999997,-4.7217700000000002,66.634500000000003,-67.875900000000001
1376.0,201.523,140.958,0.56439300000000003,28.8414,-9.2193299999999994,58.5229,-67.184899999999999
1377.0,198.82900000000001,186.03800000000001,42.633099999999999,60.546599999999998,-14.6418,50.873699999999999,-65.341999999999999
1378.0,197.03999999999999,151.28299999999999,4.6235099999999996,13.660399999999999,-20.090299999999999,43.019100000000002,-62.706600000000002
1379.0,175.25800000000001,41.517600000000002,-24.965499999999999,145.66499999999999,37.336500000000001,-35.832500000000003,12.788600000000001
1380.0,177.23500000000001,73.897300000000001,10.729200000000001,186.68700000000001,39.706000000000003,-29.612300000000001,8.4790299999999998
1381.0,179.15899999999999,36.669499999999999,-23.718299999999999,156.57499999999999,41.838500000000003,-22.636900000000001,3.8526400000000001
1382.0,180.89599999999999,69.6738,11.2835,194.56899999999999,43.764699999999998,-14.979100000000001,-1.03881
1383.0,182.47499999999999,36.268300000000004,-20.990300000000001,163.79300000000001,45.455199999999998,-6.83751,-6.2012299999999998
1384.0,183.81100000000001,75.052599999999998,18.046900000000001,202.602,46.841999999999999,1.58087,-11.642300000000001
1385.0,185.41300000000001,39.0869,-18.052700000000002,165.226,47.509999999999998,10.006600000000001,-17.5335
1386.0,187.63399999999999,76.976900000000001,19.811299999999999,201.411,46.922499999999999,18.418700000000001,-23.932500000000001
1387.0,192.101,40.828899999999997,-15.4809,166.20699999999999,44.090299999999999,27.4693,-30.859200000000001
1388.0,198.696,76.9084,21.556100000000001,204.41499999999999,39.1462,37.646999999999998,-37.645400000000002
1389.0,207.65700000000001,49.671999999999997,-7.00021,177.33699999999999,32.966000000000001,49.870600000000003,-43.415999999999997
1390.0,211.52500000000001,103.264,40.3279,217.74799999999999,30.723299999999998,59.418300000000002,-48.466299999999997
1391.0,213.58500000000001,52.683,-27.299399999999999,137.17500000000001,32.175199999999997,71.221800000000002,-48.309399999999997
1392.0,218.40100000000001,22.123100000000001,-66.944599999999994,91.412800000000004,30.934000000000001,75.437399999999997,-54.315199999999997
1393.0,215.191,-16.342500000000001,-106.04300000000001,40.981699999999996,31.077999999999999,71.250799999999998,-62.464700000000001
1394.0,215.16,27.005099999999999,-72.878900000000002,62.628399999999999,28.4907,76.058899999999994,-62.448999999999998
1395.0,220.31,0.56311299999999997,-100.203,28.273299999999999,19.3109,82.971900000000005,-65.956699999999998
1396.0,218.23699999999999,93.131600000000006,-4.73543,107.23699999999999,12.179399999999999,86.108999999999995,-67.775800000000004
1397.0,213.15700000000001,116.621,8.8425700000000003,104.11799999999999,5.5223399999999998,87.478300000000004,-63.145899999999997
1398.0,208.559,168.60900000000001,47.1038,129.78800000000001,-1.27464,84.891300000000001,-58.6479
1399.0,201.37100000000001,136.45699999999999,8.5800999999999998,77.273600000000002,-4.5927899999999999,78.0749,-57.482799999999997
1400.0,192.999,166.60599999999999,36.770600000000002,91.7239,-5.43438,69.229299999999995,-57.849400000000003
1401.0,186.274,128.941,-1.6543399999999999,41.371899999999997,-7.2730100000000002,60.721600000000002,-58.282299999999999
1402.0,181.74299999999999,163.858,32.131500000000003,64.278599999999997,-10.8636,53.136499999999998,-57.894100000000002
1403.0,179.31100000000001,131.381,-2.7557499999999999,19.768599999999999,-15.570399999999999,46.210000000000001,-56.392200000000003
1404.0,178.047,171.32300000000001,34.194499999999998,48.373899999999999,-20.498699999999999,39.234900000000003,-54.041200000000003
1405.0,160.44300000000001,88.306399999999996,24.8508,184.03100000000001,31.171600000000002,-32.773200000000003,10.657299999999999
1406.0,162.048,52.946199999999997,-7.5115100000000004,156.441,33.182699999999997,-27.0456,6.7953999999999999
1407.0,163.58600000000001,81.365899999999996,23.3813,191.184,34.9816,-20.643799999999999,2.6317599999999999
1408.0,164.95699999999999,47.675600000000003,-8.5905199999999997,161.852,36.600200000000001,-13.6195,-1.7694300000000001
1409.0,166.13800000000001,74.751800000000003,19.3203,190.96700000000001,38.054299999999998,-6.1440299999999999,-6.4188200000000002
1410.0,167.15899999999999,38.3767,-17.1538,154.178,39.279299999999999,1.54636,-11.288500000000001
1411.0,168.38,70.688500000000005,14.587,184.51900000000001,39.950000000000003,9.1485400000000006,-16.5518
1412.0,170.42699999999999,39.1083,-17.3218,151.17400000000001,39.462800000000001,16.6448,-22.176500000000001
1413.0,174.48400000000001,76.220500000000001,20.698899999999998,189.31899999999999,36.879399999999997,24.5273,-28.321200000000001
1414.0,181.322,55.579700000000003,1.6212,172.35900000000001,32.084400000000002,33.934800000000003,-34.080399999999997
1415.0,190.13,94.736400000000003,40.843600000000002,213.602,26.011900000000001,44.818300000000001,-39.386400000000002
1416.0,193.05600000000001,70.320400000000006,11.200799999999999,176.595,23.409099999999999,54.950000000000003,-42.800699999999999
1417.0,195.86799999999999,77.099199999999996,3.7585999999999999,158.09899999999999,23.6647,66.698800000000006,-42.652200000000001
1418.0,199.32599999999999,-3.56108,-85.537800000000004,63.8279,22.582599999999999,69.026600000000002,-48.720799999999997
1419.0,197.465,16.1035,-70.563800000000001,70.269199999999998,22.808499999999999,66.157700000000006,-55.261400000000002
1420.0,197.73599999999999,4.1363099999999999,-91.321899999999999,39.738399999999999,21.107299999999999,69.712400000000002,-55.991300000000003
1421.0,199.083,37.600700000000003,-59.9895,59.965200000000003,15.080500000000001,75.327799999999996,-56.928400000000003
1422.0,198.125,20.3581,-73.403400000000005,31.596599999999999,7.4741200000000001,80.275700000000001,-57.103000000000002
1423.0,193.524,103.63500000000001,8.7863399999999992,100.795,0.17810999999999999,80.3048,-55.886800000000001
1424.0,188.46799999999999,126.617,16.625,95.858800000000002,-4.5132399999999997,77.094899999999996,-51.532899999999998
1425.0,184.70599999999999,165.54499999999999,44.826700000000002,111.535,-7.9949399999999997,72.501800000000003,-48.938400000000001
1426.0,176.499,132.017,9.9678599999999999,64.706599999999995,-8.9158299999999997,64.370199999999997,-49.231400000000001
1427.0,169.05199999999999,161.59200000000001,38.880000000000003,82.8489,-9.4513999999999996,55.7911,-49.587200000000003
1428.0,164.482,130.42699999999999,7.2204199999999998,41.362299999999998,-12.26,48.563499999999998,-49.629300000000001
1429.0,162.20500000000001,165.59800000000001,40.4818,65.800600000000003,-16.172799999999999,42.146500000000003,-48.543199999999999
1430.0,161.41399999999999,137.78100000000001,9.9505700000000008,27.436299999999999,-20.658300000000001,35.915999999999997,-46.5229
1431.0,147.54300000000001,47.228099999999998,-13.5436,135.19,26.2028,-29.961500000000001,8.94496
1432.0,148.81100000000001,74.0548,16.028600000000001,168.98599999999999,27.909300000000002,-24.704899999999999,5.4584700000000002
1433.0,149.98500000000001,43.700400000000002,-12.073399999999999,144.24000000000001,29.427600000000002,-18.8203,1.69475
1434.0,151.01499999999999,71.070599999999999,16.8018,175.381,30.788599999999999,-12.3696,-2.3168099999999998
1435.0,151.845,44.593600000000002,-9.1222999999999992,150.38499999999999,32.028599999999997,-5.4987199999999996,-6.5545600000000004
1436.0,152.60400000000001,77.057299999999998,22.950800000000001,182.065,33.073599999999999,1.5293600000000001,-11.010199999999999
1437.0,153.53100000000001,48.161999999999999,-6.8464099999999997,150.84700000000001,33.663699999999999,8.3742400000000004,-15.7369
1438.0,155.428,78.784700000000001,23.3263,179.85400000000001,33.129300000000001,15.0627,-20.727799999999998
1439.0,159.18899999999999,49.554600000000001,-4.7656900000000002,152.09399999999999,30.720199999999998,21.918700000000001,-26.035599999999999
1440.0,166.18000000000001,76.748199999999997,24.758199999999999,184.47999999999999,25.9465,30.7059,-30.8628
1441.0,174.626,57.326599999999999,6.8805500000000004,168.68600000000001,20.228999999999999,40.465800000000002,-35.546900000000001
1442.0,177.35499999999999,99.7166,42.869700000000002,198.86500000000001,17.364799999999999,50.522500000000001,-37.392800000000001
1443.0,180.637,38.624000000000002,-32.403399999999998,114.97199999999999,16.160299999999999,61.398699999999998,-37.595399999999998
1444.0,183.13,17.453199999999999,-59.560000000000002,82.420199999999994,15.320399999999999,63.101399999999998,-43.711599999999997
1445.0,181.66300000000001,-6.8472999999999997,-88.440399999999997,45.362400000000001,15.688499999999999,61.685600000000001,-49.005600000000001
1446.0,182.166,28.124700000000001,-61.394199999999998,63.650100000000002,14.0406,65.299700000000001,-49.480499999999999
1447.0,181.43600000000001,4.4631400000000001,-91.113500000000002,24.970600000000001,10.301399999999999,67.840699999999998,-49.2547
1448.0,181.97300000000001,36.9773,-62.102200000000003,43.604799999999997,3.9950600000000001,71.463200000000001,-49.085599999999999
1449.0,179.43799999999999,51.6783,-40.629199999999997,53.187199999999997,-3.4958399999999998,72.260499999999993,-51.102600000000002
1450.0,171.38399999999999,147.75800000000001,47.634500000000003,125.267,-6.9443900000000003,69.4392,-46.488900000000001
1451.0,169.37899999999999,136.785,23.372199999999999,87.281199999999998,-10.3941,67.317400000000006,-41.114899999999999
1452.0,162.30699999999999,155.18799999999999,41.3934,94.400099999999995,-12.050000000000001,60.587800000000001,-41.505499999999998
1453.0,153.93299999999999,123.708,8.8643599999999996,52.101999999999997,-11.359299999999999,51.485900000000001,-41.883299999999998
1454.0,149.51900000000001,148.161,33.190199999999997,67.853099999999998,-13.416399999999999,44.655500000000004,-42.421900000000001
1455.0,147.096,120.39,4.0665699999999996,30.724499999999999,-16.4923,38.469099999999997,-41.796700000000001
1456.0,146.85300000000001,152.59999999999999,33.709299999999999,53.067500000000003,-20.581700000000001,32.915300000000002,-40.151499999999999
1457.0,136.172,86.380399999999995,27.857800000000001,167.03100000000001,22.173200000000001,-27.369199999999999,7.5574199999999996
1458.0,137.14400000000001,57.1524,1.14147,144.02799999999999,23.6463,-22.526599999999998,4.4062099999999997
1459.0,138.001,81.181399999999996,27.1998,172.97499999999999,24.950199999999999,-17.115100000000002,0.98318000000000005
1460.0,138.69200000000001,53.303600000000003,0.65690099999999996,148.28,26.111899999999999,-11.1927,-2.6979899999999999
1461.0,139.196,75.732399999999998,23.4848,171.71899999999999,27.1661,-4.8877100000000002,-6.6185400000000003
1462.0,139.69300000000001,45.1935,-7.5651799999999998,140.13499999999999,28.0167,1.5052099999999999,-10.742900000000001
1463.0,140.43799999999999,72.525099999999995,18.723199999999999,165.083,28.4375,7.6576300000000002,-15.0486
1464.0,142.21000000000001,46.142699999999998,-7.9866599999999996,137.541,27.740600000000001,13.5746,-19.419599999999999
1465.0,145.74700000000001,77.864000000000004,25.312100000000001,171.584,25.244800000000001,19.600100000000001,-23.857500000000002
1466.0,152.66800000000001,60.8446,11.704599999999999,161.29499999999999,20.4177,27.762799999999999,-27.709199999999999
1467.0,160.608,94.880399999999995,48.6541,200.40600000000001,14.8125,36.765300000000003,-31.2578
1468.0,163.40000000000001,74.175299999999993,21.838100000000001,168.06899999999999,12.368,46.749200000000002,-32.736800000000002
1469.0,166.958,72.859700000000004,6.8096699999999997,145.01900000000001,11.754200000000001,57.096899999999998,-33.3902
1470.0,169.34299999999999,-0.025691200000000001,-71.236500000000007,62.649000000000001,10.451599999999999,58.642000000000003,-39.032200000000003
1471.0,167.30699999999999,18.869900000000001,-56.171599999999998,70.265799999999999,9.7589100000000002,57.492100000000001,-43.4373
1472.0,168.58699999999999,8.1128300000000007,-75.576499999999996,43.3384,7.8546100000000001,61.831400000000002,-43.106099999999998
1473.0,167.358,38.926499999999997,-49.9938,60.2864,6.1588599999999998,62.991,-43.698999999999998
1474.0,166.31100000000001,13.5108,-80.812799999999996,16.457999999999998,3.0413399999999999,65.728399999999993,-42.768300000000004
1475.0,165.44300000000001,53.948399999999999,-30.9818,55.573,-4.6131500000000001,67.941599999999994,-45.1128
1476.0,156.52500000000001,103.58199999999999,17.079899999999999,88.609700000000004,-8.6609300000000005,64.739800000000002,-41.9908
1477.0,154.69,160.268,56.802100000000003,115.586,-12.1031,62.683999999999997,-34.752000000000002
1478.0,149.833,127.265,21.3428,71.532700000000006,-14.6715,57.119500000000002,-34.612200000000001
1479.0,140.863,151.83699999999999,44.919199999999996,86.053799999999995,-13.1892,47.826599999999999,-35.275100000000002
1480.0,136.34299999999999,121.03100000000001,13.9701,48.034300000000002,-14.3246,41.114800000000002,-36.180900000000001
1481.0,133.81200000000001,149.36799999999999,41.383000000000003,68.3703,-16.686399999999999,35.080399999999997,-36.072400000000002
1482.0,133.91300000000001,125.012,14.6607,35.008899999999997,-20.3034,30.085999999999999,-34.806399999999996
1483.0,126.045,51.215000000000003,-5.5077400000000001,124.938,18.852599999999999,-24.919,6.4216300000000004
1484.0,126.748,74.417500000000004,19.9863,153.65199999999999,20.128,-20.474900000000002,3.57098
1485.0,127.27800000000001,48.512900000000002,-4.0737699999999997,131.98500000000001,21.256699999999999,-15.503,0.45417299999999999
1486.0,127.643,72.266199999999998,20.8383,158.321,22.2577,-10.0748,-2.9458299999999999
1487.0,127.82599999999999,50.274299999999997,-0.913775,136.84700000000001,23.1373,-4.3228499999999999,-6.60738
1488.0,128.12700000000001,78.694900000000004,26.937999999999999,164.06700000000001,23.7727,1.4391499999999999,-10.475
1489.0,128.72399999999999,54.348100000000002,1.7033799999999999,137.63,23.9086,6.8959900000000003,-14.384399999999999
1490.0,130.44200000000001,80.519999999999996,28.021699999999999,163.55799999999999,22.924199999999999,12.126300000000001,-18.136099999999999
1491.0,133.839,55.681399999999996,5.5955899999999996,142.33600000000001,20.299299999999999,17.481999999999999,-21.6188
1492.0,140.55699999999999,77.926699999999997,32.5045,172.721,15.458600000000001,25.183599999999998,-24.371400000000001
1493.0,148.37899999999999,63.125599999999999,21.197800000000001,163.74000000000001,10.276899999999999,33.537500000000001,-27.2363
1494.0,150.24700000000001,98.898600000000002,51.646000000000001,187.86600000000001,8.05837,43.492699999999999,-28.004100000000001
1495.0,153.18199999999999,36.578499999999998,-22.108499999999999,105.544,7.2154999999999996,53.517299999999999,-28.684100000000001
1496.0,155.959,13.4,-50.315399999999997,74.631200000000007,6.0581399999999999,54.541699999999999,-34.536999999999999
1497.0,154.75299999999999,-2.6076199999999998,-71.119699999999995,48.311799999999998,5.2771100000000004,53.813400000000001,-38.305700000000002
1498.0,156.67099999999999,27.4602,-49.2928,62.811599999999999,2.8007399999999998,58.891599999999997,-37.698399999999999
1499.0,154.404,9.6726700000000001,-72.066199999999995,31.453099999999999,1.298,59.395099999999999,-37.930300000000003
1500.0,151.73400000000001,33.323900000000002,-56.489800000000002,35.443300000000001,-0.61344500000000002,60.200499999999998,-36.002299999999998
1501.0,151.28100000000001,17.197900000000001,-65.271600000000007,19.697099999999999,-7.4303100000000004,61.991799999999998,-37.317599999999999
1502.0,142.71799999999999,106.65000000000001,28.3079,98.142399999999995,-11.7501,59.481099999999998,-35.575400000000002
1503.0,140.809,129.78,37.211799999999997,90.732699999999994,-14.302199999999999,58.169800000000002,-29.3444
1504.0,138.35599999999999,148.78100000000001,51.230899999999998,96.774799999999999,-16.371300000000002,53.816000000000003,-28.8809
1505.0,129.65700000000001,118.877,19.8385,57.941899999999997,-14.9961,44.705500000000001,-29.7409
1506.0,124.651,136.821,37.442100000000003,69.851900000000001,-15.093999999999999,37.830199999999998,-30.8507
1507.0,122.083,110.377,10.2997,36.803699999999999,-16.8323,31.997599999999998,-31.183499999999999
1508.0,122.30500000000001,137.10499999999999,34.924700000000001,55.518000000000001,-19.915600000000001,27.365100000000002,-30.338899999999999
1509.0,116.964,85.336799999999997,29.967600000000001,152.42699999999999,16.0718,-22.613,5.4788600000000001
1510.0,117.41500000000001,60.277999999999999,6.9755000000000003,132.18600000000001,17.190899999999999,-18.526499999999999,2.9061400000000002
1511.0,117.655,81.616799999999998,29.939399999999999,157.08199999999999,18.184699999999999,-13.9663,0.069342000000000001
1512.0,117.65900000000001,57.569099999999999,6.9064500000000004,134.99000000000001,19.051600000000001,-9.0098199999999995,-3.0703800000000001
1513.0,117.521,77.005200000000002,26.561900000000001,154.54400000000001,19.769100000000002,-3.8141799999999999,-6.5075500000000002
1514.0,117.577,50.305599999999998,-0.47606799999999999,126.706,20.137699999999999,1.3013999999999999,-10.1188
1515.0,118.122,74.414500000000004,23.237500000000001,149.458,19.928000000000001,6.0750200000000003,-13.6595
1516.0,119.84099999999999,51.634900000000002,1.5395000000000001,127.917,18.560199999999998,10.702,-16.681799999999999
1517.0,123.15300000000001,79.888900000000007,33.429499999999997,161.40299999999999,15.7843,15.604699999999999,-19.136600000000001
1518.0,129.702,65.5154,25.126200000000001,156.35400000000001,11.3264,23.123799999999999,-20.670200000000001
1519.0,136.37899999999999,95.706900000000005,60.6843,192.458,6.8997200000000003,31.0839,-22.964400000000001
1520.0,137.55000000000001,77.470200000000006,35.533000000000001,160.91300000000001,4.9075699999999998,40.403100000000002,-24.0124
1521.0,141.715,67.258499999999998,11.004899999999999,130.887,3.8401900000000002,49.319899999999997,-25.488800000000001
1522.0,144.60300000000001,-1.0971500000000001,-60.807000000000002,57.586399999999998,3.0950199999999999,50.043799999999997,-30.849
1523.0,143.22499999999999,17.849699999999999,-44.199300000000001,68.1708,2.0097,50.418399999999998,-33.518900000000002
1524.0,145.84999999999999,10.9999,-58.401200000000003,46.593600000000002,-1.24627,56.122199999999999,-32.9893
1525.0,143.63900000000001,38.357300000000002,-36.461100000000002,60.676900000000003,-2.30966,56.740000000000002,-32.618899999999996
1526.0,139.58799999999999,14.396100000000001,-68.514600000000002,16.839600000000001,-2.9405800000000002,56.0809,-31.309999999999999
1527.0,139.404,40.197299999999998,-38.6404,40.9161,-7.2981199999999999,56.730400000000003,-33.397100000000002
1528.0,132.28999999999999,82.575699999999998,8.1052199999999992,76.488600000000005,-11.219799999999999,54.0867,-32.747500000000002
1529.0,128.602,148.11099999999999,63.583300000000001,114.56699999999999,-14.769500000000001,52.775100000000002,-26.418399999999998
1530.0,127.41200000000001,125.04900000000001,35.658900000000003,76.4114,-17.367899999999999,49.992400000000004,-24.6493
1531.0,119.94499999999999,143.07499999999999,51.928400000000003,86.337900000000005,-16.453199999999999,41.947699999999998,-25.432400000000001
1532.0,114.35299999999999,114.523,22.447199999999999,52.484699999999997,-15.8558,34.760199999999998,-26.351199999999999
1533.0,111.749,136.12299999999999,43.450699999999998,68.907399999999996,-16.995899999999999,29.148599999999998,-27.0502
1534.0,111.834,113.634,19.1645,39.620100000000001,-19.4833,24.725899999999999,-26.604500000000002
1535.0,108.78100000000001,55.027999999999999,0.59230700000000003,115.753,13.694800000000001,-20.4009,4.6805500000000002
1536.0,109.01900000000001,75.344099999999997,22.765000000000001,140.24100000000001,14.6739,-16.671399999999998,2.3767999999999998
1537.0,108.925,52.912399999999998,1.7659199999999999,120.66,15.551600000000001,-12.4938,-0.196155
1538.0,108.613,73.823700000000002,23.558800000000002,142.947,16.299099999999999,-8.00427,-3.07938
1539.0,108.08799999999999,55.369,5.3156299999999996,124.148,16.848700000000001,-3.37155,-6.2942099999999996
1540.0,108.027,80.5565,30.560199999999998,148.56899999999999,16.940200000000001,1.0745,-9.6559200000000001
1541.0,108.44799999999999,59.796100000000003,10.3733,127.63500000000001,16.307300000000001,5.1402999999999999,-12.7354
1542.0,110.399,82.439700000000002,35.489899999999999,153.613,14.574999999999999,9.3550500000000003,-15.017799999999999
1543.0,113.735,61.876899999999999,19.190200000000001,139.196,11.965400000000001,13.9285,-16.565899999999999
1544.0,120.39400000000001,80.609300000000005,43.203099999999999,166.578,8.1865799999999993,21.439900000000002,-17.406300000000002
1545.0,125.63,71.203900000000004,35.733199999999997,159.786,4.7870799999999996,27.5181,-19.960100000000001
1546.0,126.59999999999999,101.105,57.151299999999999,173.422,4.89133,37.3964,-21.7562
1547.0,132.53299999999999,29.502500000000001,-22.206299999999999,89.158799999999999,5.4718200000000001,46.280200000000001,-24.028199999999998
1548.0,133.00899999999999,7.3551099999999998,-45.559399999999997,64.9816,3.0051600000000001,45.287999999999997,-27.936499999999999
1549.0,132.84200000000001,-0.15007200000000001,-57.106900000000003,48.070799999999998,-0.646428,47.529600000000002,-29.169899999999998
1550.0,136.21600000000001,26.104399999999998,-35.701099999999997,62.6389,-4.1127000000000002,53.5306,-28.837700000000002
1551.0,134.33000000000001,11.263,-56.592100000000002,33.470300000000002,-5.2927200000000001,54.832299999999996,-27.907499999999999
1552.0,128.727,33.361499999999999,-41.536200000000001,38.100299999999997,-5.5855699999999997,52.638800000000003,-26.940200000000001
1553.0,125.776,13.1373,-59.987299999999998,8.9137900000000005,-6.9552199999999997,51.990699999999997,-28.9208
1554.0,122.54300000000001,73.964600000000004,7.9267000000000003,65.2059,-8.3824500000000004,51.527000000000001,-31.5258
1555.0,117.476,110.873,38.554400000000001,84.156599999999997,-11.896800000000001,48.628599999999999,-27.508299999999998
1556.0,116.408,141.46600000000001,59.9129,96.763800000000003,-16.5596,45.307400000000001,-22.849799999999998
1557.0,111.354,113.496,29.741299999999999,60.429099999999998,-17.562100000000001,39.243000000000002,-22.121300000000002
1558.0,105.45699999999999,129.31,44.202800000000003,71.341300000000004,-16.6554,31.989799999999999,-22.722300000000001
1559.0,102.605,102.185,16.433399999999999,40.4285,-17.114000000000001,26.553899999999999,-23.539999999999999
1560.0,102.31699999999999,124.18300000000001,37.091000000000001,56.9741,-19.0991,22.156300000000002,-23.4726
1561.0,101.43899999999999,85.100700000000003,31.156500000000001,139.679,11.6188,-18.292400000000001,4.00075
1562.0,101.467,63.482900000000001,11.155200000000001,121.56999999999999,12.489100000000001,-14.8827,1.9378599999999999
1563.0,101.114,82.819400000000002,31.709900000000001,143.10400000000001,13.263500000000001,-11.081200000000001,-0.348356
1564.0,100.414,61.728499999999997,11.3864,122.732,13.907400000000001,-7.0486199999999997,-2.9963799999999998
1565.0,99.569400000000002,78.918199999999999,29.0029,139.40199999999999,14.2967,-2.99864,-5.91594
1566.0,99.168300000000002,54.847499999999997,5.7689399999999997,115.087,14.0931,0.73326899999999995,-8.9981399999999994
1567.0,99.772499999999994,76.802800000000005,29.608499999999999,138.72200000000001,13.099299999999999,4.2046099999999997,-11.5923
1568.0,101.998,56.4298,13.4444,124.093,11.053599999999999,8.0071399999999997,-13.040100000000001
1569.0,105.11199999999999,83.223200000000006,45.365900000000003,157.37299999999999,9.1035799999999991,12.8482,-13.7378
1570.0,111.098,69.8476,35.015500000000003,148.83600000000001,7.9793000000000003,20.4648,-15.182700000000001
1571.0,115.303,96.570899999999995,61.699100000000001,173.11500000000001,9.7646899999999999,26.873699999999999,-19.129799999999999
1572.0,117.952,57.109099999999998,16.0867,120.65000000000001,10.9681,36.204000000000001,-20.758199999999999
1573.0,121.55,20.661999999999999,-25.120200000000001,79.182299999999998,6.2544000000000004,40.804699999999997,-22.077100000000002
1574.0,121.29000000000001,-6.6339199999999998,-54.894599999999997,48.939399999999999,1.2924800000000001,39.800800000000002,-24.861899999999999
1575.0,124.126,20.5779,-31.998799999999999,66.746099999999998,-2.2306699999999999,45.292299999999997,-25.264600000000002
1576.0,127.32599999999999,10.6936,-44.034500000000001,48.127699999999997,-5.8597099999999998,51.065199999999997,-24.7713
1577.0,125.57899999999999,36.871499999999997,-24.1584,58.601300000000002,-7.6109900000000001,52.7117,-24.0671
1578.0,120.04900000000001,17.5258,-50.061399999999999,23.868300000000001,-7.3682299999999996,50.0002,-23.887899999999998
1579.0,112.82299999999999,32.206000000000003,-38.026899999999998,25.001000000000001,-7.5495900000000002,45.941299999999998,-24.136600000000001
1580.0,110.476,13.752800000000001,-51.200200000000002,-0.71451100000000001,-9.0902499999999993,46.113199999999999,-26.389700000000001
1581.0,107.964,80.503399999999999,20.626100000000001,60.9101,-11.2416,45.3461,-27.762799999999999
1582.0,104.374,111.473,41.619300000000003,75.241299999999995,-14.771100000000001,40.733199999999997,-23.097300000000001
1583.0,103.371,137.053,58.649000000000001,86.287599999999998,-17.796199999999999,35.844799999999999,-19.4666
1584.0,98.162599999999998,109.54600000000001,31.2182,55.367100000000001,-17.5928,29.940000000000001,-19.927
1585.0,94.125200000000007,125.97199999999999,46.722299999999997,69.043400000000005,-17.0884,23.857399999999998,-20.5441
1586.0,93.9726,103.89100000000001,23.642700000000001,42.795999999999999,-18.9071,19.7943,-20.923100000000002
1587.0,94.879199999999997,58.829599999999999,4.9370900000000004,107.45699999999999,9.7652999999999999,-16.247499999999999,3.3840499999999998
1588.0,94.723100000000002,77.304699999999997,24.805,128.81100000000001,10.5258,-13.1564,1.59198
1589.0,94.129999999999995,57.103400000000001,5.6037699999999999,110.15600000000001,11.219799999999999,-9.7169899999999991,-0.45036900000000002
1590.0,93.084599999999995,76.410799999999995,25.610099999999999,129.61199999999999,11.7607,-6.1438300000000003,-2.7584499999999998
1591.0,91.909599999999998,60.012099999999997,9.8189499999999992,112.471,12.000400000000001,-2.6977099999999998,-5.4513499999999997
1592.0,91.360100000000003,83.537300000000002,35.054499999999997,136.66399999999999,11.589,0.34048600000000001,-8.0562900000000006
1593.0,91.893900000000002,64.243200000000002,19.473199999999999,121.12,10.283099999999999,3.1871200000000002,-10.1822
1594.0,94.864800000000002,86.078299999999999,46.745899999999999,150.762,8.3112899999999996,7.0281399999999996,-11.0863
1595.0,97.958600000000004,67.976799999999997,32.532899999999998,138.215,6.6906100000000004,11.533099999999999,-11.304
1596.0,99.895499999999998,75.374700000000004,40.532200000000003,142.96100000000001,7.2741699999999998,19.9086,-12.838100000000001
1597.0,104.20999999999999,21.6524,-12.568899999999999,85.767200000000003,10.1233,27.758900000000001,-15.9666
1598.0,107.29300000000001,3.6543999999999999,-34.619500000000002,64.195899999999995,9.2119599999999995,30.682099999999998,-18.125599999999999
1599.0,109.47,-18.707899999999999,-64.6267,36.169800000000002,3.8801299999999999,32.131700000000002,-20.008900000000001
1600.0,112.73099999999999,6.5487900000000003,-41.182699999999997,57.838000000000001,-0.053795599999999999,36.217399999999998,-21.727499999999999
1601.0,115.877,1.76796,-45.317500000000003,47.703400000000002,-3.2149700000000001,43.008400000000002,-21.270399999999999
1602.0,118.626,23.620799999999999,-24.813199999999998,60.552199999999999,-6.8388099999999996,48.737200000000001,-20.875499999999999
1603.0,116.857,11.998900000000001,-41.546700000000001,33.9696,-9.0384799999999998,50.250399999999999,-20.8874
1604.0,111.746,31.3294,-29.322600000000001,37.259799999999998,-9.2027599999999996,47.830800000000004,-20.785799999999998
1605.0,102.783,12.8941,-52.933500000000002,6.5033200000000004,-8.14161,40.889499999999998,-21.573699999999999
1606.0,99.059200000000004,21.442399999999999,-47.293799999999997,2.3507099999999999,-9.4626699999999992,37.988799999999998,-21.8919
1607.0,99.290300000000002,14.1271,-43.643300000000004,-1.5268999999999999,-13.6973,39.829599999999999,-24.888999999999999
1608.0,93.832300000000004,105.73699999999999,47.332900000000002,80.428600000000003,-15.2529,36.255699999999997,-23.0197
1609.0,94.911199999999994,114.496,42.108800000000002,66.477999999999994,-17.044799999999999,32.360900000000001,-17.560199999999998
1610.0,91.890799999999999,120.648,48.2209,69.933400000000006,-18.329899999999999,28.1235,-17.498999999999999
1611.0,86.395300000000006,97.509900000000002,24.713000000000001,44.913600000000002,-17.1965,21.219200000000001,-18.159600000000001
1612.0,86.512200000000007,112.40900000000001,38.497,56.900300000000001,-18.727499999999999,17.5808,-18.8277
1613.0,89.049599999999998,85.821399999999997,31.511900000000001,128.59200000000001,8.0532900000000005,-14.256399999999999,2.8149999999999999
1614.0,88.863100000000003,66.886399999999995,13.6944,112.023,8.7309400000000004,-11.482200000000001,1.2692099999999999
1615.0,87.983900000000006,85.001599999999996,32.546199999999999,130.91399999999999,9.3354999999999997,-8.3891600000000004,-0.467223
1616.0,86.796899999999994,65.936899999999994,14.1014,111.633,9.7987800000000007,-5.2707699999999997,-2.48834
1617.0,85.084500000000006,81.752899999999997,30.974900000000002,126.544,9.92178,-2.4755699999999998,-4.7136399999999998
1618.0,84.464500000000001,58.8369,10.979900000000001,105.663,9.3664900000000006,-0.056865499999999999,-7.0021300000000002
1619.0,85.067400000000006,80.143500000000003,37.377499999999998,132.53800000000001,8.0470900000000007,2.20058,-8.4245099999999997
1620.0,88.420199999999994,60.555700000000002,24.839500000000001,122.541,6.4126300000000001,6.41099,-8.9385700000000003
1621.0,90.232500000000002,89.096100000000007,54.8277,152.76400000000001,6.1166200000000002,10.376899999999999,-9.9470700000000001
1622.0,91.049400000000006,65.411799999999999,24.268799999999999,118.209,6.8248800000000003,19.595700000000001,-10.735900000000001
1623.0,97.203100000000006,18.2484,-27.088999999999999,70.118899999999996,6.1906699999999999,24.007999999999999,-12.995200000000001
1624.0,98.950500000000005,-21.801600000000001,-69.135199999999998,31.0444,4.1865199999999998,21.577999999999999,-16.403500000000001
1625.0,100.71899999999999,12.3786,-35.915900000000001,60.922499999999999,2.16188,26.644300000000001,-17.956800000000001
1626.0,105.373,-0.30038199999999998,-44.485199999999999,49.463299999999997,-0.46175300000000002,34.232399999999998,-17.886399999999998
1627.0,107.74299999999999,19.589400000000001,-22.456499999999998,64.669799999999995,-3.83426,40.718899999999998,-17.269600000000001
1628.0,110.004,10.698399999999999,-31.935099999999998,46.444099999999999,-7.1574999999999998,46.210799999999999,-17.526700000000002
1629.0,108.134,34.934100000000001,-11.829700000000001,56.784799999999997,-9.5410699999999995,47.469000000000001,-18.016200000000001
1630.0,103.589,17.274999999999999,-36.871099999999998,22.780899999999999,-10.531599999999999,45.2301,-18.261700000000001
1631.0,93.893100000000004,32.095300000000002,-27.3338,25.963200000000001,-9.2002699999999997,37.4559,-19.563099999999999
1632.0,89.174000000000007,6.1361999999999997,-59.756700000000002,-13.407400000000001,-9.2869100000000007,32.130499999999998,-19.6648
1633.0,90.483599999999996,24.636500000000002,-32.805999999999997,10.4346,-14.241899999999999,33.651600000000002,-22.330400000000001
1634.0,86.269999999999996,70.024199999999993,18.0334,50.984299999999998,-16.479800000000001,32.336300000000001,-21.7194
1635.0,86.398499999999999,129.96199999999999,66.114800000000002,86.754900000000006,-17.135300000000001,29.5961,-16.034800000000001
1636.0,85.466800000000006,105.13200000000001,38.487499999999997,57.185200000000002,-18.4938,25.930499999999999,-15.4526
1637.0,79.914000000000001,118.075,51.207900000000002,69.570400000000006,-17.593800000000002,18.917100000000001,-16.366099999999999
1638.0,79.561499999999995,95.150099999999995,27.258600000000001,45.024299999999997,-18.555900000000001,15.239599999999999,-17.142600000000002
1639.0,84.067599999999999,63.2697,8.1079500000000007,100.42,6.4170800000000003,-12.3317,2.2663799999999998
1640.0,83.742500000000007,79.669600000000003,25.2806,118.461,7.0199499999999997,-9.8263800000000003,0.93008199999999996
1641.0,82.898300000000006,61.883699999999997,8.0165400000000009,101.081,7.5378299999999996,-7.10846,-0.43864500000000001
1642.0,81.303700000000006,79.301900000000003,25.890899999999998,117.46599999999999,7.9465399999999997,-4.4447900000000002,-2.1600700000000002
1643.0,79.691199999999995,65.182699999999997,13.196199999999999,103.01600000000001,7.9706599999999996,-2.1929599999999998,-3.8664700000000001
1644.0,78.503600000000006,86.969200000000001,38.685299999999998,127.246,7.38774,-0.68684500000000004,-5.7540500000000003
1645.0,79.724000000000004,69.032799999999995,27.570399999999999,117.608,6.3997599999999997,1.94713,-6.5545799999999996
1646.0,82.965400000000002,90.969999999999999,54.686300000000003,147.64599999999999,4.8007499999999999,4.5838200000000002,-7.4375
1647.0,82.258200000000002,77.017600000000002,38.340000000000003,128.11099999999999,6.0096499999999997,11.020899999999999,-8.3875899999999994
1648.0,86.370400000000004,46.790799999999997,1.8206100000000001,90.143000000000001,8.5598399999999994,19.390899999999998,-9.3225700000000007
1649.0,90.163200000000003,-21.753,-70.500399999999999,23.180700000000002,6.9995700000000003,17.7667,-12.243399999999999
1650.0,90.864099999999993,-1.77647,-50.657699999999998,43.263199999999998,4.0960999999999999,17.5273,-14.886200000000001
1651.0,93.884900000000002,-11.6767,-56.148800000000001,35.292099999999998,1.25926,25.053699999999999,-14.7637
1652.0,97.875600000000006,6.8088600000000001,-32.1188,55.982199999999999,-1.4718199999999999,32.505600000000001,-13.610200000000001
1653.0,99.892499999999998,3.4755199999999999,-33.4953,46.8874,-3.9655800000000001,38.788200000000003,-13.6793
1654.0,101.217,20.779299999999999,-16.6084,54.920699999999997,-6.87073,43.323,-14.5213
1655.0,99.436499999999995,10.4382,-30.457699999999999,31.313800000000001,-9.3981200000000005,44.422899999999998,-15.7105
1656.0,95.287099999999995,28.518000000000001,-19.012699999999999,33.857599999999998,-10.859500000000001,42.338200000000001,-16.3994
1657.0,85.505099999999999,12.0905,-41.153599999999997,5.7888900000000003,-10.3179,34.271999999999998,-17.596599999999999
1658.0,80.402600000000007,18.273499999999999,-41.564599999999999,-0.64368599999999998,-10.099,28.197199999999999,-17.952500000000001
1659.0,81.174400000000006,3.9074200000000001,-47.684800000000003,-8.2092100000000006,-13.7658,29.550999999999998,-20.145900000000001
1660.0,78.571899999999999,77.8018,31.4909,62.771799999999999,-17.134899999999998,29.071400000000001,-18.997699999999998
1661.0,79.697599999999994,103.32899999999999,46.496200000000002,64.174199999999999,-18.650300000000001,26.889099999999999,-14.1579
1662.0,79.303799999999995,116.068,55.634399999999999,71.158699999999996,-18.9148,23.6309,-13.9695
1663.0,74.045900000000003,91.524000000000001,30.1892,46.952100000000002,-17.873200000000001,16.677600000000002,-15.0024
1664.0,73.5107,103.214,40.994500000000002,58.168500000000002,-18.642900000000001,12.954700000000001,-15.9161
1665.0,79.876900000000006,86.818100000000001,30.333100000000002,118.429,4.8091999999999997,-10.448600000000001,1.6365700000000001
1666.0,79.548400000000001,71.264200000000002,15.1599,103.86499999999999,5.30891,-8.2188099999999995,0.61975999999999998
1667.0,78.7834,86.977000000000004,31.1341,119.596,5.7448199999999998,-5.8601999999999999,-0.51543700000000003
1668.0,77.017700000000005,71.780699999999996,16.166,102.735,6.0763699999999998,-3.6432500000000001,-1.6805399999999999
1669.0,75.282799999999995,83.148499999999999,29.6128,114.40000000000001,6.1228999999999996,-1.9405300000000001,-3.04826
1670.0,73.532499999999999,65.531400000000005,16.8553,100.13800000000001,5.7939299999999996,-1.1055900000000001,-4.1315499999999998
1671.0,75.451099999999997,79.980000000000004,38.615499999999997,124.61199999999999,4.66066,1.40673,-4.9158799999999996
1672.0,77.010099999999994,72.041799999999995,33.803699999999999,120.52800000000001,5.7256400000000003,3.8830499999999999,-6.3230599999999999
1673.0,76.907899999999998,79.202799999999996,36.476700000000001,118.651,8.0870599999999992,13.367900000000001,-6.2001200000000001
1674.0,80.557100000000005,1.8716999999999999,-44.097900000000003,40.268500000000003,7.1207000000000003,16.3873,-7.7264299999999997
1675.0,80.352699999999999,1.6111599999999999,-45.612900000000003,41.324800000000003,4.4021299999999997,11.4955,-10.315899999999999
1676.0,82.642700000000005,-5.1711,-50.401899999999998,36.395499999999998,1.72956,16.339600000000001,-11.048400000000001
1677.0,87.8476,13.436999999999999,-24.515000000000001,61.849499999999999,-0.21001300000000001,24.131399999999999,-10.7798
1678.0,90.874399999999994,5.7671700000000001,-28.268999999999998,52.943199999999997,-1.8077399999999999,31.380299999999998,-10.0738
1679.0,92.335099999999997,18.748999999999999,-13.892099999999999,59.9574,-3.7432099999999999,36.626800000000003,-10.8093
1680.0,92.421599999999998,10.7563,-23.0167,42.135599999999997,-6.1054500000000003,39.978299999999997,-12.2486
1681.0,90.679599999999994,31.202400000000001,-5.6874900000000004,50.4925,-8.6475399999999993,40.655900000000003,-14.085000000000001
1682.0,87.184700000000007,15.8459,-27.144400000000001,20.392800000000001,-10.5017,38.7913,-15.1845
1683.0,77.637699999999995,29.431699999999999,-18.335000000000001,23.545100000000001,-10.491099999999999,30.745699999999999,-16.597200000000001
1684.0,72.7179,3.6849500000000002,-50.914400000000001,-15.463200000000001,-10.7508,24.5031,-16.7102
1685.0,74.049300000000002,19.2806,-26.792899999999999,10.5562,-14.194900000000001,26.000599999999999,-18.742000000000001
1686.0,71.420299999999997,71.775599999999997,29.9255,61.231400000000001,-17.2577,24.7576,-17.768999999999998
1687.0,74.659400000000005,125.545,72.273700000000005,88.350300000000004,-19.293600000000001,23.573599999999999,-13.543100000000001
1688.0,74.175700000000006,99.705100000000002,44.930199999999999,58.371699999999997,-19.523099999999999,21.377199999999998,-13.4526
1689.0,68.609700000000004,110.70399999999999,54.720100000000002,70.096999999999994,-18.280899999999999,14.1538,-14.0707
1690.0,68.622,87.544799999999995,30.2544,47.383099999999999,-18.945699999999999,10.9011,-15.0708
1691.0,76.4238,67.944599999999994,9.7171199999999995,94.006900000000002,3.1509800000000001,-8.5810200000000005,0.94716
1692.0,76.379099999999994,82.562899999999999,24.392199999999999,109.371,3.5310000000000001,-6.6905900000000003,0.196881
1693.0,75.530900000000003,66.980599999999995,8.7128499999999995,93.045500000000004,3.8686199999999999,-4.6825900000000003,-0.57394000000000001
1694.0,74.004000000000005,82.378299999999996,24.3569,106.95699999999999,4.1477599999999999,-2.8021500000000001,-1.25722
1695.0,71.956000000000003,71.157499999999999,14.9392,95.313699999999997,4.0963500000000002,-1.87161,-2.2191000000000001
1696.0,70.713200000000001,90.376000000000005,39.706200000000003,119.91500000000001,3.68546,-1.0076400000000001,-2.5732900000000001
1697.0,71.795199999999994,76.299499999999995,33.402500000000003,115.70399999999999,3.2857799999999999,-0.058130099999999997,-3.6028799999999999
1698.0,70.415499999999994,93.819199999999995,53.293599999999998,133.16200000000001,4.12547,5.0522299999999998,-3.9214199999999999
1699.0,72.630799999999994,31.497299999999999,-13.934699999999999,64.187799999999996,4.6436500000000001,13.616400000000001,-3.4826700000000002
1700.0,74.3874,-6.3711200000000003,-55.444600000000001,25.988,3.6166900000000002,10.947699999999999,-5.5190099999999997
1701.0,73.524600000000007,-21.3325,-68.664299999999997,12.6693,2.7254800000000001,8.3028300000000002,-7.54922
1702.0,76.525800000000004,3.5994199999999998,-36.362499999999997,44.651499999999999,1.1624399999999999,15.745200000000001,-7.86707
1703.0,82.014499999999998,-9.5486799999999992,-41.5974,38.422800000000002,-0.51824300000000001,23.752600000000001,-7.4657999999999998
1704.0,84.487700000000004,9.0344899999999999,-20.386800000000001,53.974499999999999,-1.78383,30.295200000000001,-7.4793099999999999
1705.0,84.634200000000007,3.5823,-26.142099999999999,41.3812,-3.16716,34.023400000000002,-8.6455500000000001
1706.0,83.838800000000006,18.290299999999998,-13.450900000000001,46.113500000000002,-5.2269899999999998,36.1937,-10.835900000000001
1707.0,81.912700000000001,7.1768000000000001,-27.932200000000002,23.908300000000001,-7.4518199999999997,36.134,-13.242599999999999
1708.0,79.459199999999996,22.704999999999998,-18.585899999999999,25.784400000000002,-9.6752500000000001,34.139200000000002,-15.2196
1709.0,71.223200000000006,8.7606400000000004,-37.215000000000003,2.6902200000000001,-9.9397900000000003,26.2438,-16.7194
1710.0,67.261200000000002,12.076700000000001,-40.573300000000003,-6.2945700000000002,-10.703099999999999,19.645600000000002,-17.129799999999999
1711.0,68.898600000000002,-0.71423999999999999,-44.8399,-8.7568900000000003,-13.136799999999999,21.1084,-20.2956
1712.0,66.584100000000007,82.812100000000001,44.607799999999997,74.063199999999995,-15.042999999999999,20.788499999999999,-20.463100000000001
1713.0,69.255499999999998,103.039,54.3994,69.156599999999997,-18.089300000000001,20.453900000000001,-15.2066
1714.0,69.457599999999999,108.295,58.1173,70.430899999999994,-19.831399999999999,18.664999999999999,-13.513400000000001
1715.0,64.557299999999998,86.380799999999994,35.198099999999997,49.7699,-19.102699999999999,11.790100000000001,-13.7804
1716.0,64.489599999999996,94.741600000000005,41.759300000000003,59.364100000000001,-19.218800000000002,8.9037000000000006,-14.4762
1717.0,73.871499999999997,88.872900000000001,28.6065,109.61799999999999,1.3691599999999999,-6.7985699999999998,0.18526300000000001
1718.0,73.987899999999996,74.927899999999994,14.456099999999999,96.075500000000005,1.6132,-5.2638400000000001,-0.35611300000000001
1719.0,73.335800000000006,90.746300000000005,29.952400000000001,110.914,1.8068,-3.5768200000000001,-0.65373700000000001
1720.0,71.8065,75.606099999999998,15.2021,94.316500000000005,1.87984,-2.1967099999999999,-0.85378200000000004
1721.0,69.343999999999994,88.029300000000006,29.582699999999999,105.91800000000001,2.38734,-1.4246099999999999,-1.13432
1722.0,68.406199999999998,66.377600000000001,14.6539,91.937200000000004,2.7393900000000002,-0.744278,-1.23292
1723.0,67.794899999999998,87.689800000000005,44.277999999999999,122.122,2.3473099999999998,-1.39761,-1.71566
1724.0,66.709199999999996,72.542100000000005,28.3169,103.989,1.60562,5.7907799999999998,-1.44116
1725.0,71.272400000000005,41.2134,-9.3451799999999992,67.799499999999995,1.2994699999999999,12.377700000000001,-1.6244000000000001
1726.0,69.840699999999998,-7.2603,-58.6843,18.916699999999999,2.1125600000000002,7.3321300000000003,-3.0148799999999998
1727.0,67.881,10.7409,-34.9739,41.011200000000002,1.9776199999999999,7.19299,-4.1207200000000004
1728.0,71.354699999999994,0.12920200000000001,-35.288600000000002,40.830399999999997,0.66213500000000003,14.9673,-4.6749200000000002
1729.0,76.506,18.658799999999999,-9.9579599999999999,64.183800000000005,-0.441882,22.9864,-4.9407500000000004
1730.0,78.401899999999998,8.8187599999999993,-18.925899999999999,50.056899999999999,-1.4137599999999999,28.411799999999999,-5.9073500000000001
1731.0,77.101799999999997,19.463999999999999,-10.2331,52.317300000000003,-2.4268200000000002,30.636500000000002,-7.6227400000000003
1732.0,75.505399999999995,9.6471699999999991,-23.130199999999999,32.881399999999999,-4.3039800000000001,31.329799999999999,-10.409800000000001
1733.0,74.079999999999998,26.496300000000002,-10.2597,39.696399999999997,-6.5710800000000003,30.644200000000001,-13.3002
1734.0,72.409099999999995,11.270200000000001,-30.9819,12.8681,-8.95608,28.204599999999999,-15.923
1735.0,67.161799999999999,21.2136,-25.9694,14.148899999999999,-9.5246300000000002,21.474699999999999,-17.437999999999999
1736.0,63.5276,-2.3795600000000001,-53.724200000000003,-17.669699999999999,-10.6488,14.275700000000001,-18.2499
1737.0,64.290000000000006,7.3214899999999998,-37.956899999999997,-3.08866,-12.4986,14.7257,-21.0306
1738.0,64.443100000000001,42.387599999999999,5.3805699999999996,35.503700000000002,-13.991099999999999,17.6205,-22.151399999999999
1739.0,63.233199999999997,107.786,64.9465,83.031599999999997,-17.176400000000001,17.163799999999998,-16.7532
1740.0,65.038499999999999,96.368899999999996,48.9129,61.6218,-20.0365,14.895099999999999,-13.534599999999999
1741.0,62.118499999999997,101.746,54.318399999999997,69.517600000000002,-20.0838,10.049099999999999,-13.978
1742.0,60.948900000000002,81.854900000000001,32.611899999999999,51.440800000000003,-19.494,6.6793300000000002,-14.007899999999999
1743.0,72.081000000000003,72.527500000000003,10.2118,88.282899999999998,-0.57945100000000005,-5.1570299999999998,-0.72558900000000004
1744.0,72.290999999999997,86.015900000000002,23.328099999999999,101.87,-0.50381200000000004,-3.9839899999999999,-0.93497399999999997
1745.0,71.809700000000007,71.443100000000001,8.5834799999999998,86.594099999999997,-0.497888,-2.62039,-0.82224399999999997
1746.0,70.347300000000004,86.508700000000005,23.986799999999999,100.042,-0.44703999999999999,-1.75997,-0.442218
1747.0,67.126999999999995,75.487700000000004,16.1129,88.915800000000004,-0.349771,-0.89646999999999999,0.314888
1748.0,64.868499999999997,84.545500000000004,33.681100000000001,106.70699999999999,-0.070236599999999996,-0.83668100000000001,0.31330000000000002
1749.0,64.203400000000002,81.522000000000006,38.814,112.529,0.37365900000000002,-1.92208,0.56804299999999996
1750.0,62.853999999999999,96.852699999999999,54.280200000000001,125.533,-0.171463,5.5294800000000004,0.97651200000000005
1751.0,66.101699999999994,24.833300000000001,-22.394500000000001,48.857199999999999,-0.52219199999999999,11.9017,0.69682100000000002
1752.0,64.8446,-4.0345399999999998,-53.071399999999997,19.034500000000001,0.81586000000000003,6.7030900000000004,-0.040429199999999998
1753.0,63.992199999999997,-15.884600000000001,-60.550699999999999,11.5282,1.62039,6.15456,-0.92117599999999999
1754.0,67.191299999999998,3.8693,-31.306799999999999,41.068199999999997,1.1440699999999999,13.757999999999999,-2.1023000000000001
1755.0,71.441599999999994,-6.4606300000000001,-35.3489,34.607599999999998,0.17666000000000001,21.2637,-3.64486
1756.0,72.173900000000003,9.0589600000000008,-20.247499999999999,44.733600000000003,-0.76708699999999996,25.488600000000002,-5.2042200000000003
1757.0,70.180499999999995,3.0112299999999999,-29.388999999999999,29.998799999999999,-1.9428300000000001,26.432300000000001,-7.4267700000000003
1758.0,67.871300000000005,14.6669,-21.267299999999999,32.601500000000001,-3.7021000000000002,25.634899999999998,-10.592000000000001
1759.0,67.829599999999999,0.22520899999999999,-39.938000000000002,9.6327999999999996,-6.2909899999999999,24.504799999999999,-14.156700000000001
1760.0,67.695700000000002,15.001200000000001,-30.5746,15.553900000000001,-9.2264400000000002,21.394500000000001,-16.8474
1761.0,66.739900000000006,-1.02966,-52.912199999999999,-8.4704499999999996,-11.122,15.688800000000001,-18.1069
1762.0,64.478099999999998,6.0097100000000001,-48.181600000000003,-4.5583900000000002,-12.040900000000001,8.0406399999999998,-18.733499999999999
1763.0,62.906799999999997,-16.478400000000001,-67.075800000000001,-28.157900000000001,-12.9908,7.9089900000000002,-19.645
1764.0,62.959099999999999,20.238499999999998,-17.806000000000001,16.929400000000001,-14.6632,14.5143,-21.247599999999998
1765.0,58.731000000000002,76.668599999999998,39.076700000000002,62.638399999999997,-17.258700000000001,13.532400000000001,-17.547899999999998
1766.0,61.631599999999999,106.459,60.5535,74.932500000000005,-20.1693,10.851100000000001,-13.7943
1767.0,60.1965,77.241100000000003,32.708300000000001,49.967599999999997,-20.692799999999998,8.5738199999999996,-14.2134
1768.0,58.3172,88.986000000000004,43.109000000000002,63.6053,-19.938700000000001,4.4448699999999999,-13.7172
1769.0,70.850300000000004,90.802999999999997,26.698599999999999,101.937,-2.7321300000000002,-3.7230799999999999,-1.70329
1770.0,71.038700000000006,78.980000000000004,14.717499999999999,90.351100000000002,-2.85033,-2.9145400000000001,-1.5219
1771.0,70.369100000000003,93.593500000000006,29.792899999999999,104.789,-3.01688,-1.99607,-0.89063899999999996
1772.0,68.438999999999993,80.399500000000003,17.7682,90.440200000000004,-2.9782700000000002,-1.27041,0.160691
1773.0,65.855099999999993,90.406599999999997,30.847999999999999,101.068,-3.1292200000000001,-0.80552400000000002,1.79562
1774.0,62.888399999999997,72.189300000000003,20.058700000000002,89.372799999999998,-3.0139800000000001,-1.10501,2.2637999999999998
1775.0,61.557600000000001,88.979500000000002,46.751300000000001,117.089,-1.4367300000000001,-0.69714699999999996,2.6670799999999999
1776.0,60.470100000000002,79.971999999999994,40.0047,108.711,-2.3513000000000002,3.4114499999999999,3.32673
1777.0,62.590899999999998,62.182099999999998,15.971399999999999,82.112899999999996,-4.9329799999999997,10.8249,3.62453
1778.0,62.909599999999998,2.0811299999999999,-46.961100000000002,21.4419,-1.9961100000000001,8.0718399999999999,2.62784
1779.0,62.445599999999999,12.3911,-33.806699999999999,36.425800000000002,1.42296,4.6049600000000002,1.5810999999999999
1780.0,63.843000000000004,7.06968,-32.287100000000002,37.408499999999997,1.2295,11.661300000000001,0.0030301
1781.0,67.225800000000007,20.641200000000001,-12.831099999999999,55.367100000000001,0.37625500000000001,18.2928,-2.96488
1782.0,66.746499999999997,12.2033,-23.1738,40.324399999999997,-0.66096900000000003,21.097000000000001,-5.2075100000000001
1783.0,65.1233,17.997,-21.6431,37.546599999999998,-2.0298099999999999,20.791699999999999,-8.2325700000000008
1784.0,63.384999999999998,7.2090800000000002,-35.483199999999997,19.946200000000001,-4.03592,18.9404,-11.014200000000001
1785.0,63.483400000000003,18.591799999999999,-25.454699999999999,25.4848,-7.3060400000000003,17.939299999999999,-14.298400000000001
1786.0,64.348799999999997,3.5291299999999999,-43.008200000000002,3.42496,-9.6164000000000005,16.662700000000001,-17.024699999999999
1787.0,63.311999999999998,8.1074699999999993,-40.823399999999999,1.0547599999999999,-11.051500000000001,13.006,-18.580100000000002
1788.0,60.313699999999997,-11.6998,-60.575200000000002,-21.3232,-11.5528,6.8465499999999997,-19.023299999999999
1789.0,58.379100000000001,-8.0254600000000007,-54.678899999999999,-17.145099999999999,-13.7148,6.4319899999999999,-17.180099999999999
1790.0,59.349299999999999,3.97566,-32.296399999999998,5.44041,-17.5029,11.4674,-16.7117
1791.0,56.707299999999996,88.504599999999996,52.601900000000001,79.991900000000001,-19.024799999999999,10.0261,-16.046700000000001
1792.0,58.8842,92.140500000000003,48.413200000000003,65.947299999999998,-20.2271,7.8735999999999997,-14.155799999999999
1793.0,58.000700000000002,91.556799999999996,49.400100000000002,69.713099999999997,-20.934799999999999,6.3948799999999997,-14.0609
1794.0,57.119500000000002,76.740600000000001,33.569400000000002,56.5443,-20.746200000000002,2.6594899999999999,-13.5457
1795.0,69.868600000000001,76.951899999999995,11.826599999999999,84.169899999999998,-5.0630499999999996,-2.5790500000000001,-2.66431
1796.0,69.799099999999996,89.355000000000004,24.657399999999999,97.263599999999997,-5.3552200000000001,-2.1352199999999999,-2.0169999999999999
1797.0,68.818899999999999,75.603700000000003,12.213800000000001,84.146699999999996,-5.5918900000000002,-1.59327,-0.77851000000000004
1798.0,66.751000000000005,90.430099999999996,28.758299999999998,98.322800000000001,-5.6934399999999998,-0.92601599999999995,1.0687199999999999
1799.0,63.914099999999998,79.797499999999999,22.131399999999999,89.431399999999996,-5.0591400000000002,-0.53968400000000005,3.3474699999999999
1800.0,59.923699999999997,100.07599999999999,48.928800000000003,113.52200000000001,-3.5880000000000001,-0.97394999999999998,4.6476499999999996
1801.0,58.847200000000001,82.639899999999997,41.597099999999998,108.01900000000001,-2.2255600000000002,1.0704199999999999,4.9824799999999998
1802.0,58.688800000000001,105.86799999999999,67.726500000000001,134.41499999999999,-2.05626,1.1263099999999999,4.8079900000000002
1803.0,60.489199999999997,78.316699999999997,29.459099999999999,92.090400000000002,-4.0791199999999996,9.9003099999999993,4.6633899999999997
1804.0,64.629000000000005,14.0307,-39.812199999999997,27.392800000000001,-2.8352200000000001,10.063000000000001,4.1609499999999997
1805.0,63.538699999999999,-18.979199999999999,-70.625200000000007,-0.28959499999999999,0.55608599999999997,2.5627399999999998,3.3997299999999999
1806.0,63.119999999999997,6.8735499999999998,-41.346299999999999,27.641300000000001,0.80690200000000001,8.5616299999999992,1.2122900000000001
1807.0,65.167599999999993,-7.7040800000000003,-50.501399999999997,18.544499999999999,-0.0566353,13.9046,-2.7585799999999998
1808.0,64.048400000000001,7.9487300000000003,-36.658700000000003,27.670200000000001,-1.2975699999999999,15.803000000000001,-5.46035
1809.0,62.355600000000003,-1.79793,-49.105400000000003,10.9452,-3.1158399999999999,14.537599999999999,-8.5993600000000008
1810.0,61.970700000000001,7.2618900000000002,-42.024000000000001,15.0456,-5.2728999999999999,12.7676,-11.469099999999999
1811.0,61.430599999999998,-2.8380200000000002,-48.775399999999998,5.0811799999999998,-8.6192299999999999,12.666,-13.3269
1812.0,59.5839,9.2884499999999992,-32.717300000000002,13.1736,-13.3087,14.0966,-12.648400000000001
1813.0,57.737900000000003,-3.2298,-42.466299999999997,-3.9579399999999998,-17.7455,13.037000000000001,-11.0694
1814.0,55.667299999999997,5.0122900000000001,-34.584899999999998,1.3629899999999999,-19.945900000000002,8.60989,-9.0587499999999999
1815.0,56.878,-2.1323099999999999,-41.763500000000001,-3.21191,-20.938500000000001,7.1626000000000003,-8.8867600000000007
1816.0,57.897500000000001,51.178199999999997,15.1831,54.697400000000002,-20.849900000000002,7.7580400000000003,-12.0097
1817.0,56.051900000000003,76.458100000000002,38.503700000000002,67.3232,-20.016200000000001,6.8878899999999996,-14.379
1818.0,56.421900000000001,92.155299999999997,52.084099999999999,73.402600000000007,-20.465399999999999,5.8369900000000001,-14.362
1819.0,56.183500000000002,71.599299999999999,31.817699999999999,55.3384,-21.2041,3.5233599999999998,-13.7889
1820.0,56.842599999999997,80.592500000000001,39.596899999999998,65.602999999999994,-21.610499999999998,1.41717,-13.3317
1821.0,68.887200000000007,92.515699999999995,27.4145,96.735799999999998,-7.5145299999999997,-1.75223,-3.4701599999999999
1822.0,68.098200000000006,82.933300000000003,19.420000000000002,88.623099999999994,-7.8738700000000001,-1.71713,-2.22342
1823.0,66.393299999999996,95.959100000000007,35.281300000000002,103.691,-7.9877200000000004,-1.3875999999999999,-0.24629300000000001
1824.0,63.802,84.938999999999993,26.912299999999998,92.584199999999996,-7.8386699999999996,-0.79226600000000003,2.2593000000000001
1825.0,61.570399999999999,92.635199999999998,37.976599999999998,101.688,-7.2953599999999996,0.076265100000000002,4.7225599999999996
1826.0,58.831800000000001,81.226299999999995,30.1845,91.068200000000004,-6.1843000000000004,-0.54993199999999998,6.8568499999999997
1827.0,58.189799999999998,90.570700000000002,45.8718,109.354,-4.6627299999999998,1.7643500000000001,6.3530499999999996
1828.0,59.577500000000001,90.654899999999998,46.798200000000001,113.407,-2.9194900000000001,-0.064756800000000003,5.3234599999999999
1829.0,61.444800000000001,101.00700000000001,46.584899999999998,108.43300000000001,-3.3594300000000001,8.8647399999999994,5.31806
1830.0,66.743700000000004,18.9574,-40.6556,26.115300000000001,-2.7065100000000002,10.348599999999999,5.1576899999999997
1831.0,66.715599999999995,11.9816,-47.624499999999998,23.589200000000002,-1.0106200000000001,0.491506,4.7499399999999996
1832.0,65.361699999999999,11.6829,-46.606200000000001,22.858000000000001,-1.1732100000000001,5.1935500000000001,2.0986799999999999
1833.0,65.416499999999999,20.061599999999999,-32.689900000000002,37.6021,-1.5319,9.0055200000000006,-2.10609
1834.0,64.589299999999994,11.089499999999999,-43.116500000000002,23.023599999999998,-3.5232299999999999,10.2339,-5.5597599999999998
1835.0,64.068100000000001,15.268700000000001,-40.794499999999999,22.758900000000001,-5.6303400000000003,7.8793300000000004,-8.2514000000000003
1836.0,62.371200000000002,-0.22692100000000001,-55.254800000000003,2.96502,-7.2396200000000004,8.0572199999999992,-10.396699999999999
1837.0,59.935400000000001,16.7561,-26.485199999999999,30.245899999999999,-9.6637799999999991,9.9168199999999995,-11.2836
1838.0,57.925699999999999,48.7258,10.821999999999999,59.590000000000003,-16.194400000000002,10.877000000000001,-9.0766200000000001
1839.0,60.4664,81.468199999999996,41.709499999999998,83.014099999999999,-21.4803,11.7547,-8.4232300000000002
1840.0,59.793500000000002,75.548699999999997,34.775500000000001,75.528300000000002,-22.366700000000002,8.16587,-8.4220100000000002
1841.0,57.854900000000001,86.503200000000007,46.391199999999998,84.783299999999997,-21.813600000000001,5.4850099999999999,-9.7722599999999993
1842.0,54.906599999999997,77.764499999999998,41.723700000000001,76.073999999999998,-19.677199999999999,5.47851,-13.193899999999999
1843.0,54.002699999999997,93.656199999999998,56.708100000000002,84.162499999999994,-19.590900000000001,4.7059800000000003,-14.0703
1844.0,55.133699999999997,76.237899999999996,39.439500000000002,64.721500000000006,-21.2514,3.4859499999999999,-13.9695
1845.0,55.743699999999997,84.900000000000006,47.533099999999997,74.674599999999998,-21.9635,0.91584600000000005,-13.402799999999999
1846.0,56.960500000000003,69.364599999999996,30.2193,59.773299999999999,-22.428100000000001,0.232373,-12.732900000000001
1847.0,67.531599999999997,81.054199999999994,17.369800000000001,83.4221,-9.9118300000000001,-1.2697400000000001,-4.0347900000000001
1848.0,66.058800000000005,92.952100000000002,31.905000000000001,97.610699999999994,-10.204700000000001,-1.4474899999999999,-2.0188799999999998
1849.0,64.523499999999999,80.049999999999997,21.938500000000001,87.226200000000006,-10.223699999999999,-1.1530100000000001,0.29173399999999999
1850.0,62.852200000000003,95.838700000000003,39.516500000000001,102.806,-10.0047,-0.29694399999999999,3.4963799999999998
1851.0,60.927500000000002,85.245599999999996,30.719200000000001,91.869500000000002,-8.5092599999999994,0.95163500000000001,6.1656700000000004
1852.0,59.758000000000003,105.18300000000001,49.914299999999997,108.495,-6.5125900000000003,0.521397,8.0477699999999999
1853.0,59.521500000000003,87.231999999999999,33.8384,95.384,-3.80918,2.7088299999999998,6.4463699999999999
1854.0,60.7532,93.801500000000004,42.882800000000003,108.866,0.087405399999999994,0.272229,5.8872600000000004
1855.0,60.0914,66.562700000000007,11.431800000000001,71.258099999999999,-1.7609699999999999,7.3579299999999996,6.2962699999999998
1856.0,64.599299999999999,8.5803899999999995,-50.480400000000003,12.6592,-5.1961599999999999,9.1283799999999999,5.6681100000000004
1857.0,68.434799999999996,-20.540199999999999,-84.332999999999998,-14.2775,-4.7205899999999996,-0.41418100000000002,5.9915399999999996
1858.0,69.188599999999994,3.7837000000000001,-62.564599999999999,7.5145799999999996,-5.2557099999999997,1.75265,3.2359300000000002
1859.0,68.625900000000001,-10.3581,-72.2714,-0.33943699999999999,-5.5721699999999998,4.5512699999999997,-0.31983499999999998
1860.0,65.2239,0.303288,-58.4236,8.2715399999999999,-6.44062,5.9150099999999997,-3.84958
1861.0,60.423000000000002,-9.8521400000000003,-64.244100000000003,-4.11022,-6.7039299999999997,5.5326599999999999,-6.3381100000000004
1862.0,56.522300000000001,-5.2529599999999999,-53.592199999999998,0.13871600000000001,-9.0187399999999993,7.5029199999999996,-7.1995300000000002
1863.0,56.5319,7.0944599999999998,-28.850899999999999,25.936299999999999,-11.7851,8.9624299999999995,-8.4429300000000005
1864.0,53.6736,89.129499999999993,54.396500000000003,100.023,-13.4885,9.6106200000000008,-10.8712
1865.0,54.805100000000003,97.149900000000002,59.498100000000001,93.6023,-14.665100000000001,12.5809,-13.986800000000001
1866.0,52.780799999999999,100.23399999999999,65.974900000000005,96.329700000000003,-14.950699999999999,10.140599999999999,-15.828099999999999
1867.0,50.651000000000003,87.682900000000004,54.025799999999997,80.986599999999996,-16.355899999999998,6.0540000000000003,-15.2835
1868.0,50.862699999999997,88.391599999999997,55.711500000000001,83.228200000000001,-18.1433,4.7938599999999996,-14.1966
1869.0,52.698900000000002,73.744799999999998,40.061700000000002,67.752700000000004,-20.1921,2.5283500000000001,-13.738099999999999
1870.0,55.055300000000003,79.622600000000006,45.171700000000001,74.153300000000002,-21.9679,0.65965600000000002,-13.585100000000001
1871.0,56.326900000000002,64.135499999999993,29.159300000000002,59.935000000000002,-22.939800000000002,-0.96114599999999994,-12.8736
1872.0,57.082500000000003,73.787700000000001,36.792400000000001,69.3125,-23.177199999999999,-0.87872099999999997,-11.8523
1873.0,66.038399999999996,94.905000000000001,33.412700000000001,96.049599999999998,-12.2607,-1.01875,-4.24186
1874.0,63.955599999999997,86.430199999999999,28.832000000000001,91.271500000000003,-12.377700000000001,-1.24204,-1.44045
1875.0,61.833199999999998,100.145,45.383899999999997,106.63,-11.843299999999999,-0.90552900000000003,1.16971
1876.0,61.426000000000002,87.704300000000003,33.4617,94.274600000000007,-11.223000000000001,0.75055700000000003,4.1543999999999999
1877.0,63.1738,100.15300000000001,42.285600000000002,101.044,-12.502000000000001,0.57655100000000004,6.32606
1878.0,66.5959,88.431799999999996,23.494800000000001,80.771199999999993,-12.566800000000001,2.9036400000000002,7.2549000000000001
1879.0,65.108000000000004,70.700800000000001,8.7923899999999993,70.693799999999996,-8.1163100000000004,3.0810599999999999,7.7618299999999998
1880.0,60.106200000000001,46.4497,-4.1062000000000003,57.123100000000001,-6.2228300000000001,-1.48895,9.6698199999999996
1881.0,57.392699999999998,69.640900000000002,20.8505,76.036600000000007,-9.1401299999999992,5.7635199999999998,8.3704999999999998
1882.0,62.051499999999997,26.024100000000001,-28.407900000000001,30.5228,-9.9797899999999995,7.7251399999999997,6.9430100000000001
1883.0,65.375799999999998,15.3531,-45.896799999999999,18.547699999999999,-7.4987000000000004,1.56236,6.8450600000000001
1884.0,66.064999999999998,8.3903700000000008,-55.976399999999998,9.78369,-5.4252599999999997,0.88808200000000004,3.6154099999999998
1885.0,65.084000000000003,14.0124,-47.359999999999999,19.352699999999999,-4.9710999999999999,3.60006,0.16708100000000001
1886.0,60.924399999999999,7.4375600000000004,-45.167400000000001,18.585999999999999,-7.5810500000000003,4.2056100000000001,-1.66005
1887.0,56.5456,23.917200000000001,-21.243400000000001,34.628,-12.790800000000001,4.7714499999999997,-0.35517700000000002
1888.0,56.232900000000001,25.662500000000001,-14.6454,37.135800000000003,-16.098299999999998,7.2451600000000003,-1.6702600000000001
1889.0,54.145699999999998,73.555199999999999,39.276000000000003,90.621600000000001,-14.087300000000001,7.5906599999999997,-6.1155400000000002
1890.0,49.448,98.398300000000006,64.928299999999993,104.652,-12.159800000000001,9.7379499999999997,-10.7761
1891.0,49.062899999999999,108.52800000000001,77.100800000000007,106.723,-13.390499999999999,12.0327,-12.918799999999999
1892.0,47.867400000000004,90.337100000000007,61.854599999999998,87.864699999999999,-16.058900000000001,9.3055599999999998,-13.049799999999999
1893.0,48.020699999999998,94.237899999999996,65.537300000000002,91.103300000000004,-17.9072,5.1940200000000001,-13.158799999999999
1894.0,50.3459,78.324100000000001,47.700699999999998,76.170900000000003,-19.349499999999999,2.2070799999999999,-13.1706
1895.0,53.692599999999999,83.244799999999998,51.542400000000001,82.326400000000007,-21.454699999999999,-0.28451799999999999,-13.228400000000001
1896.0,55.855400000000003,67.875699999999995,35.889699999999998,68.458200000000005,-22.986000000000001,-1.8836200000000001,-12.675800000000001
1897.0,57.165100000000002,76.233900000000006,43.539700000000003,77.721800000000002,-23.901800000000001,-2.3516699999999999,-11.798400000000001
1898.0,57.459699999999998,65.318299999999994,30.5914,65.728999999999999,-24.030799999999999,-1.70042,-10.6477
1899.0,64.708699999999993,86.954899999999995,27.938500000000001,87.735600000000005,-14.2057,-0.53274600000000005,-4.1372400000000003
1900.0,63.652799999999999,95.955500000000001,39.028700000000001,99.790199999999999,-13.8307,-0.20963899999999999,-1.15716
1901.0,64.424300000000002,90.807299999999998,32.292900000000003,92.609399999999994,-14.306900000000001,0.119528,1.1193900000000001
1902.0,68.810100000000006,100.8,37.539299999999997,100.72799999999999,-15.1614,2.3182100000000001,3.2499699999999998
1903.0,74.076899999999995,101.502,26.1844,87.971299999999999,-13.427,2.0491899999999998,5.6935599999999997
1904.0,77.619699999999995,96.172600000000003,13.7378,74.191900000000004,-9.6659000000000006,6.7600699999999998,6.8499100000000004
1905.0,72.270600000000002,37.368699999999997,-34.346200000000003,30.399799999999999,-8.9097899999999992,-0.17798600000000001,9.8822100000000006
1906.0,68.206999999999994,93.337699999999998,34.231999999999999,94.997100000000003,-12.9773,-5.8229899999999999,12.26
1907.0,63.594099999999997,89.562799999999996,36.895699999999998,93.498900000000006,-15.3924,4.9192200000000001,9.3847500000000004
1908.0,62.161299999999997,48.922199999999997,0.507386,57.023800000000001,-15.104799999999999,6.1304100000000004,9.3975899999999992
1909.0,61.543300000000002,4.1141500000000004,-44.618299999999998,10.4725,-15.385899999999999,4.0187499999999998,10.0634
1910.0,60.007899999999999,-3.7122899999999999,-50.794199999999996,5.3259499999999997,-14.5764,2.4864600000000001,8.5837900000000005
1911.0,58.835799999999999,-14.8393,-59.499600000000001,-3.8598699999999999,-14.9194,4.6424300000000001,6.4237700000000002
1912.0,59.411700000000003,13.626300000000001,-27.312899999999999,31.705200000000001,-15.2515,4.0873400000000002,3.59646
1913.0,59.184399999999997,64.097899999999996,19.972999999999999,77.170000000000002,-16.061,3.0772300000000001,1.39317
1914.0,57.413400000000003,90.609399999999994,45.3765,98.201800000000006,-15.692399999999999,5.4466599999999996,-2.67503
1915.0,52.205800000000004,79.742500000000007,39.941899999999997,88.391599999999997,-12.5288,6.07897,-6.8445400000000003
1916.0,49.232199999999999,93.238,55.587200000000003,96.195099999999996,-12.1782,6.9431000000000003,-9.9432200000000002
1917.0,49.748399999999997,80.627600000000001,45.020499999999998,81.450000000000003,-14.2074,6.2385299999999999,-12.312099999999999
1918.0,51.046900000000001,88.070499999999996,53.499099999999999,87.942400000000006,-16.680900000000001,2.9833500000000002,-13.5837
1919.0,52.522399999999998,72.807400000000001,39.950099999999999,73.765699999999995,-18.984300000000001,0.16635,-13.7271
1920.0,53.789000000000001,78.849599999999995,47.478000000000002,81.524299999999997,-20.765699999999999,-2.0003700000000002,-13.0688
1921.0,55.806600000000003,63.7729,33.177599999999998,68.441400000000002,-22.5182,-3.3459400000000001,-12.367699999999999
1922.0,57.2971,70.678600000000003,40.823300000000003,77.071899999999999,-23.898399999999999,-4.0040699999999996,-11.523300000000001
1923.0,57.628300000000003,58.086399999999998,27.9846,64.632999999999996,-24.604500000000002,-3.38009,-10.401199999999999
1924.0,57.1066,69.447100000000006,37.518300000000004,73.816699999999997,-24.6584,-1.98065,-9.0781100000000006
1925.0,1638.76,1000.4,238.59299999999999,-468.95999999999998,-270.95600000000002,530.31700000000001,22.956499999999998
1926.0,1639.48,1069.5599999999999,242.24600000000001,-511.82400000000001,-273.54599999999999,439.59899999999999,47.429499999999997
1927.0,1640.99,1119.3699999999999,236.86500000000001,-552.55899999999997,-273.54199999999997,343.52999999999997,72.2941
1928.0,1643.47,1164.28,237.77699999999999,-576.20399999999995,-270.78399999999999,243.17099999999999,97.470500000000001
1929.0,1646.4200000000001,1192.01,232.797,-593.59000000000003,-265.23700000000002,139.53100000000001,123.212
1930.0,1649.8599999999999,1219.1199999999999,239.13800000000001,-587.70799999999997,-256.66300000000001,33.980400000000003,149.0
1931.0,1654.01,1214.8900000000001,226.93199999999999,-589.54499999999996,-244.863,-72.369600000000005,173.98699999999999
1932.0,1658.7,1208.97,225.499,-568.95500000000004,-229.91399999999999,-178.108,198.20500000000001
1933.0,1663.99,1177.1199999999999,210.876,-550.44799999999998,-211.905,-281.99700000000001,221.12799999999999
1934.0,1669.6700000000001,1137.0899999999999,200.14699999999999,-516.423,-190.88399999999999,-382.60399999999998,242.63300000000001
1935.0,1675.29,1090.05,192.83699999999999,-465.65499999999997,-167.05500000000001,-478.12400000000002,263.09300000000002
1936.0,1681.21,1037.3199999999999,190.679,-398.74099999999999,-140.584,-567.54600000000005,281.42700000000002
1937.0,1687.7,959.995,175.279,-336.37299999999999,-111.70699999999999,-650.10000000000002,296.608
1938.0,1694.1500000000001,880.548,166.917,-256.92700000000002,-80.780600000000007,-724.08600000000001,308.91699999999997
1939.0,1700.55,793.67499999999995,158.976,-167.93600000000001,-48.2806,-788.24900000000002,318.15199999999999
1940.0,1707.3199999999999,693.08000000000004,145.82499999999999,-78.236999999999995,-14.688599999999999,-842.25900000000001,323.41300000000001
1941.0,1713.9300000000001,585.19799999999998,131.29599999999999,16.613499999999998,19.619299999999999,-884.78499999999997,324.88299999999998
1942.0,1719.95,486.15300000000002,128.63800000000001,129.803,54.179699999999997,-914.61500000000001,322.726
1943.0,1725.78,379.36900000000003,121.729,241.685,88.146900000000002,-931.85500000000002,316.27499999999998
1944.0,1731.51,267.846,112.68899999999999,352.47800000000001,120.81999999999999,-936.35799999999995,305.32900000000001
1945.0,1736.8399999999999,159.203,106.786,466.74000000000001,151.65199999999999,-927.64599999999996,290.173
1946.0,1741.9000000000001,47.727499999999999,97.595500000000001,575.79999999999995,179.803,-905.95699999999999,270.75400000000002
1947.0,1746.3299999999999,-60.230600000000003,88.937299999999993,682.86199999999997,204.82900000000001,-871.11099999999999,247.453
1948.0,1750.0599999999999,-153.59700000000001,89.425299999999993,795.45500000000004,226.18000000000001,-823.42399999999998,220.62700000000001
1949.0,1753.45,-244.55600000000001,86.594099999999997,899.25800000000004,243.24100000000001,-763.56100000000004,190.43799999999999
1950.0,1756.3,-320.53399999999999,91.246300000000005,1004.29,255.15000000000001,-691.851,157.203
1951.0,1561.8099999999999,453.22300000000001,116.485,-786.36500000000001,-232.87100000000001,520.75199999999995,277.166
1952.0,1566.22,503.279,94.242999999999995,-846.94799999999998,-222.77699999999999,445.03500000000003,301.024
1953.0,1571.1600000000001,573.44299999999998,100.407,-869.95299999999997,-210.02199999999999,362.69,325.17700000000002
1954.0,1576.1400000000001,604.548,77.337999999999994,-911.96199999999999,-194.547,274.92599999999999,349.142
1955.0,1581.55,651.45699999999999,80.674700000000001,-917.16499999999996,-176.178,183.13900000000001,372.62599999999998
1956.0,1587.3399999999999,651.58100000000002,48.336399999999998,-947.08100000000002,-154.886,88.522099999999995,395.363
1957.0,1593.3599999999999,680.57100000000003,56.325200000000002,-924.97299999999996,-130.667,-7.4566600000000003,417.21800000000002
1958.0,1599.7,661.80499999999995,28.277999999999999,-927.38099999999997,-103.505,-103.373,437.70999999999998
1959.0,1606.27,667.45000000000005,36.448,-881.97799999999995,-73.445999999999998,-197.69800000000001,456.60599999999999
1960.0,1613.1700000000001,631.00999999999999,14.166,-856.0,-40.613500000000002,-288.99400000000003,473.42399999999998
1961.0,1620.55,602.98299999999995,12.058400000000001,-799.93499999999995,-5.1137899999999998,-375.93799999999999,487.77100000000002
1962.0,1628.21,531.17100000000005,-23.052700000000002,-767.01900000000001,32.794199999999996,-457.14699999999999,499.30700000000002
1963.0,1635.8699999999999,489.54899999999998,-18.210799999999999,-684.56399999999996,72.749700000000004,-531.12199999999996,507.85199999999998
1964.0,1643.77,403.21899999999999,-48.8703,-629.822,114.416,-596.90899999999999,512.92100000000005
1965.0,1651.76,335.39800000000002,-52.747700000000002,-541.58799999999997,157.428,-653.47699999999998,514.29100000000005
1966.0,1659.52,238.476,-79.226900000000001,-469.90800000000002,201.25,-699.81799999999998,511.72199999999998
1967.0,1667.1400000000001,166.41399999999999,-75.233000000000004,-363.66199999999998,245.38300000000001,-735.33299999999997,505.07499999999999
1968.0,1674.73,48.202599999999997,-112.648,-296.64400000000001,289.30700000000002,-759.803,494.09899999999999
1969.0,1681.8800000000001,-37.048400000000001,-114.348,-192.45099999999999,332.47899999999998,-772.65899999999999,478.88099999999997
1970.0,1688.45,-149.67599999999999,-142.238,-114.42700000000001,374.28800000000001,-773.82000000000005,459.40199999999999
1971.0,1694.3800000000001,-232.423,-140.249,-8.1516599999999997,414.19799999999998,-763.40999999999997,435.79000000000002
1972.0,1699.55,-338.435,-163.03800000000001,70.484899999999996,451.65300000000002,-741.71199999999999,408.17700000000002
1973.0,1703.9000000000001,-408.25099999999998,-152.17400000000001,178.26599999999999,486.17099999999999,-709.17899999999997,376.83600000000001
1974.0,1707.51,-512.22199999999998,-178.78,242.83099999999999,517.21299999999997,-666.49300000000005,342.0
1975.0,1709.75,-572.32100000000003,-166.452,339.19600000000003,544.42899999999997,-614.03599999999994,304.00900000000001
1976.0,1711.3399999999999,-662.41600000000005,-190.179,391.60700000000003,567.351,-553.21500000000003,263.73000000000002
1977.0,1404.5699999999999,208.405,59.025199999999998,-767.94000000000005,-202.136,452.47699999999998,368.02699999999999
1978.0,1414.1500000000001,281.65199999999999,67.616,-792.48699999999997,-186.50399999999999,393.72199999999998,391.89100000000002
1979.0,1423.8199999999999,311.464,39.5747,-846.29899999999998,-168.74799999999999,329.13400000000001,415.25400000000002
1980.0,1433.5799999999999,370.27800000000002,47.237900000000003,-855.93600000000004,-148.43700000000001,259.21100000000001,438.04700000000003
1981.0,1443.04,384.70299999999997,18.638100000000001,-892.57100000000003,-125.384,184.94800000000001,459.97300000000001
1982.0,1452.3099999999999,433.46600000000001,33.122799999999998,-876.23500000000001,-99.649699999999996,107.51000000000001,480.78500000000003
1983.0,1461.4400000000001,421.75,-3.33839,-900.94799999999998,-71.130700000000004,28.1538,500.096
1984.0,1470.4100000000001,444.29300000000001,4.3309199999999999,-871.18200000000002,-39.9373,-51.773200000000003,517.68700000000001
1985.0,1479.24,409.12799999999999,-35.570700000000002,-878.90599999999995,-6.1334499999999998,-130.887,533.11400000000003
1986.0,1487.8399999999999,403.399,-35.997,-837.01599999999996,30.096399999999999,-207.745,546.14200000000005
1987.0,1496.04,356.23599999999999,-68.166799999999995,-817.10599999999999,68.482399999999998,-280.94400000000002,556.29600000000005
1988.0,1503.9300000000001,342.71199999999999,-57.389400000000002,-745.274,108.74299999999999,-349.09199999999998,563.39599999999996
1989.0,1511.6500000000001,268.72000000000003,-98.259200000000007,-717.399,150.58600000000001,-411.12,567.08799999999997
1990.0,1518.9200000000001,232.964,-93.134600000000006,-636.38800000000003,193.61099999999999,-465.80000000000001,567.19399999999996
1991.0,1525.7,152.84999999999999,-125.55200000000001,-587.21500000000003,237.30799999999999,-512.28399999999999,563.42100000000005
1992.0,1532.1099999999999,100.334,-124.55200000000001,-500.363,281.31299999999999,-549.83699999999999,555.779
1993.0,1537.96,2.84727,-163.93799999999999,-450.916,325.07100000000003,-578.00699999999995,544.053
1994.0,1543.02,-44.513100000000001,-150.136,-346.45299999999997,368.07499999999999,-596.279,528.33199999999999
1995.0,1547.48,-138.98099999999999,-181.31299999999999,-286.99299999999999,409.82299999999998,-604.78099999999995,508.63400000000001
1996.0,1551.3199999999999,-195.96899999999999,-174.10300000000001,-190.47800000000001,449.94400000000002,-603.51199999999994,485.178
1997.0,1554.47,-290.988,-205.149,-134.85400000000001,487.90699999999998,-592.85699999999997,458.05799999999999
1998.0,1556.9400000000001,-347.32499999999999,-198.81800000000001,-45.716900000000003,523.40499999999997,-573.12800000000004,427.61099999999999
1999.0,1558.7,-442.32400000000001,-233.422,-2.3426800000000001,555.97699999999998,-545.00999999999999,394.03399999999999
2000.0,1559.6099999999999,-483.85500000000002,-217.875,85.2684,585.43600000000004,-508.92000000000002,357.73099999999999
2001.0,1560.1500000000001,-566.98599999999999,-247.73699999999999,120.90600000000001,611.40800000000002,-466.05599999999998,319.10700000000003
2002.0,1560.3399999999999,-597.53999999999996,-229.16300000000001,197.74199999999999,634.23599999999999,-416.68400000000003,277.96899999999999
2003.0,1130.04,168.01900000000001,42.308,-557.50900000000001,-177.38,357.41899999999998,340.76999999999998
2004.0,1145.49,237.16200000000001,61.200000000000003,-568.04999999999995,-162.55699999999999,315.80599999999998,363.334
2005.0,1159.98,238.90199999999999,17.519500000000001,-635.66499999999996,-145.678,268.42500000000001,385.339
2006.0,1173.8199999999999,301.96499999999997,39.175400000000003,-630.529,-126.41800000000001,216.398,406.55599999999998
2007.0,1187.0599999999999,289.60399999999998,-8.9568600000000007,-687.98699999999997,-104.63800000000001,160.32599999999999,426.68799999999999
2008.0,1199.5799999999999,334.09800000000001,6.0439499999999997,-673.97799999999995,-80.426299999999998,101.07299999999999,445.64699999999999
2009.0,1211.28,311.97300000000001,-38.7303,-711.29499999999996,-53.747,39.6751,462.82299999999998
2010.0,1222.1400000000001,348.60899999999998,-17.2165,-673.26499999999999,-24.744499999999999,-22.660399999999999,478.19999999999999
2011.0,1232.0999999999999,311.05799999999999,-62.250900000000001,-693.06799999999998,6.44245,-84.805999999999997,491.12
2012.0,1241.1400000000001,340.137,-32.7239,-629.38499999999999,39.607399999999998,-145.34800000000001,501.61000000000001
2013.0,1249.3699999999999,276.39299999999997,-88.276600000000002,-642.88099999999997,74.480599999999995,-203.255,509.08999999999997
2014.0,1256.5999999999999,279.73500000000001,-69.286600000000007,-573.90999999999997,110.788,-257.12,513.58699999999999
2015.0,1262.71,208.452,-118.096,-565.99800000000005,148.023,-306.06999999999999,514.50699999999995
2016.0,1267.78,205.899,-91.965999999999994,-477.12799999999999,185.89099999999999,-348.88499999999999,512.06899999999996
2017.0,1271.8299999999999,113.991,-149.751,-467.72699999999998,223.87700000000001,-385.12299999999999,505.86200000000002
2018.0,1274.6500000000001,108.27200000000001,-117.056,-364.04199999999997,261.59199999999998,-413.78800000000001,496.09800000000001
2019.0,1276.3800000000001,16.3721,-167.03299999999999,-341.12299999999999,298.47000000000003,-434.88099999999997,482.58300000000003
2020.0,1277.1400000000001,-4.5499799999999997,-143.68799999999999,-243.96199999999999,334.279,-447.88499999999999,465.71800000000002
2021.0,1276.79,-105.97499999999999,-199.37299999999999,-226.39099999999999,368.40199999999999,-453.154,445.351
2022.0,1275.3499999999999,-117.629,-165.15100000000001,-120.355,400.61799999999999,-450.46199999999999,421.95999999999998
2023.0,1272.9400000000001,-215.32900000000001,-217.38800000000001,-103.64,430.43599999999998,-440.59800000000001,395.58199999999999
2024.0,1269.5699999999999,-218.88,-177.089,1.98397,457.78699999999998,-423.59399999999999,366.75099999999998
2025.0,1265.4100000000001,-305.28800000000001,-221.61699999999999,18.1905,482.21699999999998,-400.51299999999998,335.59300000000002
2026.0,1260.6199999999999,-307.27499999999998,-184.517,110.518,503.96499999999997,-371.53800000000001,302.63999999999999
2027.0,1255.1800000000001,-388.21499999999997,-229.45599999999999,115.63,522.32799999999997,-337.77300000000002,268.11500000000001
2028.0,1248.75,-378.72899999999998,-187.87799999999999,199.655,538.05100000000004,-299.39999999999998,231.94200000000001
2029.0,869.23199999999997,182.167,33.825499999999998,-364.983,-153.029,273.98700000000002,270.73399999999998
2030.0,884.94299999999998,235.488,49.405000000000001,-373.05900000000003,-141.41800000000001,243.81,290.44900000000001
2031.0,899.94000000000005,238.137,17.972200000000001,-424.327,-128.00299999999999,208.971,309.97300000000001
2032.0,914.40700000000004,285.03100000000001,32.968899999999998,-423.69900000000001,-112.435,170.28100000000001,328.654
2033.0,927.99800000000005,280.589,0.69858900000000002,-464.38200000000001,-94.597999999999999,128.14400000000001,346.53500000000003
2034.0,940.77499999999998,326.06,22.549299999999999,-444.505,-74.672399999999996,83.216700000000003,363.10700000000003
2035.0,952.61099999999999,304.96699999999998,-17.007899999999999,-479.12099999999998,-52.5443,36.360300000000002,378.24700000000001
2036.0,963.43700000000001,333.875,-1.12094,-451.18700000000001,-28.4648,-11.599500000000001,391.50400000000002
2037.0,973.13800000000003,298.315,-43.797800000000002,-474.50599999999997,-2.4871500000000002,-59.566200000000002,402.67200000000003
2038.0,981.64400000000001,308.43200000000002,-34.853099999999998,-439.077,25.050699999999999,-106.614,411.35399999999998
2039.0,988.73400000000004,268.83999999999997,-69.665499999999994,-440.36099999999999,53.930599999999998,-151.571,417.31900000000002
2040.0,994.46900000000005,279.29399999999998,-48.7072,-379.572,83.725200000000001,-193.547,420.30900000000003
2041.0,998.86900000000003,220.77199999999999,-91.279799999999994,-376.70800000000003,114.194,-231.52500000000001,420.27499999999998
2042.0,1001.8200000000001,216.38300000000001,-74.906599999999997,-310.108,144.82900000000001,-264.82299999999998,416.99400000000003
2043.0,1003.29,157.874,-108.456,-289.60500000000002,175.27799999999999,-292.63299999999998,410.49700000000001
2044.0,1003.4299999999999,142.703,-95.200999999999993,-219.709,205.095,-314.654,400.80700000000002
2045.0,1002.17,71.947500000000005,-134.88800000000001,-201.15299999999999,233.94800000000001,-330.42099999999999,388.04399999999998
2046.0,999.51599999999996,65.777600000000007,-108.261,-115.773,261.351,-339.928,372.29599999999999
2047.0,995.65300000000002,0.47278199999999998,-139.798,-89.246099999999998,287.096,-343.11700000000002,353.89499999999998
2048.0,990.72799999999995,-12.9254,-119.194,-12.270099999999999,310.863,-340.34300000000002,333.05200000000002
2049.0,984.79999999999995,-77.833299999999994,-150.655,10.071899999999999,332.47399999999999,-331.80599999999998,310.10500000000002
2050.0,978.053,-90.688400000000001,-131.15700000000001,79.963899999999995,351.74700000000001,-318.05900000000003,285.34199999999998
2051.0,970.59699999999998,-156.369,-166.26499999999999,91.381799999999998,368.55900000000003,-299.56099999999998,259.10899999999998
2052.0,962.48400000000004,-157.18199999999999,-138.59999999999999,160.828,382.93799999999999,-276.827,231.649
2053.0,953.99400000000003,-214.584,-170.089,166.768,394.57900000000001,-250.53200000000001,203.542
2054.0,945.12699999999995,-208.238,-140.50800000000001,227.256,404.33999999999997,-221.333,174.244
2055.0,659.57600000000002,312.512,133.49000000000001,-114.574,-131.291,209.61799999999999,194.52099999999999
2056.0,672.87199999999996,202.881,-4.3914299999999997,-271.072,-123.27200000000001,186.75,210.702
2057.0,685.44299999999998,350.07400000000001,117.28400000000001,-165.08699999999999,-113.741,160.017,226.971
2058.0,697.66200000000003,236.84999999999999,-20.087700000000002,-313.96300000000002,-102.34999999999999,130.34299999999999,242.52099999999999
2059.0,709.23000000000002,377.97699999999998,99.975499999999997,-200.81200000000001,-89.054000000000002,97.879000000000005,257.61500000000001
2060.0,720.15999999999997,250.22800000000001,-45.862200000000001,-348.642,-73.961799999999997,63.137,271.57900000000001
2061.0,730.18200000000002,390.34899999999999,80.071299999999994,-219.036,-57.027999999999999,26.787299999999998,284.43599999999998
2062.0,739.27700000000004,258.63,-61.836300000000001,-351.71600000000001,-38.478000000000002,-10.556800000000001,295.59500000000003
2063.0,747.23400000000004,393.0,66.899500000000003,-207.69499999999999,-18.366800000000001,-47.970500000000001,305.04300000000001
2064.0,754.02200000000005,257.69499999999999,-69.510999999999996,-323.24099999999999,2.9717699999999998,-84.783600000000007,312.24700000000001
2065.0,759.57000000000005,375.89999999999998,52.345999999999997,-174.881,25.4086,-119.964,317.279
2066.0,763.79899999999998,219.27500000000001,-96.158799999999999,-291.95400000000001,48.5137,-152.934,319.67000000000002
2067.0,766.53499999999997,338.05000000000001,34.997,-124.58,72.042299999999997,-182.66,319.50200000000001
2068.0,767.89599999999996,178.51499999999999,-108.304,-228.06299999999999,95.528199999999998,-208.78800000000001,316.51900000000001
2069.0,767.85199999999998,284.03800000000001,16.8155,-60.0,118.76900000000001,-230.48400000000001,310.95299999999997
2070.0,766.39800000000002,123.084,-121.783,-153.666,141.23500000000001,-247.66200000000001,302.61700000000002
2071.0,763.62599999999998,233.40100000000001,12.9655,27.2685,162.773,-259.74700000000001,291.88600000000002
2072.0,759.73099999999999,58.0473,-136.37700000000001,-75.863900000000001,182.97300000000001,-267.029,278.77199999999999
2073.0,754.69200000000001,162.52699999999999,-5.1829299999999998,100.995,201.71600000000001,-269.17899999999997,263.64400000000001
2074.0,748.67399999999998,-5.1522199999999998,-145.87799999999999,4.4009600000000004,218.637,-266.72199999999998,246.607
2075.0,741.81500000000005,104.10899999999999,-10.1828,182.07900000000001,233.76599999999999,-259.61799999999999,228.101
2076.0,734.27200000000005,-58.216900000000003,-146.83500000000001,84.500500000000002,246.86500000000001,-248.53700000000001,208.28399999999999
2077.0,726.20899999999995,61.238399999999999,-3.2463099999999998,263.96600000000001,258.017,-233.65199999999999,187.57400000000001
2078.0,717.77999999999997,-102.95999999999999,-144.76599999999999,154.298,267.22000000000003,-215.64099999999999,166.13499999999999
2079.0,709.16899999999998,20.0383,-1.26071,326.19900000000001,274.36099999999999,-194.78399999999999,144.417
2080.0,700.07399999999996,-137.494,-140.477,209.96299999999999,279.89999999999998,-171.77799999999999,122.17
2081.0,522.36900000000003,192.375,-2.3946700000000001,-159.76599999999999,-113.691,166.56999999999999,138.44800000000001
2082.0,531.62900000000002,322.83600000000001,105.94799999999999,-65.548199999999994,-108.261,147.625,151.04300000000001
2083.0,540.59100000000001,229.02000000000001,-8.1566200000000002,-191.572,-101.633,125.764,163.71299999999999
2084.0,549.37400000000002,354.66899999999998,98.612399999999994,-93.390199999999993,-93.456000000000003,101.545,176.14599999999999
2085.0,557.75599999999997,256.86200000000002,-15.7883,-212.846,-83.769300000000001,75.141199999999998,188.15199999999999
2086.0,565.68899999999996,383.92000000000002,97.209500000000006,-100.831,-72.577200000000005,46.978200000000001,199.48099999999999
2087.0,573.08100000000002,273.94499999999999,-23.813300000000002,-218.59100000000001,-59.921399999999998,17.5108,209.869
2088.0,579.77999999999997,389.24099999999999,83.772599999999997,-103.155,-45.8842,-12.683,219.084
2089.0,585.69799999999998,269.315,-40.2759,-214.77799999999999,-30.617799999999999,-43.003,226.833
2090.0,590.68399999999997,371.09800000000001,61.134300000000003,-96.283199999999994,-14.2821,-72.756,232.92599999999999
2091.0,594.60900000000004,250.821,-55.780099999999997,-191.66300000000001,2.85737,-101.29900000000001,237.08000000000001
2092.0,597.41999999999996,357.03300000000002,57.499000000000002,-52.714700000000001,20.574300000000001,-127.922,239.21299999999999
2093.0,599.15300000000002,221.935,-67.016999999999996,-148.03800000000001,38.588000000000001,-152.09,239.203
2094.0,599.702,317.43200000000002,42.25,-6.4713500000000002,56.615900000000003,-173.19300000000001,237.018
2095.0,599.10299999999995,184.41999999999999,-74.212999999999994,-88.294600000000003,74.326599999999999,-190.858,232.62299999999999
2096.0,597.43899999999996,272.15199999999999,32.420900000000003,54.587800000000001,91.4983,-204.70400000000001,226.16900000000001
2097.0,594.75199999999995,128.41499999999999,-90.604600000000005,-31.337299999999999,107.83199999999999,-214.60300000000001,217.702
2098.0,591.06799999999998,226.19300000000001,29.107299999999999,125.666,123.10599999999999,-220.36600000000001,207.42599999999999
2099.0,586.59100000000001,86.877399999999994,-87.535899999999998,45.665399999999998,137.14099999999999,-222.14500000000001,195.52500000000001
2100.0,581.41800000000001,178.24799999999999,26.724499999999999,195.29400000000001,149.84,-219.98500000000001,182.28
2101.0,575.70299999999997,37.548699999999997,-91.347800000000007,110.73399999999999,161.065,-214.21600000000001,167.86799999999999
2102.0,569.54300000000001,128.892,21.919599999999999,255.131,170.82400000000001,-205.01499999999999,152.59899999999999
2103.0,563.12199999999996,-15.1332,-101.249,160.41399999999999,179.03299999999999,-192.86500000000001,136.63399999999999
2104.0,556.41300000000001,86.270700000000005,19.587299999999999,306.47800000000001,185.822,-177.95699999999999,120.248
2105.0,549.71900000000005,-53.165599999999998,-102.017,207.10499999999999,191.03299999999999,-160.851,103.681
2106.0,542.88099999999997,53.030799999999999,20.030799999999999,347.12400000000002,195.21600000000001,-141.96600000000001,86.879000000000005
2107.0,435.48000000000002,312.11700000000002,114.935,10.1441,-100.40600000000001,138.43799999999999,102.271
2108.0,441.69999999999999,233.328,17.8095,-98.279200000000003,-96.569199999999995,121.896,111.956
2109.0,447.75099999999998,338.92700000000002,106.55200000000001,-18.874700000000001,-91.7089,103.045,121.818
2110.0,453.68700000000001,258.52800000000002,10.690200000000001,-121.387,-85.638900000000007,82.284099999999995,131.55000000000001
2111.0,459.39600000000002,358.59699999999998,97.238699999999994,-38.5505,-78.334599999999995,59.757399999999997,141.05099999999999
2112.0,464.86500000000001,267.27300000000002,-5.4295,-141.62299999999999,-69.821200000000005,35.819600000000001,150.077
2113.0,469.96899999999999,367.178,85.662199999999999,-47.3446,-60.122,10.8561,158.417
2114.0,474.63099999999997,275.14100000000002,-12.379899999999999,-138.453,-49.319099999999999,-14.664300000000001,165.85300000000001
2115.0,478.733,370.98899999999998,80.489199999999997,-34.8172,-37.5062,-40.232100000000003,172.16900000000001
2116.0,482.185,278.69099999999997,-11.610300000000001,-112.38200000000001,-24.8293,-65.295500000000004,177.18000000000001
2117.0,484.94499999999999,360.90300000000002,74.0364,-8.6503499999999995,-11.439399999999999,-89.311800000000005,180.739
2118.0,486.91800000000001,251.40199999999999,-28.8703,-90.134100000000004,2.4578500000000001,-111.73699999999999,182.702
2119.0,488.03100000000001,335.238,64.521699999999996,27.684899999999999,16.622399999999999,-132.06,182.94800000000001
2120.0,488.31400000000002,225.33000000000001,-33.0809,-43.030799999999999,30.838799999999999,-149.84,181.471
2121.0,487.78899999999999,297.37700000000001,53.683999999999997,72.534700000000001,44.883899999999997,-164.721,178.27600000000001
2122.0,486.44099999999997,187.55699999999999,-39.427700000000002,9.5980500000000006,58.515000000000001,-176.405,173.39599999999999
2123.0,484.36900000000003,264.06099999999998,55.361600000000003,135.25,71.543599999999998,-184.732,166.94900000000001
2124.0,481.66899999999998,141.036,-48.226999999999997,62.565600000000003,83.819900000000004,-189.63,159.084
2125.0,478.38900000000001,211.65299999999999,42.469499999999996,183.67500000000001,95.173199999999994,-191.114,149.929
2126.0,474.61000000000001,95.291899999999998,-53.628999999999998,116.95399999999999,105.494,-189.273,139.66999999999999
2127.0,470.45800000000003,169.34200000000001,40.450699999999998,238.886,114.711,-184.31100000000001,128.49199999999999
2128.0,465.99900000000002,56.880800000000001,-52.601500000000001,171.73099999999999,122.791,-176.43899999999999,116.59099999999999
2129.0,461.36500000000001,139.10599999999999,48.080599999999997,296.04199999999997,129.708,-165.97900000000001,104.145
2130.0,456.58800000000002,23.392199999999999,-50.391599999999997,218.50999999999999,135.542,-153.203,91.346999999999994
2131.0,451.80799999999999,107.794,49.798499999999997,337.00999999999999,140.22300000000001,-138.46899999999999,78.367999999999995
2132.0,446.89100000000002,-3.7913199999999998,-47.7986,254.38999999999999,143.965,-122.218,65.231499999999997
2133.0,380.33199999999999,191.73400000000001,0.49254399999999998,-73.028700000000001,-91.046199999999999,119.806,83.036900000000003
2134.0,384.62700000000001,289.95100000000002,82.939599999999999,-0.091478799999999999,-87.911900000000003,105.059,90.745199999999997
2135.0,388.786,222.78100000000001,1.2072700000000001,-89.544300000000007,-83.941900000000004,88.376499999999993,98.565299999999993
2136.0,392.86399999999998,315.846,81.033000000000001,-15.150399999999999,-78.962199999999996,70.036799999999999,106.377
2137.0,396.803,246.49299999999999,0.13464899999999999,-98.894999999999996,-72.982699999999994,50.236400000000003,114.026
2138.0,400.59899999999999,340.94299999999998,84.930800000000005,-14.0839,-66.010400000000004,29.251300000000001,121.30500000000001
2139.0,404.20600000000002,262.16699999999997,-1.27284,-97.235600000000005,-58.072099999999999,7.4281600000000001,128.07499999999999
2140.0,407.55599999999998,346.25200000000001,77.837599999999995,-11.9017,-49.223300000000002,-14.842499999999999,134.14500000000001
2141.0,410.56,260.04700000000003,-10.661899999999999,-90.960800000000006,-39.533299999999997,-37.109299999999998,139.36799999999999
2142.0,413.137,332.22399999999999,62.000999999999998,-5.6753999999999998,-29.1051,-58.918700000000001,143.571
2143.0,415.17399999999998,247.279,-19.653099999999998,-71.595699999999994,-18.072500000000002,-79.778700000000001,146.60599999999999
2144.0,416.65100000000001,324.21300000000002,63.330300000000001,29.940100000000001,-6.5859399999999999,-99.242099999999994,148.364
2145.0,417.55799999999999,226.92500000000001,-25.2623,-37.632199999999997,5.2079000000000004,-116.876,148.798
2146.0,417.863,294.16899999999998,53.064999999999998,63.834600000000002,17.109400000000001,-132.30799999999999,147.833
2147.0,417.56,199.744,-28.1782,7.3945100000000004,28.935400000000001,-145.203,145.47200000000001
2148.0,416.72000000000003,259.75,46.7898,108.264,40.522599999999997,-155.34899999999999,141.76300000000001
2149.0,415.34199999999998,155.75299999999999,-40.871299999999998,47.1357,51.699399999999997,-162.56200000000001,136.75999999999999
2150.0,413.46899999999999,224.899,45.551299999999998,160.21600000000001,62.297600000000003,-166.774,130.54300000000001
2151.0,411.18299999999999,124.664,-36.8506,104.04300000000001,72.223299999999995,-167.99199999999999,123.258
2152.0,408.56299999999999,187.33099999999999,43.820700000000002,210.03999999999999,81.378500000000003,-166.321,115.033
2153.0,405.65499999999997,85.1982,-40.541800000000002,149.69499999999999,89.691699999999997,-161.89500000000001,106.006
2154.0,402.54000000000002,147.09700000000001,38.571800000000003,251.13900000000001,97.117099999999994,-154.93299999999999,96.328800000000001
2155.0,399.267,41.1432,-51.057200000000002,181.87200000000001,103.628,-145.66999999999999,86.134699999999995
2156.0,395.86200000000002,111.494,34.473500000000001,285.51400000000001,109.21899999999999,-134.37200000000001,75.572999999999993
2157.0,392.38799999999998,9.1307799999999997,-54.061999999999998,212.67599999999999,113.90000000000001,-121.33799999999999,64.788899999999998
2158.0,388.93400000000003,82.770099999999999,31.805499999999999,311.589,117.77500000000001,-106.99299999999999,53.843600000000002
2159.0,340.02699999999999,269.80900000000003,87.436400000000006,36.074199999999998,-84.006200000000007,105.995,71.827500000000001
2160.0,343.34899999999999,204.54499999999999,8.2377199999999995,-51.569800000000001,-81.221299999999999,92.736400000000003,78.408199999999994
2161.0,346.65800000000002,291.19,82.161199999999994,15.506600000000001,-77.719899999999996,77.900899999999993,85.198400000000007
2162.0,349.80599999999998,225.29900000000001,4.8079799999999997,-66.659499999999994,-73.331999999999994,61.6235,91.937100000000001
2163.0,352.82100000000003,306.892,76.367800000000003,2.3922599999999998,-68.049899999999994,44.043799999999997,98.4953
2164.0,355.76100000000002,232.321,-6.6088699999999996,-80.542599999999993,-61.917700000000004,25.424800000000001,104.732
2165.0,358.572,314.24400000000003,68.796899999999994,-2.35534,-54.969700000000003,6.06494,110.496
2166.0,361.221,240.33099999999999,-9.4985199999999992,-75.041600000000003,-47.258400000000002,-13.6754,115.663
2167.0,363.62,319.089,67.219099999999997,10.1434,-38.839199999999998,-33.403500000000001,120.105
2168.0,365.70299999999997,246.02600000000001,-5.4080300000000001,-51.220999999999997,-29.7865,-52.699100000000001,123.705
2169.0,367.42700000000002,312.75400000000002,64.293800000000005,32.363700000000001,-20.179099999999998,-71.151200000000003,126.37
2170.0,368.73200000000003,224.577,-18.443100000000001,-34.0242,-10.136200000000001,-88.351799999999997,127.996
2171.0,369.56700000000001,293.14100000000002,57.873800000000003,60.864899999999999,0.19675500000000001,-103.91800000000001,128.48699999999999
2172.0,369.95100000000002,205.22399999999999,-20.161999999999999,3.2347700000000001,10.6829,-117.521,127.822
2173.0,369.89400000000001,263.17399999999998,49.536099999999998,94.772999999999996,21.176200000000001,-128.887,125.985
2174.0,369.38200000000001,175.60900000000001,-24.7547,43.365699999999997,31.507200000000001,-137.78999999999999,122.977
2175.0,368.46699999999998,237.75399999999999,51.866900000000001,143.40799999999999,41.547199999999997,-144.096,118.857
2176.0,367.19299999999998,137.75399999999999,-32.797400000000003,82.219800000000006,51.178600000000003,-147.74600000000001,113.70399999999999
2177.0,365.57400000000001,194.62100000000001,39.864699999999999,178.006,60.271000000000001,-148.739,107.583
2178.0,363.649,100.29300000000001,-38.579099999999997,121.925,68.722999999999999,-147.143,100.59999999999999
2179.0,361.47300000000001,160.339,37.1068,218.821,76.465999999999994,-143.10400000000001,92.865899999999996
2180.0,359.07900000000001,68.995000000000005,-39.156599999999997,162.29599999999999,83.436700000000002,-136.79499999999999,84.501999999999995
2181.0,356.524,136.59999999999999,42.702399999999997,262.12900000000002,89.604200000000006,-128.45699999999999,75.626499999999993
2182.0,353.83800000000002,41.553600000000003,-39.128599999999999,196.25999999999999,94.960999999999999,-118.327,66.380700000000004
2183.0,351.04899999999998,111.357,42.649299999999997,291.827,99.500699999999995,-106.678,56.873199999999997
2184.0,348.20699999999999,19.128900000000002,-39.038800000000002,221.62299999999999,103.23699999999999,-93.8673,47.170200000000001
2185.0,307.21199999999999,159.96700000000001,-13.839399999999999,-46.991999999999997,-78.116600000000005,94.371899999999997,63.991100000000003
2186.0,310.31299999999999,244.977,58.893000000000001,18.221299999999999,-75.704599999999999,82.662599999999998,70.123000000000005
2187.0,313.096,185.25800000000001,-11.9643,-58.785699999999999,-72.527299999999997,69.468999999999994,76.262699999999995
2188.0,315.774,264.98599999999999,57.7408,6.6013900000000003,-68.508499999999998,55.009300000000003,82.443100000000001
2189.0,318.35300000000001,204.47900000000001,-11.5479,-64.913899999999998,-63.684399999999997,39.433,88.455299999999994
2190.0,320.84100000000001,285.892,62.432200000000002,9.1480899999999998,-58.070500000000003,22.918700000000001,94.103800000000007
2191.0,323.279,218.15899999999999,-11.151199999999999,-61.924999999999997,-51.7333,5.7264900000000001,99.293000000000006
2192.0,325.60899999999998,290.72800000000001,57.405700000000003,11.6662,-44.723500000000001,-11.824,103.919
2193.0,327.774,217.28,-17.992599999999999,-56.175699999999999,-37.094000000000001,-29.374300000000002,107.89700000000001
2194.0,329.68900000000002,279.39800000000002,44.378100000000003,16.245000000000001,-28.899000000000001,-46.544400000000003,111.134
2195.0,331.274,207.809,-24.728300000000001,-40.398800000000001,-20.219000000000001,-62.949199999999998,113.526
2196.0,332.49700000000001,274.72800000000001,46.8748,45.866,-11.139799999999999,-78.222800000000007,115.003
2197.0,333.36000000000001,192.41300000000001,-28.664200000000001,-13.094799999999999,-1.7618,-92.037700000000001,115.515
2198.0,333.83199999999999,250.71100000000001,38.289999999999999,72.097499999999997,7.7800000000000002,-104.089,114.999
2199.0,333.91800000000001,171.37100000000001,-30.757899999999999,22.584900000000001,17.3459,-114.131,113.43300000000001
2200.0,333.64699999999999,223.28200000000001,32.820500000000003,106.572,26.816099999999999,-121.979,110.842
2201.0,333.01799999999997,135.31999999999999,-42.427,52.223799999999997,36.047499999999999,-127.506,107.239
2202.0,332.03699999999998,195.988,31.655000000000001,147.30600000000001,44.906599999999997,-130.63999999999999,102.67
2203.0,330.75400000000002,111.229,-39.297499999999999,97.004599999999996,53.300199999999997,-131.404,97.2196
2204.0,329.197,166.23699999999999,29.594899999999999,185.82400000000001,61.136000000000003,-129.869,90.974100000000007
2205.0,327.39299999999997,79.385300000000001,-43.606000000000002,131.48599999999999,68.330500000000001,-126.16200000000001,84.022400000000005
2206.0,325.38,133.91200000000001,24.071899999999999,216.66900000000001,74.824700000000007,-120.45399999999999,76.473600000000005
2207.0,323.18700000000001,43.087200000000003,-54.347499999999997,154.15199999999999,80.569699999999997,-112.95699999999999,68.427999999999997
2208.0,320.834,105.55200000000001,19.569299999999998,242.17599999999999,85.535799999999995,-103.88500000000001,60.0075
2209.0,318.351,17.438500000000001,-58.1877,176.54300000000001,89.729500000000002,-93.491100000000003,51.333199999999998
2210.0,315.822,83.009500000000003,16.481300000000001,261.29599999999999,93.178399999999996,-82.088200000000001,42.459299999999999
2211.0,277.96100000000001,228.98699999999999,63.547699999999999,45.712800000000001,-72.680999999999997,84.257300000000001,56.208799999999997
2212.0,280.59199999999998,173.56299999999999,-3.3022999999999998,-27.889600000000002,-70.400800000000004,73.530199999999994,61.666899999999998
2213.0,283.46199999999999,244.81299999999999,57.937600000000003,27.992899999999999,-67.673199999999994,61.7898,67.683300000000003
2214.0,286.012,188.982,-6.5455399999999999,-40.295299999999997,-64.130700000000004,49.028500000000001,73.674899999999994
2215.0,288.34500000000003,255.167,52.067300000000003,16.331199999999999,-59.728200000000001,35.256,79.429699999999997
2216.0,290.64499999999998,192.69900000000001,-16.900600000000001,-52.543199999999999,-54.577399999999997,20.6509,84.825800000000001
2217.0,292.89499999999998,259.94200000000001,45.114899999999999,11.785,-48.748100000000001,5.4195000000000002,89.719700000000003
2218.0,295.08999999999997,199.47300000000001,-19.068999999999999,-47.808199999999999,-42.314700000000002,-10.1584,94.038600000000002
2219.0,297.13600000000002,264.53100000000001,44.047199999999997,22.195499999999999,-35.333199999999998,-25.755299999999998,97.717699999999994
2220.0,298.96199999999999,205.83799999999999,-14.648400000000001,-27.381,-27.851199999999999,-41.020299999999999,100.697
2221.0,300.50999999999999,260.39400000000001,41.933300000000003,40.4116,-19.915800000000001,-55.605899999999998,102.925
2222.0,301.73399999999998,188.53100000000001,-25.930900000000001,-14.283799999999999,-11.6075,-69.180099999999996,104.32299999999999
2223.0,302.59500000000003,245.05500000000001,36.4373,63.016599999999997,-3.0331000000000001,-81.4328,104.81699999999999
2224.0,303.11099999999999,174.03299999999999,-27.0563,15.9056,5.69902,-92.107100000000003,104.378
2225.0,303.28399999999999,221.208,29.113299999999999,89.589699999999993,14.4687,-100.983,102.988
2226.0,303.10399999999998,150.94499999999999,-30.962900000000001,47.8371,23.1341,-107.889,100.633
2227.0,302.596,202.196,31.404900000000001,128.93199999999999,31.583200000000001,-112.71599999999999,97.352800000000002
2228.0,301.78500000000003,120.67,-38.348100000000002,77.9148,39.709299999999999,-115.42700000000001,93.197800000000001
2229.0,300.66800000000001,167.45599999999999,20.553000000000001,155.22300000000001,47.394399999999997,-116.021,88.217500000000001
2230.0,299.26900000000001,91.045699999999997,-43.690199999999997,108.72,54.542200000000001,-114.56699999999999,82.488600000000005
2231.0,297.61599999999999,140.95099999999999,18.174199999999999,187.34,61.080199999999998,-111.18600000000001,76.102199999999996
2232.0,295.733,67.068600000000004,-44.197899999999997,140.47800000000001,66.943700000000007,-106.03400000000001,69.153599999999997
2233.0,293.66000000000003,124.021,23.611000000000001,222.328,72.090699999999998,-99.312700000000007,61.748600000000003
2234.0,291.423,46.423699999999997,-43.9392,167.15799999999999,76.509799999999998,-91.225499999999997,53.998199999999997
2235.0,289.04899999999998,105.458,24.1877,245.899,80.184100000000001,-81.984300000000005,46.023699999999998
2236.0,286.56400000000002,29.902999999999999,-43.365200000000002,187.06200000000001,83.145499999999998,-71.877600000000001,37.8508
2237.0,251.24299999999999,140.511,-16.651,-22.9099,-66.930000000000007,75.067400000000006,48.497799999999998
2238.0,254.38800000000001,208.18299999999999,39.627899999999997,28.349299999999999,-65.362200000000001,65.428700000000006,53.586799999999997
2239.0,256.76400000000001,162.11199999999999,-15.4282,-31.3889,-63.052199999999999,54.808500000000002,58.821599999999997
2240.0,259.005,222.39400000000001,37.1813,17.986000000000001,-59.932699999999997,43.342500000000001,64.406899999999993
2241.0,261.15199999999999,175.95500000000001,-15.7836,-36.485100000000003,-56.074199999999998,31.151499999999999,69.986900000000006
2242.0,263.197,237.91999999999999,40.5929,20.183199999999999,-51.435899999999997,18.242799999999999,75.178100000000001
2243.0,265.28800000000001,186.18899999999999,-15.749599999999999,-33.929600000000001,-46.140500000000003,4.7744299999999997,79.878
2244.0,267.37099999999998,241.03399999999999,35.723300000000002,21.789100000000001,-40.292499999999997,-9.0260999999999996,83.992999999999995
2245.0,269.358,185.30799999999999,-21.861899999999999,-29.5322,-33.945399999999999,-22.8673,87.484700000000004
2246.0,271.14600000000002,231.25899999999999,23.940200000000001,24.5228,-27.146100000000001,-36.4283,90.310100000000006
2247.0,272.64600000000002,177.96700000000001,-27.719799999999999,-16.9618,-19.944199999999999,-49.378399999999999,92.408299999999997
2248.0,273.82400000000001,228.71299999999999,26.4284,49.103999999999999,-12.405099999999999,-61.416600000000003,93.729500000000002
2249.0,274.68099999999998,166.34200000000001,-30.868400000000001,5.2420600000000004,-4.60893,-72.274299999999997,94.234899999999996
2250.0,275.19999999999999,209.54300000000001,18.906199999999998,69.747299999999996,3.3273700000000002,-81.715199999999996,93.870199999999997
2251.0,275.38400000000001,150.387,-32.379600000000003,34.195799999999998,11.2835,-89.543999999999997,92.613799999999998
2252.0,275.25299999999999,188.03800000000001,14.2323,97.194699999999997,19.1508,-95.622600000000006,90.481999999999999
2253.0,274.80200000000002,121.482,-42.532899999999998,57.157499999999999,26.804600000000001,-99.850300000000004,87.487300000000005
2254.0,274.03300000000002,167.40000000000001,13.7409,130.172,34.126600000000003,-102.18000000000001,83.668700000000001
2255.0,272.97699999999998,103.846,-39.1419,93.685199999999995,41.032499999999999,-102.633,79.096999999999994
2256.0,271.65100000000001,144.78100000000001,12.543900000000001,161.108,47.438600000000001,-101.27500000000001,73.848200000000006
2257.0,270.077,79.2911,-42.361600000000003,121.015,53.270499999999998,-98.216499999999996,68.001400000000004
2258.0,268.27999999999997,119.79600000000001,8.3636199999999992,185.38499999999999,58.476599999999998,-93.6023,61.653100000000002
2259.0,266.29500000000002,50.484699999999997,-51.284599999999998,138.04300000000001,63.011400000000002,-87.6126,54.8932
2260.0,264.13499999999999,98.1023,5.2876500000000002,205.423,66.859200000000001,-80.418800000000005,47.826300000000003
2261.0,261.851,30.880500000000001,-53.793100000000003,155.56299999999999,70.016499999999994,-72.225800000000007,40.564399999999999
2262.0,259.44900000000001,81.169899999999998,3.6919400000000002,220.55699999999999,72.529899999999998,-63.2547,33.1541
2263.0,227.93899999999999,194.55799999999999,46.389200000000002,49.770299999999999,-62.4602,67.340999999999994,41.567599999999999
2264.0,229.90100000000001,155.88499999999999,-3.0929899999999999,-5.7329999999999997,-60.125300000000003,58.444600000000001,44.948300000000003
2265.0,232.542,210.285,41.690300000000001,35.845999999999997,-58.270299999999999,48.442,49.685400000000001
2266.0,234.73400000000001,169.773,-5.9014499999999996,-13.958500000000001,-55.891599999999997,38.113900000000001,54.859499999999997
2267.0,236.38300000000001,216.58699999999999,35.428699999999999,26.256399999999999,-52.573599999999999,27.142399999999999,60.0289
2268.0,238.13800000000001,169.858,-16.045100000000001,-24.6919,-48.473300000000002,15.654199999999999,65.021199999999993
2269.0,239.989,218.256,28.403099999999998,21.997299999999999,-43.768500000000003,3.7054999999999998,69.535300000000007
2270.0,241.905,174.49299999999999,-18.348600000000001,-20.736799999999999,-38.535899999999998,-8.5423100000000005,73.462500000000006
2271.0,243.77500000000001,221.85900000000001,27.291899999999998,30.723600000000001,-32.871299999999998,-20.848500000000001,76.768000000000001
2272.0,245.46000000000001,180.59299999999999,-14.1953,-3.18371,-26.7972,-32.906599999999997,79.433199999999999
2273.0,246.89099999999999,219.03100000000001,25.641100000000002,45.8827,-20.350899999999999,-44.427399999999999,81.437399999999997
2274.0,248.01300000000001,166.36600000000001,-24.030899999999999,6.9796399999999998,-13.586499999999999,-55.124099999999999,82.729399999999998
2275.0,248.809,206.91800000000001,21.0017,64.1524,-6.5987200000000001,-64.755899999999997,83.2483
2276.0,249.28899999999999,155.55699999999999,-24.527999999999999,31.879000000000001,0.52000800000000003,-73.114000000000004,82.971400000000003
2277.0,249.465,188.01900000000001,14.936999999999999,85.452200000000005,7.6576399999999998,-80.037499999999994,81.881799999999998
2278.0,249.32400000000001,137.815,-27.3017,57.906799999999997,14.6934,-85.388300000000001,79.972300000000004
2279.0,248.88800000000001,174.15199999999999,17.755700000000001,117.91500000000001,21.5259,-89.093699999999998,77.276600000000002
2280.0,248.16900000000001,113.94199999999999,-33.191499999999998,81.856499999999997,28.066199999999998,-91.119399999999999,73.845600000000005
2281.0,247.17400000000001,146.43899999999999,8.8671900000000008,138.46799999999999,34.212299999999999,-91.478899999999996,69.725800000000007
2282.0,245.91300000000001,90.911799999999999,-37.025100000000002,106.52200000000001,39.887599999999999,-90.2226,64.989999999999995
2283.0,244.41900000000001,126.223,7.7931600000000003,164.43000000000001,45.029699999999998,-87.461399999999998,59.718299999999999
2284.0,242.70599999999999,72.918899999999994,-36.322400000000002,132.34299999999999,49.592100000000002,-83.314800000000005,53.998899999999999
2285.0,240.821,114.468,13.943199999999999,193.416,53.540500000000002,-77.956199999999995,47.920499999999997
2286.0,238.77500000000001,57.625300000000003,-34.785699999999999,154.12299999999999,56.875999999999998,-71.539299999999997,41.577500000000001
2287.0,236.61500000000001,100.788,15.7921,212.72800000000001,59.579999999999998,-64.233800000000002,35.070500000000003
2288.0,234.32400000000001,45.513399999999997,-32.909599999999998,170.47499999999999,61.703099999999999,-56.261000000000003,28.430900000000001
2289.0,207.92500000000001,122.042,-14.392899999999999,-6.1835199999999997,-57.565600000000003,62.102600000000002,37.235999999999997
2290.0,209.46000000000001,179.327,28.9772,35.868000000000002,-56.018999999999998,52.430399999999999,39.139499999999998
2291.0,211.881,148.964,-10.830500000000001,-8.6456400000000002,-54.281199999999998,43.316800000000001,41.774799999999999
2292.0,213.005,193.114,27.077500000000001,26.731999999999999,-51.9876,33.589399999999998,45.653199999999998
2293.0,214.358,160.601,-10.632199999999999,-11.4602,-49.194600000000001,23.3782,50.286999999999999
2294.0,215.66800000000001,204.81399999999999,29.6677,29.6632,-45.676099999999998,13.095599999999999,54.962000000000003
2295.0,217.15299999999999,167.41999999999999,-11.018700000000001,-8.7261199999999999,-41.543799999999997,2.3956900000000001,59.228099999999998
2296.0,218.84299999999999,206.06299999999999,25.050599999999999,31.1812,-36.939,-8.5221199999999993,62.947800000000001
2297.0,220.553,166.02500000000001,-16.481400000000001,-4.9602899999999996,-31.959099999999999,-19.519200000000001,66.074600000000004
2298.0,222.11699999999999,197.35599999999999,14.676500000000001,33.131999999999998,-26.603999999999999,-30.290400000000002,68.603399999999993
2299.0,223.42699999999999,160.0,-21.4055,5.4899800000000001,-20.918900000000001,-40.578000000000003,70.509299999999996
2300.0,224.441,196.10900000000001,17.409800000000001,54.101500000000001,-14.938499999999999,-50.112499999999997,71.758099999999999
2301.0,225.16399999999999,151.005,-23.627800000000001,24.037600000000001,-8.7417800000000003,-58.6873,72.323700000000002
2302.0,225.59200000000001,180.63900000000001,11.275600000000001,70.895499999999998,-2.4245100000000002,-66.113399999999999,72.157300000000006
2303.0,225.72900000000001,138.75200000000001,-24.287600000000001,48.0336,3.90266,-72.247100000000003,71.245800000000003
2304.0,225.59399999999999,163.62299999999999,7.7858400000000003,93.267099999999999,10.15,-76.983099999999993,69.602699999999999
2305.0,225.18600000000001,115.375,-32.574599999999997,66.279399999999995,16.2102,-80.2453,67.247600000000006
2306.0,224.506,147.93899999999999,8.3493099999999991,120.51900000000001,21.988299999999999,-82.001800000000003,64.213800000000006
2307.0,223.57599999999999,102.407,-28.539300000000001,96.612499999999997,27.413499999999999,-82.268799999999999,60.568399999999997
2308.0,222.416,130.54900000000001,8.3326899999999995,145.88200000000001,32.421900000000001,-81.105099999999993,56.377499999999998
2309.0,221.042,83.195599999999999,-30.391200000000001,118.768,36.954300000000003,-78.594899999999996,51.714799999999997
2310.0,219.47900000000001,110.85299999999999,5.6314399999999996,165.41900000000001,40.975499999999997,-74.860500000000002,46.658799999999999
2311.0,217.755,59.845599999999997,-37.421900000000001,131.88999999999999,44.451599999999999,-70.038600000000002,41.288600000000002
2312.0,215.887,93.711399999999998,3.8567399999999998,181.46700000000001,47.376800000000003,-64.274199999999993,35.682299999999998
2313.0,213.91200000000001,44.326999999999998,-38.734099999999998,145.90100000000001,49.747999999999998,-57.714700000000001,29.932099999999998
2314.0,211.83500000000001,80.375399999999999,3.3599800000000002,193.63300000000001,51.603700000000003,-50.5456,24.079599999999999
2315.0,188.40000000000001,143.60599999999999,17.973800000000001,25.6831,-51.740400000000001,56.806399999999996,31.133800000000001
2316.0,191.714,133.10499999999999,-3.74566,1.44974,-51.152500000000003,49.615900000000003,34.0364
2317.0,192.58600000000001,182.608,34.321100000000001,40.0779,-50.129600000000003,39.661200000000001,34.942500000000003
2318.0,194.02500000000001,155.804,-1.0342,4.0694299999999997,-48.374899999999997,29.398199999999999,37.455399999999997
2319.0,195.261,191.56200000000001,29.971499999999999,34.513500000000001,-45.995199999999997,20.23,41.448799999999999
2320.0,195.89500000000001,154.458,-10.1584,-4.56454,-42.9773,10.708600000000001,45.756
2321.0,197.05600000000001,190.96299999999999,23.528700000000001,31.479600000000001,-39.333799999999997,1.06959,49.732700000000001
2322.0,198.44499999999999,157.227,-12.326000000000001,-0.65598199999999995,-35.3399,-8.7605400000000007,53.221899999999998
2323.0,199.971,193.60400000000001,22.758700000000001,39.486199999999997,-31.008500000000002,-18.6477,56.126100000000001
2324.0,201.352,162.755,-8.1517800000000005,15.001200000000001,-26.3521,-28.328099999999999,58.491599999999998
2325.0,202.53,191.53999999999999,21.8703,52.734699999999997,-21.377300000000002,-37.572400000000002,60.301200000000001
2326.0,203.429,150.768,-16.3492,23.4361,-16.1248,-46.124000000000002,61.533099999999997
2327.0,204.05699999999999,181.68199999999999,18.321899999999999,68.087599999999995,-10.673400000000001,-53.7988,62.132199999999997
2328.0,204.41999999999999,142.42099999999999,-16.086500000000001,44.512099999999997,-5.1043200000000004,-60.429099999999998,62.082900000000002
2329.0,204.53700000000001,166.37200000000001,13.661300000000001,85.7256,0.48725200000000002,-65.8964,61.370699999999999
2330.0,204.40000000000001,128.44900000000001,-17.681699999999999,66.264099999999999,5.9994500000000004,-70.096299999999999,59.991100000000003
2331.0,204.02099999999999,155.99100000000001,17.059000000000001,113.04000000000001,11.351100000000001,-72.975099999999998,57.972700000000003
2332.0,203.41499999999999,109.13200000000001,-22.1539,85.768699999999995,16.4712,-74.507800000000003,55.361899999999999
2333.0,202.58799999999999,133.38499999999999,9.9973299999999998,129.548,21.280000000000001,-74.705299999999994,52.2012
2334.0,201.55000000000001,90.674099999999996,-24.740400000000001,105.913,25.716100000000001,-73.610299999999995,48.551000000000002
2335.0,200.327,117.461,9.9275099999999998,150.96299999999999,29.733699999999999,-71.309799999999996,44.479199999999999
2336.0,198.93199999999999,76.6066,-23.2897,127.249,33.296999999999997,-67.899199999999993,40.058
2337.0,197.39699999999999,108.938,16.305,175.34100000000001,36.383800000000001,-63.515500000000003,35.356999999999999
2338.0,195.732,64.685900000000004,-21.1615,145.255,38.993600000000001,-58.281599999999997,30.449200000000001
2339.0,193.971,98.3489,18.724699999999999,191.37299999999999,41.115200000000002,-52.334400000000002,25.4054
2340.0,192.10499999999999,55.2029,-18.873200000000001,158.74000000000001,42.777299999999997,-45.845399999999998,20.267199999999999
2341.0,171.71899999999999,59.523600000000002,-64.244900000000001,-48.241999999999997,-49.365099999999998,48.775700000000001,21.9498
2342.0,172.25399999999999,121.745,-7.9311800000000003,4.7762599999999997,-45.016599999999997,46.369300000000003,24.5777
2343.0,173.869,130.70099999999999,-7.4292600000000002,3.1452300000000002,-45.922499999999999,35.599499999999999,28.110600000000002
2344.0,178.06100000000001,173.62,25.8188,34.059199999999997,-45.3748,26.0794,30.5151
2345.0,178.44499999999999,146.55199999999999,-5.3371500000000003,2.64337,-43.025300000000001,17.6357,33.8337
2346.0,178.721,182.98500000000001,28.446400000000001,37.562399999999997,-40.345700000000001,8.6276200000000003,37.763100000000001
2347.0,179.524,151.501,-5.3892499999999997,6.1800100000000002,-37.161799999999999,-0.092697199999999993,41.442999999999998
2348.0,180.66999999999999,182.98400000000001,24.3111,39.453899999999997,-33.703200000000002,-9.0595300000000005,44.660899999999998
2349.0,181.99199999999999,149.93100000000001,-9.7754999999999992,10.088900000000001,-29.962,-17.981300000000001,47.362099999999998
2350.0,183.21100000000001,175.13,15.5017,41.292000000000002,-25.922599999999999,-26.761299999999999,49.572699999999998
2351.0,184.23500000000001,144.87700000000001,-13.5124,19.380500000000001,-21.587599999999998,-35.099200000000003,51.281700000000001
2352.0,185.00999999999999,174.51599999999999,18.564,59.646599999999999,-16.995000000000001,-42.817900000000002,52.4724
2353.0,185.55199999999999,137.709,-14.720800000000001,35.4681,-12.2014,-49.7166,53.116599999999998
2354.0,185.86000000000001,161.68000000000001,13.7623,73.8232,-7.2987900000000003,-55.670000000000002,53.178199999999997
2355.0,185.94399999999999,127.97799999999999,-14.5871,55.898000000000003,-2.3700800000000002,-60.557200000000002,52.639299999999999
2356.0,185.81999999999999,147.74700000000001,11.2529,92.503500000000003,2.5082399999999998,-64.305000000000007,51.519799999999996
2357.0,185.49299999999999,108.621,-21.263300000000001,70.883600000000001,7.2562800000000003,-66.852000000000004,49.832299999999996
2358.0,184.959,135.386,12.502599999999999,115.47,11.792,-68.1768,47.605899999999998
2359.0,184.23500000000001,98.6858,-16.976299999999998,96.508300000000006,16.064,-68.295500000000004,44.887799999999999
2360.0,183.334,121.508,13.1389,136.65199999999999,20.0181,-67.252099999999999,41.738399999999999
2361.0,182.27099999999999,83.127499999999998,-18.040299999999998,114.839,23.611599999999999,-65.118300000000005,38.210999999999999
2362.0,181.06100000000001,105.431,11.247,152.68899999999999,26.813800000000001,-61.985300000000002,34.373800000000003
2363.0,179.72399999999999,63.633800000000001,-23.9131,125.17400000000001,29.603100000000001,-57.9696,30.281600000000001
2364.0,178.268,91.355099999999993,9.9996600000000004,165.72999999999999,31.968499999999999,-53.18,25.9998
2365.0,176.71700000000001,50.872799999999998,-24.812200000000001,136.501,33.911499999999997,-47.749499999999998,21.585000000000001
2366.0,175.08099999999999,80.430300000000003,9.8065499999999997,175.589,35.444499999999998,-41.813600000000001,17.089099999999998
2367.0,159.684,108.748,-13.1518,12.5868,-47.740499999999997,42.9054,15.860099999999999
2368.0,158.095,103.02,-24.9023,1.2215800000000001,-41.655900000000003,40.717300000000002,19.236999999999998
2369.0,159.06700000000001,162.41800000000001,31.809100000000001,46.554000000000002,-42.911799999999999,31.0261,22.6553
2370.0,163.363,141.34899999999999,2.97498,12.934699999999999,-42.305500000000002,23.698599999999999,24.2561
2371.0,163.434,171.51499999999999,29.440100000000001,39.416800000000002,-40.221299999999999,15.279400000000001,27.625499999999999
2372.0,163.85400000000001,140.69999999999999,-4.2013499999999997,6.9374799999999999,-37.773400000000002,6.9901200000000001,31.169699999999999
2373.0,164.251,170.11600000000001,23.376000000000001,37.046700000000001,-34.980400000000003,-1.06555,34.595799999999997
2374.0,165.321,142.83500000000001,-5.5578700000000003,11.527900000000001,-32.012,-9.2607700000000008,37.516199999999998
2375.0,166.37200000000001,172.11500000000001,22.987300000000001,44.539099999999998,-28.7713,-17.374199999999998,40.003900000000002
2376.0,167.46899999999999,147.88900000000001,-1.0899799999999999,25.967300000000002,-25.279499999999999,-25.373100000000001,42.037700000000001
2377.0,168.31999999999999,170.47900000000001,22.7927,56.405999999999999,-21.484100000000002,-32.93,43.653700000000001
2378.0,169.00700000000001,137.673,-7.6821299999999999,33.458100000000002,-17.4556,-39.935600000000001,44.810699999999997
2379.0,169.447,162.20599999999999,20.177900000000001,69.6892,-13.2324,-46.1599,45.473700000000001
2380.0,169.715,131.01300000000001,-6.8128500000000001,51.7453,-8.9042700000000004,-51.530500000000004,45.625700000000002
2381.0,169.78700000000001,149.51499999999999,16.646100000000001,84.738699999999994,-4.5301400000000003,-55.911499999999997,45.255499999999998
2382.0,169.68199999999999,119.762,-7.5206499999999998,70.418599999999998,-0.20560400000000001,-59.257800000000003,44.356299999999997
2383.0,169.38900000000001,141.43600000000001,20.2318,108.10599999999999,4.0159500000000001,-61.508299999999998,42.945300000000003
2384.0,168.93700000000001,103.759,-11.017300000000001,86.7042,8.0729600000000001,-62.658999999999999,41.064799999999998
2385.0,168.321,122.596,14.4307,121.72199999999999,11.9047,-62.709299999999999,38.7453
2386.0,167.55099999999999,88.614199999999997,-12.890499999999999,103.53,15.4567,-61.704000000000001,36.031599999999997
2387.0,166.63900000000001,109.696,14.7567,139.703,18.695900000000002,-59.708399999999997,32.975299999999997
2388.0,165.59700000000001,77.327799999999996,-11.2583,121.488,21.589300000000001,-56.802799999999998,29.635400000000001
2389.0,164.43799999999999,103.315,20.7547,160.459,24.123200000000001,-53.093600000000002,26.063500000000001
2390.0,163.172,67.834000000000003,-9.1063799999999997,136.63300000000001,26.2879,-48.686399999999999,22.3171
2391.0,161.80799999999999,94.919600000000003,23.117000000000001,173.91800000000001,28.079999999999998,-43.693399999999997,18.442599999999999
2392.0,160.36199999999999,60.260199999999998,-6.9558299999999997,147.87799999999999,29.500800000000002,-38.259799999999998,14.4838
2393.0,145.792,91.956299999999999,-20.244299999999999,2.9721700000000002,-43.151299999999999,39.6723,11.894399999999999
2394.0,145.78299999999999,135.279,17.375,38.089799999999997,-39.871200000000002,35.750900000000001,15.9262
2395.0,147.07900000000001,122.33199999999999,-0.37831900000000002,13.331099999999999,-40.092100000000002,27.7257,17.706800000000001
2396.0,149.76300000000001,153.51900000000001,24.2347,35.570300000000003,-39.1248,21.228200000000001,19.2133
2397.0,150.13900000000001,133.72200000000001,0.96985399999999999,12.0533,-37.438299999999998,13.2567,22.619800000000001
2398.0,150.63999999999999,163.02099999999999,27.4223,39.887300000000003,-35.293799999999997,5.6869500000000004,25.859000000000002
2399.0,150.94399999999999,138.00200000000001,0.70881099999999997,15.693099999999999,-32.844700000000003,-1.8195699999999999,28.989699999999999
2400.0,151.86099999999999,163.11600000000001,24.410699999999999,42.633000000000003,-30.310199999999998,-9.3109500000000001,31.632400000000001
2401.0,152.75899999999999,136.49600000000001,-2.76437,19.653199999999998,-27.488,-16.749600000000001,33.924900000000001
2402.0,153.69900000000001,156.245,17.263500000000001,44.780200000000001,-24.450199999999999,-24.039300000000001,35.813099999999999
2403.0,154.42400000000001,132.11799999999999,-5.5740299999999996,28.042999999999999,-21.1113,-30.925799999999999,37.327399999999997
2404.0,155.00399999999999,156.04900000000001,20.588200000000001,61.173200000000001,-17.563800000000001,-37.282699999999998,38.433900000000001
2405.0,155.38300000000001,126.271,-6.0692500000000003,42.2453,-13.8207,-42.922600000000003,39.113900000000001
2406.0,155.607,145.34399999999999,16.916399999999999,73.556100000000001,-9.9851100000000006,-47.769100000000002,39.332700000000003
2407.0,155.649,118.34699999999999,-5.4826300000000003,59.911700000000003,-6.1011499999999996,-51.712699999999998,39.072600000000001
2408.0,155.55500000000001,133.74299999999999,15.070600000000001,89.4876,-2.2345799999999998,-54.708199999999998,38.356699999999996
2409.0,155.32599999999999,102.119,-10.996600000000001,72.552400000000006,1.55585,-56.695799999999998,37.196100000000001
2410.0,154.95099999999999,123.875,16.613700000000001,109.205,5.1920400000000004,-57.674100000000003,35.606299999999997
2411.0,154.428,94.342699999999994,-6.8963299999999998,94.467500000000001,8.6376000000000008,-57.655299999999997,33.6143
2412.0,153.77799999999999,112.65900000000001,17.476400000000002,127.199,11.845599999999999,-56.680799999999998,31.2698
2413.0,153.001,81.592600000000004,-7.6281800000000004,109.898,14.782299999999999,-54.804699999999997,28.613399999999999
2414.0,152.114,99.436800000000005,15.977499999999999,140.63499999999999,17.420400000000001,-52.108699999999999,25.698399999999999
2415.0,151.11500000000001,65.224599999999995,-12.775399999999999,118.23999999999999,19.742100000000001,-48.677100000000003,22.57
2416.0,150.018,87.823599999999999,14.898899999999999,151.43100000000001,21.732900000000001,-44.613799999999998,19.276
2417.0,148.81700000000001,54.711599999999997,-13.585800000000001,127.556,23.395199999999999,-40.016399999999997,15.860900000000001
2418.0,147.54900000000001,78.905600000000007,14.7379,159.56899999999999,24.723400000000002,-35.016100000000002,12.364100000000001
2419.0,132.08500000000001,135.19,32.304099999999998,50.648899999999998,-38.124499999999998,35.982999999999997,7.4607400000000004
2420.0,133.74700000000001,116.423,7.4097499999999998,23.421099999999999,-37.449199999999998,31.463100000000001,10.2684
2421.0,135.96700000000001,147.15199999999999,31.909500000000001,45.004600000000003,-37.127200000000002,25.2346,12.8855
2422.0,137.74000000000001,128.315,7.7267799999999998,19.366599999999998,-36.179400000000001,18.736899999999999,15.4786
2423.0,138.36000000000001,152.44200000000001,28.262499999999999,40.1083,-34.687100000000001,11.585699999999999,18.6313
2424.0,138.78700000000001,127.69199999999999,0.97619,14.291499999999999,-32.872399999999999,4.5847699999999998,21.679500000000001
2425.0,139.23500000000001,151.87799999999999,23.415199999999999,39.174300000000002,-30.789999999999999,-2.3371599999999999,24.491900000000001
2426.0,139.96600000000001,129.76400000000001,0.1497,19.017399999999999,-28.592500000000001,-9.2263599999999997,26.907299999999999
2427.0,140.76499999999999,153.78299999999999,23.720600000000001,46.526200000000003,-26.149000000000001,-16.052,28.9846
2428.0,141.53399999999999,134.24600000000001,4.5680399999999999,32.1633,-23.469200000000001,-22.7057,30.7318
2429.0,142.16399999999999,152.55000000000001,24.135000000000002,57.400199999999998,-20.523399999999999,-28.988600000000002,32.1494
2430.0,142.643,125.47199999999999,-0.81131900000000001,38.917400000000001,-17.364799999999999,-34.7639,33.2074
2431.0,142.96600000000001,145.63200000000001,22.264900000000001,69.1494,-14.040100000000001,-39.884500000000003,33.872599999999998
2432.0,143.15199999999999,120.087,0.34270299999999998,54.929699999999997,-10.609999999999999,-44.258699999999997,34.1389
2433.0,143.21000000000001,135.16,19.615400000000001,82.3185,-7.12561,-47.795099999999998,33.992899999999999
2434.0,143.13800000000001,111.05,0.203346,71.251300000000001,-3.6592199999999999,-50.4572,33.422600000000003
2435.0,142.934,128.851,23.0989,102.52800000000001,-0.2571,-52.218600000000002,32.438400000000001
2436.0,142.625,97.708500000000001,-2.7047500000000002,85.026399999999995,3.0316999999999998,-53.061500000000002,31.0778
2437.0,142.19900000000001,113.163,18.2059,114.006,6.14764,-52.985700000000001,29.366
2438.0,141.649,85.2911,-4.1837099999999996,99.296000000000006,9.0564199999999992,-52.037100000000002,27.3246
2439.0,140.99700000000001,102.754,18.662099999999999,129.315,11.727600000000001,-50.273099999999999,24.998699999999999
2440.0,140.24199999999999,76.296899999999994,-2.6085400000000001,114.602,14.1313,-47.7607,22.433299999999999
2441.0,139.387,98.113600000000005,24.112100000000002,147.16900000000001,16.253900000000002,-44.580800000000004,19.672599999999999
2442.0,138.43700000000001,68.860100000000003,-0.58743400000000001,127.529,18.084700000000002,-40.831499999999998,16.758600000000001
2443.0,137.38200000000001,91.590900000000005,26.288799999999998,158.626,19.619499999999999,-36.596299999999999,13.7318
2444.0,136.25,62.935299999999998,1.33568,137.024,20.851500000000001,-32.009799999999998,10.6228
2445.0,121.709,97.853300000000004,1.9704900000000001,18.068300000000001,-34.686,32.843400000000003,4.4143499999999998
2446.0,123.633,127.83199999999999,25.8429,40.076599999999999,-34.566200000000002,28.248999999999999,7.1645899999999996
2447.0,125.681,111.755,3.8031799999999998,16.409400000000002,-34.150399999999998,22.750699999999998,9.87364
2448.0,127.11,137.941,25.229299999999999,37.136200000000002,-33.384900000000002,16.616199999999999,12.666499999999999
2449.0,127.803,120.3,4.12582,16.618500000000001,-32.1233,10.1534,15.572900000000001
2450.0,128.215,145.97800000000001,27.435500000000001,41.475099999999998,-30.578399999999998,3.69428,18.330100000000002
2451.0,128.69,124.819,4.6539099999999998,20.982500000000002,-28.8353,-2.6841599999999999,20.823499999999999
2452.0,129.31700000000001,146.30600000000001,25.1539,44.4268,-26.916899999999998,-9.0307899999999997,23.0229
2453.0,130.00999999999999,123.681,2.2044999999999999,25.183299999999999,-24.782699999999998,-15.291499999999999,24.936299999999999
2454.0,130.65000000000001,140.26599999999999,19.237500000000001,46.711300000000001,-22.402000000000001,-21.365600000000001,26.563300000000002
2455.0,131.18299999999999,119.935,0.13037299999999999,32.910800000000002,-19.778600000000001,-27.092099999999999,27.886399999999998
2456.0,131.58699999999999,140.34800000000001,22.534600000000001,61.354900000000001,-16.957999999999998,-32.330500000000001,28.8858
2457.0,131.87,115.271,0.145427,45.630499999999998,-13.977,-36.966200000000001,29.539899999999999
2458.0,132.03299999999999,131.512,19.717600000000001,72.333699999999993,-10.908899999999999,-40.914000000000001,29.831199999999999
2459.0,132.042,108.81100000000001,0.93710099999999996,60.977800000000002,-7.7835099999999997,-44.104599999999998,29.736599999999999
2460.0,131.96199999999999,121.78700000000001,18.2285,85.938000000000002,-4.6305699999999996,-46.487400000000001,29.2653
2461.0,131.852,95.338700000000003,-3.6879,71.854799999999997,-1.5459700000000001,-48.0242,28.440300000000001
2462.0,131.631,114.117,19.862200000000001,103.11199999999999,1.4036999999999999,-48.7196,27.277000000000001
2463.0,131.26599999999999,89.386799999999994,0.071280099999999999,90.743399999999994,4.21706,-48.591299999999997,25.779199999999999
2464.0,130.81800000000001,105.17400000000001,20.782699999999998,118.53100000000001,6.86083,-47.674199999999999,23.9863
2465.0,130.27500000000001,79.077699999999993,-0.484458,103.866,9.2918800000000008,-46.012999999999998,21.939699999999998
2466.0,129.64500000000001,94.454499999999996,19.540299999999998,129.91900000000001,11.4909,-43.681399999999996,19.670500000000001
2467.0,128.92099999999999,65.501099999999994,-5.0248699999999999,110.726,13.4376,-40.743600000000001,17.2241
2468.0,128.107,85.033100000000005,18.572199999999999,138.971,15.118499999999999,-37.291699999999999,14.6348
2469.0,127.185,57.010800000000003,-5.7603299999999997,118.502,16.5335,-33.400700000000001,11.941000000000001
2470.0,126.19,77.956699999999998,18.478300000000001,145.816,17.674600000000002,-29.187200000000001,9.1738
2471.0,112.745,124.81100000000001,35.025700000000001,50.1599,-31.8367,30.0791,2.8756900000000001
2472.0,114.327,107.60899999999999,12.1722,25.7011,-31.728999999999999,25.579499999999999,5.4052300000000004
2473.0,116.312,132.58799999999999,31.5121,43.932200000000002,-31.444299999999998,20.504999999999999,7.8692000000000002
2474.0,117.47199999999999,115.524,10.1198,22.319099999999999,-30.752500000000001,14.8218,10.4947
2475.0,118.217,136.53700000000001,27.873100000000001,40.805300000000003,-29.726099999999999,8.8964499999999997,13.1274
2476.0,118.639,115.196,4.3459700000000003,18.8444,-28.425899999999999,2.98434,15.6386
2477.0,119.149,136.589,24.191299999999998,40.927,-26.9481,-2.9048699999999998,17.890899999999998
2478.0,119.70399999999999,117.449,4.1815699999999998,23.772400000000001,-25.296199999999999,-8.7238199999999999,19.887599999999999
2479.0,120.27200000000001,138.31200000000001,24.839600000000001,47.926000000000002,-23.41,-14.473100000000001,21.630299999999998
2480.0,120.806,121.41,8.3943899999999996,35.7453,-21.276900000000001,-20.0044,23.136299999999999
2481.0,121.256,137.352,25.501200000000001,57.8414,-18.9282,-25.207599999999999,24.376999999999999
2482.0,121.604,113.976,3.9771800000000002,41.934899999999999,-16.3918,-29.958500000000001,25.322500000000002
2483.0,121.81699999999999,131.601,24.106999999999999,68.221699999999998,-13.7142,-34.147100000000002,25.937000000000001
2484.0,121.971,109.697,5.2060199999999996,56.016100000000002,-10.907999999999999,-37.6965,26.242699999999999
2485.0,122.068,123.163,22.046700000000001,79.936199999999999,-8.10154,-40.493600000000001,26.219899999999999
2486.0,122.00700000000001,102.782,5.48489,70.572999999999993,-5.2858700000000001,-42.554699999999997,25.8123
2487.0,121.916,118.351,25.2455,97.401300000000006,-2.4867599999999999,-43.961300000000001,25.101500000000001
2488.0,121.703,91.733500000000006,3.0125999999999999,82.128900000000002,0.194884,-44.578200000000002,24.071999999999999
2489.0,121.425,105.492,21.197600000000001,107.196,2.7486199999999998,-44.4178,22.7334
2490.0,121.07599999999999,81.764700000000005,1.8512500000000001,94.362799999999993,5.1452400000000003,-43.534199999999998,21.1556
2491.0,120.625,97.291899999999998,21.6846,120.27500000000001,7.3599500000000004,-41.968200000000003,19.334299999999999
2492.0,120.119,74.814300000000003,3.3222299999999998,107.47199999999999,9.36313,-39.808100000000003,17.3123
2493.0,119.518,94.183800000000005,26.575800000000001,135.67500000000001,11.136900000000001,-37.0946,15.131
2494.0,118.836,69.234099999999998,5.2175700000000003,118.593,12.6739,-33.926200000000001,12.8193
2495.0,118.042,89.340100000000007,28.583300000000001,145.50200000000001,13.9681,-30.360700000000001,10.4169
2496.0,117.16,64.789299999999997,6.9483800000000002,126.65900000000001,15.0139,-26.513400000000001,7.9448699999999999
2497.0,104.28100000000001,88.083500000000001,4.0846400000000003,19.210100000000001,-29.399999999999999,27.409199999999998,2.1296400000000002
2498.0,105.874,114.836,25.2667,39.152999999999999,-29.207100000000001,23.220600000000001,4.5041700000000002
2499.0,107.739,100.977,6.1913400000000003,19.2121,-29.010999999999999,18.523099999999999,6.6787700000000001
2500.0,108.819,123.88800000000001,25.067499999999999,38.133099999999999,-28.4194,13.2845,9.0201899999999995
2501.0,109.54900000000001,108.71299999999999,6.9097099999999996,20.683499999999999,-27.577100000000002,7.8685700000000001,11.2902
2502.0,109.956,131.19999999999999,27.357299999999999,42.640099999999997,-26.458100000000002,2.4206099999999999,13.4503
2503.0,110.44199999999999,113.111,7.9378500000000001,25.169699999999999,-25.2117,-3.00658,15.462400000000001
2504.0,110.864,131.58600000000001,25.735299999999999,45.583100000000002,-23.727599999999999,-8.3498800000000006,17.275600000000001
2505.0,111.379,112.227,6.1910699999999999,29.419499999999999,-22.044899999999998,-13.6181,18.892499999999998
2506.0,111.813,126.349,20.7789,48.055500000000002,-20.131900000000002,-18.629799999999999,20.294
2507.0,112.191,108.98999999999999,4.5119999999999996,36.491,-18.009899999999998,-23.352599999999999,21.451799999999999
2508.0,112.492,126.678,23.8293,61.167200000000001,-15.7059,-27.607299999999999,22.331
2509.0,112.759,105.431,4.7804000000000002,47.952800000000003,-13.3239,-31.384499999999999,22.935700000000001
2510.0,112.809,119.605,21.707699999999999,70.965500000000006,-10.786300000000001,-34.507899999999999,23.2118
2511.0,112.81,99.879099999999994,5.3623700000000003,61.012,-8.1152599999999993,-37.097700000000003,23.3047
2512.0,112.971,111.289,20.057400000000001,82.172499999999999,-5.4739399999999998,-39.007399999999997,23.044899999999998
2513.0,112.807,89.251499999999993,1.5484100000000001,70.313199999999995,-3.0594999999999999,-40.0672,22.298500000000001
2514.0,112.658,105.908,22.171399999999998,97.640000000000001,-0.72850599999999999,-40.589599999999997,21.290400000000002
2515.0,112.51600000000001,85.008499999999998,5.1383700000000001,86.884500000000003,1.59762,-40.448,20.094999999999999
2516.0,112.203,99.027000000000001,23.067299999999999,110.809,3.7629700000000001,-39.558100000000003,18.697099999999999
2517.0,111.877,76.896799999999999,4.7168400000000004,98.062299999999993,5.7855699999999999,-38.1126,17.055900000000001
2518.0,111.476,90.575999999999993,22.0136,120.467,7.60609,-36.108899999999998,15.256399999999999
2519.0,111.005,65.879000000000005,0.72910399999999997,103.73699999999999,9.2260100000000005,-33.624699999999997,13.2997
2520.0,110.45,83.142499999999998,21.1374,128.06999999999999,10.6226,-30.729199999999999,11.2378
2521.0,109.78100000000001,59.247799999999998,0.094042000000000001,110.27500000000001,11.8026,-27.4772,9.0876199999999994
2522.0,109.03,77.761200000000002,21.153099999999998,133.89400000000001,12.7532,-23.973700000000001,6.8900399999999999
2523.0,96.167599999999993,111.60299999999999,32.822299999999998,48.742800000000003,-27.041399999999999,24.755800000000001,1.85934
2524.0,98.205500000000001,96.511600000000001,12.265000000000001,27.0928,-27.048300000000001,21.089300000000001,3.9601899999999999
2525.0,99.739599999999996,118.702,30.173999999999999,43.619300000000003,-26.916899999999998,16.7866,5.8106099999999996
2526.0,100.60899999999999,103.45399999999999,11.356,24.470500000000001,-26.211500000000001,12.008800000000001,7.7960900000000004
2527.0,101.401,122.521,27.4587,41.5242,-25.444299999999998,6.9208499999999997,9.9790299999999998
2528.0,102.146,104.149,6.9685699999999997,22.538699999999999,-24.6143,2.0242800000000001,11.981299999999999
2529.0,102.383,123.179,24.864999999999998,42.547499999999999,-23.5258,-2.88523,13.625400000000001
2530.0,102.77200000000001,106.663,7.6665799999999997,28.010400000000001,-22.231999999999999,-7.9435500000000001,15.164899999999999
2531.0,103.227,124.794,25.624300000000002,49.1327,-20.703700000000001,-12.6982,16.635999999999999
2532.0,103.559,110.104,11.4216,38.818800000000003,-18.991,-17.249199999999998,17.931899999999999
2533.0,103.89700000000001,124.062,26.305800000000001,58.171700000000001,-17.060300000000002,-21.477399999999999,18.9816
2534.0,104.098,103.82599999999999,7.68093,44.5246,-14.9453,-25.318200000000001,19.8672
2535.0,104.458,118.998,24.761900000000001,66.931399999999996,-12.7371,-28.760999999999999,20.4802
2536.0,104.46299999999999,100.886,8.8627199999999995,56.871299999999998,-10.4506,-31.347799999999999,20.6694
2537.0,104.402,112.229,23.369800000000001,77.686999999999998,-8.2282700000000002,-33.660200000000003,20.639199999999999
2538.0,104.61199999999999,92.938199999999995,6.9043700000000001,66.927999999999997,-5.9212100000000003,-35.451700000000002,20.2271
2539.0,104.395,109.133,26.207599999999999,92.114800000000002,-3.5667900000000001,-36.271599999999999,19.6494
2540.0,104.458,86.929500000000004,7.5989199999999997,79.840900000000005,-1.4084099999999999,-36.751800000000003,18.904499999999999
2541.0,104.399,99.130899999999997,23.1145,101.04600000000001,0.67164100000000004,-36.603299999999997,17.801500000000001
2542.0,104.129,79.084500000000006,6.53287,89.996200000000002,2.6617199999999999,-35.718800000000002,16.5291
2543.0,103.943,93.010199999999998,23.707799999999999,112.32599999999999,4.4827500000000002,-34.396000000000001,15.057
2544.0,103.64,73.949299999999994,7.7871800000000002,101.10299999999999,6.1362300000000003,-32.536200000000001,13.4299
2545.0,103.31100000000001,91.329999999999998,28.103200000000001,125.61499999999999,7.5929599999999997,-30.278099999999998,11.6777
2546.0,102.878,70.040700000000001,9.5240500000000008,110.63800000000001,8.8575800000000005,-27.638400000000001,9.8260000000000005
2547.0,102.349,88.029600000000002,29.972100000000001,134.06399999999999,9.9172499999999992,-24.696999999999999,7.9132600000000002
2548.0,101.70699999999999,66.902500000000003,11.0465,117.45699999999999,10.7796,-21.525700000000001,5.9512200000000002
2549.0,88.960300000000004,78.316500000000005,4.5768599999999999,21.1188,-25.008600000000001,22.613,2.0175800000000002
2550.0,90.681700000000006,102.456,23.7469,39.2727,-24.971299999999999,19.114999999999998,3.75074
2551.0,92.652299999999997,90.641900000000007,6.9710999999999999,22.375699999999998,-24.961200000000002,15.075200000000001,5.3006700000000002
2552.0,93.506200000000007,112.315,25.201000000000001,41.332700000000003,-24.529199999999999,10.794600000000001,6.95167
2553.0,94.149199999999993,97.359399999999994,8.0324600000000004,23.971399999999999,-23.8736,6.0678799999999997,8.8356700000000004
2554.0,94.671000000000006,116.009,25.184699999999999,41.345399999999998,-23.032499999999999,1.72858,10.324199999999999
2555.0,94.751800000000003,101.71299999999999,9.8253900000000005,28.010100000000001,-21.827400000000001,-2.8152499999999998,11.8574
2556.0,95.357600000000005,119.21299999999999,26.5776,47.447200000000002,-20.805800000000001,-7.47905,13.454599999999999
2557.0,95.6738,101.613,8.8237799999999993,32.852899999999998,-19.415500000000002,-11.724600000000001,14.748799999999999
2558.0,95.982799999999997,114.563,22.213999999999999,49.930799999999998,-17.8673,-15.873200000000001,15.9389
2559.0,96.226699999999994,99.110399999999998,7.5575700000000001,39.5229,-16.077200000000001,-19.5945,16.883199999999999
2560.0,96.427700000000002,114.8,24.757000000000001,61.434399999999997,-14.2575,-23.110499999999998,17.660900000000002
2561.0,96.682599999999994,95.133200000000002,6.6500199999999996,48.2896,-12.2592,-26.078399999999998,18.052700000000002
2562.0,96.678899999999999,109.238,22.911200000000001,69.919499999999999,-10.036099999999999,-28.409099999999999,18.433599999999998
2563.0,96.955100000000002,91.926400000000001,8.0221099999999996,60.7851,-8.0091000000000001,-30.4223,18.569400000000002
2564.0,97.047600000000003,102.99299999999999,21.296199999999999,79.707800000000006,-6.05715,-31.736599999999999,18.002800000000001
2565.0,96.911299999999997,83.994,5.3456700000000001,69.237799999999993,-3.9490500000000002,-32.622799999999998,17.411799999999999
2566.0,96.965699999999998,99.404700000000005,23.895700000000001,93.133399999999995,-1.94781,-33.079799999999999,16.7407
2567.0,96.913499999999999,81.225399999999993,8.6410800000000005,83.194100000000006,-0.0818107,-32.823099999999997,15.757300000000001
2568.0,96.811999999999998,94.404200000000003,24.7349,104.371,1.73607,-32.035400000000003,14.573600000000001
2569.0,96.692599999999999,75.153199999999998,8.2734699999999997,92.624300000000005,3.37174,-30.778700000000001,13.250999999999999
2570.0,96.540000000000006,88.055700000000002,23.84,112.51000000000001,4.8650099999999998,-29.1036,11.7743
2571.0,96.326700000000002,66.506,4.7843900000000001,97.289100000000005,6.1753799999999996,-27.0489,10.203900000000001
2572.0,96.0351,82.450500000000005,23.0288,118.837,7.30755,-24.674099999999999,8.5455299999999994
2573.0,95.645399999999995,61.5839,4.2339599999999997,102.77,8.2568599999999996,-22.028099999999998,6.8413399999999998
2574.0,95.133099999999999,78.656199999999998,23.1616,123.81399999999999,9.0215399999999999,-19.172999999999998,5.1123700000000003
2575.0,82.186899999999994,95.708299999999994,26.773499999999999,43.7014,-22.8523,20.878900000000002,1.6899500000000001
2576.0,83.458699999999993,86.843100000000007,13.013500000000001,30.123899999999999,-22.858899999999998,17.194700000000001,3.1869299999999998
2577.0,85.816900000000004,105.53,27.286100000000001,43.063899999999997,-23.1755,13.1168,5.7875399999999999
2578.0,87.448400000000007,90.668199999999999,9.6714800000000007,24.809000000000001,-22.949999999999999,10.1997,7.9892599999999998
2579.0,87.235200000000006,108.721,25.5899,42.478700000000003,-22.185400000000001,6.3803000000000001,8.5500600000000002
2580.0,87.758300000000006,94.280199999999994,8.9188700000000001,27.4498,-21.582100000000001,1.19459,9.1605100000000004
2581.0,88.385599999999997,112.113,25.295300000000001,45.311799999999998,-20.4818,-2.6834799999999999,10.516299999999999
2582.0,88.4358,96.720100000000002,9.9679599999999997,32.0261,-19.5489,-6.8689799999999996,12.027200000000001
2583.0,88.735200000000006,113.134,26.214300000000001,50.985900000000001,-18.189900000000002,-10.723699999999999,13.175599999999999
2584.0,88.966999999999999,99.794499999999999,13.2432,41.640300000000003,-16.761700000000001,-14.4434,14.2209
2585.0,89.199700000000007,112.86499999999999,27.0185,59.365699999999997,-15.160600000000001,-17.7654,15.067600000000001
2586.0,89.467699999999994,94.593400000000003,9.9014299999999995,46.797699999999999,-13.534000000000001,-20.848299999999998,15.724399999999999
2587.0,89.669300000000007,109.301,25.863,67.526799999999994,-11.7059,-23.3414,16.057700000000001
2588.0,89.614199999999997,91.812299999999993,10.6046,57.222299999999997,-9.8309200000000008,-25.554500000000001,16.3246
2589.0,89.892499999999998,101.94799999999999,22.677,74.067800000000005,-7.9347300000000001,-27.362100000000002,16.275099999999998
2590.0,89.869399999999999,88.839399999999998,11.585800000000001,68.018100000000004,-5.9635100000000003,-28.3261,16.0166
2591.0,90.063599999999994,102.431,27.786200000000001,89.662700000000001,-4.1783000000000001,-29.1633,15.554
2592.0,90.154200000000003,82.462000000000003,10.210800000000001,76.948599999999999,-2.4258899999999999,-29.466799999999999,14.7532
2593.0,90.109099999999998,94.528599999999997,24.866399999999999,96.497699999999995,-0.69910000000000005,-29.136199999999999,13.8751
2594.0,90.178700000000006,76.850200000000001,9.5512599999999992,85.819699999999997,0.90856300000000001,-28.435199999999998,12.790699999999999
2595.0,90.138999999999996,90.204800000000006,25.252099999999999,105.834,2.3887100000000001,-27.251000000000001,11.5723
2596.0,90.146199999999993,73.539400000000001,10.775,95.310400000000001,3.7065999999999999,-25.760100000000001,10.2402
2597.0,90.047499999999999,89.752200000000002,29.042999999999999,117.081,4.87371,-23.891500000000001,8.8177000000000003
2598.0,89.930400000000006,71.254499999999993,12.4262,103.505,5.8709100000000003,-21.7883,7.3418999999999999
2599.0,89.660200000000003,87.820800000000006,30.683800000000002,124.239,6.7116600000000002,-19.409700000000001,5.8281900000000002
2600.0,89.332400000000007,69.321700000000007,13.7018,109.22,7.3916000000000004,-16.890699999999999,4.31454
2601.0,75.969099999999997,68.413899999999998,2.46705,21.825500000000002,-20.7699,18.4969,1.1003700000000001
2602.0,77.602199999999996,95.292400000000001,25.380400000000002,44.335999999999999,-21.117899999999999,15.6473,3.04982
2603.0,78.769599999999997,77.535799999999995,4.8441099999999997,21.111599999999999,-21.747599999999998,10.8271,4.7572900000000002
2604.0,81.050899999999999,83.841899999999995,7.6209100000000003,22.7608,-21.261600000000001,8.8531999999999993,5.5698600000000003
2605.0,80.179299999999998,84.037199999999999,6.4438800000000001,24.667100000000001,-20.1006,6.6737599999999997,6.93262
2606.0,81.264799999999994,108.021,28.605699999999999,48.033099999999997,-20.1691,0.488842,8.9724199999999996
2607.0,82.559700000000007,91.088800000000006,9.6765699999999999,29.872499999999999,-19.2165,-2.31141,10.0105
2608.0,81.808800000000005,107.789,26.739000000000001,49.825400000000002,-18.170100000000001,-6.0531699999999997,10.9742
2609.0,82.379999999999995,91.939599999999999,10.3786,36.311799999999998,-17.0703,-9.7795299999999994,11.7723
2610.0,82.507400000000004,104.307,23.0716,52.367800000000003,-15.701599999999999,-12.9786,12.7141
2611.0,82.792199999999994,90.162300000000002,9.5230300000000003,42.557200000000002,-14.332100000000001,-15.967499999999999,13.457800000000001
2612.0,82.988399999999999,105.03400000000001,25.323,62.506,-12.739000000000001,-18.605699999999999,14.0139
2613.0,83.168800000000005,88.723500000000001,10.2525,51.746400000000001,-11.103199999999999,-20.8309,14.399699999999999
2614.0,83.328900000000004,100.797,23.882400000000001,70.207599999999999,-9.5249799999999993,-22.679600000000001,14.4879
2615.0,83.570599999999999,85.662899999999993,10.2555,61.316499999999998,-7.9042500000000002,-24.122699999999998,14.2334
2616.0,83.543199999999999,96.407399999999996,22.979500000000002,78.420299999999997,-6.1189999999999998,-25.070499999999999,13.9893
2617.0,83.720799999999997,79.782399999999996,8.5441900000000004,68.588399999999993,-4.4413600000000004,-25.744900000000001,13.6486
2618.0,83.914599999999993,93.991699999999994,24.695900000000002,89.330600000000004,-2.8283,-25.904,12.9611
2619.0,84.008399999999995,78.3626,11.1203,80.214600000000004,-1.2690600000000001,-25.584499999999998,12.1022
2620.0,84.139799999999994,90.743600000000001,25.441500000000001,98.731899999999996,0.15500700000000001,-24.895900000000001,11.1082
2621.0,84.266000000000005,74.260199999999998,10.8253,88.049899999999994,1.4664200000000001,-23.847899999999999,9.9875600000000002
2622.0,84.376199999999997,86.346599999999995,24.671099999999999,105.47499999999999,2.6344099999999999,-22.494199999999999,8.7758699999999994
2623.0,84.450299999999999,67.8596,7.8123500000000003,91.815100000000001,3.6566800000000002,-20.856000000000002,7.50162
2624.0,84.461299999999994,82.406800000000004,23.837399999999999,110.605,4.5366299999999997,-18.976900000000001,6.17835
2625.0,84.390799999999999,64.563100000000006,7.3028599999999999,96.364099999999993,5.2599,-16.901900000000001,4.8585900000000004
2626.0,84.196399999999997,80.049999999999997,23.916799999999999,114.771,5.8591199999999999,-14.645099999999999,3.5197099999999999
2627.0,70.602800000000002,90.0518,27.439900000000002,47.613999999999997,-19.219999999999999,16.354199999999999,1.82907
2628.0,72.138599999999997,79.106800000000007,13.5219,32.688400000000001,-19.563300000000002,14.3523,2.9518900000000001
2629.0,73.339100000000002,94.514300000000006,25.448799999999999,44.745699999999999,-20.427900000000001,9.68858,3.4373800000000001
2630.0,75.758899999999997,76.270499999999998,2.57979,23.252199999999998,-20.0366,7.3748699999999996,3.5377700000000001
2631.0,74.756500000000003,98.018199999999993,24.0946,45.373800000000003,-18.808199999999999,5.4454099999999999,5.5935100000000002
2632.0,75.200199999999995,85.236199999999997,11.0534,31.4422,-18.903199999999998,0.25869799999999998,7.67204
2633.0,76.3506,96.626300000000001,20.5152,41.9908,-18.155200000000001,-2.2947099999999998,8.2707899999999999
2634.0,75.848500000000001,87.156400000000005,10.935600000000001,35.492100000000001,-16.880199999999999,-5.3069100000000002,9.5351099999999995
2635.0,76.469099999999997,102.849,26.342099999999999,53.795499999999997,-16.047599999999999,-8.7948400000000007,10.587199999999999
2636.0,76.715900000000005,90.679500000000004,14.195,44.707799999999999,-14.7875,-11.5306,11.3034
2637.0,76.872699999999995,102.779,26.908300000000001,60.981000000000002,-13.5136,-14.1439,11.961499999999999
2638.0,77.107500000000002,87.043800000000005,11.8735,49.724899999999998,-12.0952,-16.4176,12.383800000000001
2639.0,77.272900000000007,100.26000000000001,26.181899999999999,68.039500000000004,-10.6777,-18.351900000000001,12.646699999999999
2640.0,77.529399999999995,85.704400000000007,12.779199999999999,58.846400000000003,-9.1489200000000004,-19.914100000000001,12.769399999999999
2641.0,77.719099999999997,97.152199999999993,25.617100000000001,75.945599999999999,-7.5951300000000002,-21.0687,12.722300000000001
2642.0,77.925600000000003,83.715900000000005,13.6883,68.283900000000003,-6.11714,-21.903600000000001,12.3759
2643.0,78.088399999999993,96.212100000000007,27.8127,86.587299999999999,-4.6581099999999998,-22.354099999999999,11.843400000000001
2644.0,78.304000000000002,79.2624,12.4847,75.404600000000002,-3.2299000000000002,-22.4114,11.208299999999999
2645.0,78.548299999999998,90.691800000000001,25.451599999999999,92.393600000000006,-1.8597900000000001,-22.097200000000001,10.3987
2646.0,78.774699999999996,75.590299999999999,11.8665,82.598299999999995,-0.598935,-21.440899999999999,9.4661100000000005
2647.0,79.043999999999997,88.210400000000007,25.899699999999999,100.17,0.5393,-20.516100000000002,8.4348200000000002
2648.0,79.285899999999998,73.917199999999994,12.9328,90.442700000000002,1.55179,-19.3034,7.3296400000000004
2649.0,79.536600000000007,88.951400000000007,29.1571,109.583,2.4301400000000002,-17.880800000000001,6.1780299999999997
2650.0,79.705100000000002,73.1691,14.4297,97.375900000000001,3.1795,-16.218299999999999,5.0101000000000004
2651.0,79.8583,88.223299999999995,30.382300000000001,115.47799999999999,3.8047800000000001,-14.430899999999999,3.8438400000000001
2652.0,79.826700000000002,72.457400000000007,15.3453,102.068,4.3136700000000001,-12.444100000000001,2.7176200000000001
2653.0,65.436099999999996,61.764499999999998,2.9133300000000002,22.799499999999998,-17.666899999999998,14.712400000000001,1.5879799999999999
2654.0,66.947900000000004,83.709699999999998,21.7943,41.858600000000003,-18.043600000000001,12.880599999999999,2.14297
2655.0,68.639600000000002,75.302999999999997,9.9405300000000008,30.1355,-18.735399999999998,9.3587000000000007,3.4400400000000002
2656.0,70.006500000000003,91.405699999999996,23.212700000000002,44.164400000000001,-18.561299999999999,6.9365300000000003,4.5643599999999998
2657.0,69.916899999999998,80.259299999999996,10.9678,32.576799999999999,-18.003799999999998,4.1156699999999997,5.6038300000000003
2658.0,70.252600000000001,96.077799999999996,25.706199999999999,48.199199999999998,-17.650099999999998,0.61303700000000005,6.44191
2659.0,70.845200000000006,83.003399999999999,11.364699999999999,35.928400000000003,-17.0608,-2.1998899999999999,7.2007300000000001
2660.0,70.864900000000006,97.084100000000007,25.018699999999999,51.741100000000003,-15.9186,-4.84626,8.3549100000000003
2661.0,71.011799999999994,83.760400000000004,11.8775,40.887500000000003,-15.019500000000001,-7.7013499999999997,9.3910499999999999
2662.0,71.404799999999994,94.799499999999995,22.788699999999999,54.777999999999999,-13.972899999999999,-10.127599999999999,9.9986999999999995
2663.0,71.546000000000006,82.516900000000007,10.9536,46.292999999999999,-12.757099999999999,-12.338699999999999,10.5307
2664.0,71.825199999999995,96.062100000000001,25.045400000000001,63.856299999999997,-11.5435,-14.262700000000001,10.8841
2665.0,72.052899999999994,81.802599999999998,11.577299999999999,54.100000000000001,-10.2255,-15.8767,11.077400000000001
2666.0,72.276700000000005,93.720600000000005,24.4756,70.751599999999996,-8.9007000000000005,-17.194600000000001,11.0655
2667.0,72.456299999999999,80.398200000000003,12.2989,62.359099999999998,-7.5707800000000001,-18.146000000000001,10.888199999999999
2668.0,72.75,90.7547,23.783999999999999,77.701300000000003,-6.2459800000000003,-18.771000000000001,10.602
2669.0,73.062100000000001,76.150400000000005,10.320499999999999,68.101100000000002,-4.91364,-19.052800000000001,10.134600000000001
2670.0,73.368300000000005,89.630200000000002,24.976500000000001,86.487499999999997,-3.6503999999999999,-19.023,9.4960299999999993
2671.0,73.697299999999998,76.057100000000005,12.5349,77.619699999999995,-2.4628100000000002,-18.689299999999999,8.7262599999999999
2672.0,74.064400000000006,88.096199999999996,25.647099999999998,94.117199999999997,-1.37341,-18.0991,7.8527100000000001
2673.0,74.447699999999998,73.801100000000005,12.3466,83.970299999999995,-0.39141500000000001,-17.265799999999999,6.8959299999999999
2674.0,74.859999999999999,85.542699999999996,24.9831,99.520899999999997,0.46940300000000001,-16.2258,5.8921400000000004
2675.0,75.253200000000007,69.514799999999994,9.72776,86.887299999999996,1.2202,-14.9779,4.8518999999999997
2676.0,75.649000000000001,83.137900000000002,23.979700000000001,103.47499999999999,1.84385,-13.569000000000001,3.82206
2677.0,75.974900000000005,67.751999999999995,9.0555199999999996,90.514799999999994,2.3644400000000001,-12.0063,2.7954599999999998
2678.0,76.264499999999998,82.106099999999998,23.708300000000001,106.807,2.76295,-10.332700000000001,1.84318
2679.0,61.022199999999998,80.560699999999997,24.102599999999999,46.264000000000003,-16.290400000000002,12.8895,0.75340700000000005
2680.0,62.5961,71.853399999999993,12.737500000000001,34.4726,-16.767399999999999,11.3086,1.72882
2681.0,63.7575,89.531300000000002,27.927299999999999,48.621200000000002,-17.108699999999999,8.4700100000000003,2.7810899999999998
2682.0,64.394099999999995,77.564999999999998,14.266,35.101900000000001,-17.074300000000001,6.0944900000000004,3.5859700000000001
2683.0,64.944400000000002,91.543999999999997,26.699100000000001,48.914299999999997,-16.9438,3.3302900000000002,4.6686699999999997
2684.0,65.558000000000007,78.360600000000005,12.0037,36.008600000000001,-16.420400000000001,0.70870999999999995,5.7986199999999997
2685.0,65.758099999999999,92.546300000000002,25.494800000000001,51.534399999999998,-15.753299999999999,-1.9042300000000001,6.8504100000000001
2686.0,66.120500000000007,79.912499999999994,12.205299999999999,40.603099999999998,-15.022,-4.3601900000000002,7.5263099999999996
2687.0,66.278400000000005,93.363600000000005,25.479399999999998,56.438499999999998,-14.116099999999999,-6.6554900000000004,8.1046399999999998
2688.0,66.574299999999994,82.632599999999996,14.7735,48.526000000000003,-13.2043,-8.7438500000000001,8.6801499999999994
2689.0,66.859800000000007,93.892799999999994,26.215900000000001,63.0777,-12.148199999999999,-10.5769,9.0851000000000006
2690.0,67.121899999999997,80.162300000000002,12.918100000000001,52.987699999999997,-11.0556,-12.1594,9.3491300000000006
2691.0,67.403800000000004,92.537700000000001,25.8584,69.259900000000002,-9.9099699999999995,-13.4742,9.4545999999999992
2692.0,67.689599999999999,79.649799999999999,13.667999999999999,60.484099999999998,-8.7385000000000002,-14.4941,9.4203399999999995
2693.0,68.012200000000007,90.755200000000002,25.5197,75.813100000000006,-7.5584800000000003,-15.2151,9.2300500000000003
2694.0,68.333200000000005,79.096599999999995,14.6784,68.402600000000007,-6.3943399999999997,-15.656000000000001,8.8742300000000007
2695.0,68.688900000000004,91.134299999999996,27.532499999999999,84.630399999999995,-5.2618799999999997,-15.8188,8.3777799999999996
2696.0,69.089799999999997,76.600899999999996,13.7742,74.158299999999997,-4.1711999999999998,-15.7171,7.7548700000000004
2697.0,69.526600000000002,87.8001,25.7028,89.229500000000002,-3.1574300000000002,-15.376899999999999,7.0195100000000004
2698.0,70.013499999999993,74.829300000000003,13.388999999999999,79.886700000000005,-2.2355399999999999,-14.8385,6.1949800000000002
2699.0,70.538600000000002,87.024100000000004,26.16,95.4465,-1.41781,-14.1074,5.3106
2700.0,71.108999999999995,74.701999999999998,14.302199999999999,86.182699999999997,-0.70598499999999997,-13.2155,4.3843899999999998
2701.0,71.697299999999998,88.915400000000005,28.841699999999999,103.09999999999999,-0.10481,-12.1456,3.45059
2702.0,72.318700000000007,75.331699999999998,15.4231,91.837100000000007,0.39713799999999999,-10.956799999999999,2.5217000000000001
2703.0,72.912199999999999,89.444400000000002,29.521799999999999,107.80200000000001,0.79410599999999998,-9.6329200000000004,1.64897
2704.0,73.472300000000004,75.5107,15.460599999999999,95.319800000000001,1.10006,-8.2568099999999998,0.83080299999999996
2705.0,57.313299999999998,61.083500000000001,7.2080399999999996,31.433199999999999,-15.334300000000001,11.418699999999999,1.1473100000000001
2706.0,58.555999999999997,78.5608,22.434200000000001,45.396700000000003,-15.763999999999999,9.7812300000000008,1.59209
2707.0,59.585999999999999,69.448599999999999,11.1195,33.4544,-15.960100000000001,7.56243,2.3373699999999999
2708.0,60.189700000000002,83.890799999999999,23.988299999999999,46.936300000000003,-16.0197,5.2441700000000004,3.1688000000000001
2709.0,60.6556,73.475200000000001,12.1462,36.383800000000001,-15.7339,2.84083,4.0819000000000001
2710.0,61.057099999999998,87.730699999999999,25.2759,51.241399999999999,-15.2996,0.50281600000000004,4.8934699999999998
2711.0,61.343800000000002,75.760499999999993,12.566599999999999,40.593499999999999,-14.7363,-1.7456199999999999,5.6153700000000004
2712.0,61.7239,88.358999999999995,24.631599999999999,55.032600000000002,-14.128299999999999,-3.7822499999999999,6.32653
2713.0,62.102600000000002,76.085800000000006,11.995100000000001,44.997999999999998,-13.350300000000001,-5.6855200000000004,6.91493
2714.0,62.392699999999998,86.561300000000003,22.4255,58.105400000000003,-12.508699999999999,-7.3889399999999998,7.3384400000000003
2715.0,62.726199999999999,75.565700000000007,11.520099999999999,50.0441,-11.6128,-8.8741800000000008,7.6398099999999998
2716.0,63.057000000000002,88.156400000000005,24.350100000000001,65.8309,-10.6568,-10.121600000000001,7.80966
2717.0,63.403100000000002,75.717299999999994,12.2608,56.767200000000003,-9.6688100000000006,-11.129899999999999,7.8428399999999998
2718.0,63.75,87.282700000000006,24.2653,71.818600000000004,-8.6534800000000001,-11.890599999999999,7.7337999999999996
2719.0,64.105800000000002,75.532200000000003,13.016999999999999,63.601300000000002,-7.6383799999999997,-12.402900000000001,7.4918899999999997
2720.0,64.519400000000005,85.698999999999998,23.657399999999999,77.272300000000001,-6.6376600000000003,-12.6622,7.1232499999999996
2721.0,64.976799999999997,73.123199999999997,11.5253,68.110299999999995,-5.6680799999999998,-12.6937,6.6223200000000002
2722.0,65.469999999999999,85.938100000000006,24.745000000000001,84.174999999999997,-4.7523499999999999,-12.5244,6.0046200000000001
2723.0,66.018299999999996,74.3018,13.4505,75.595799999999997,-3.9084599999999998,-12.1816,5.2956099999999999
2724.0,66.626000000000005,85.993099999999998,25.401900000000001,90.117000000000004,-3.1502500000000002,-11.6884,4.5176699999999999
2725.0,67.299099999999996,73.772300000000001,13.3445,80.492599999999996,-2.4865699999999999,-11.059699999999999,3.6926399999999999
2726.0,68.031099999999995,85.179400000000001,24.792300000000001,94.225499999999997,-1.91761,-10.2995,2.8437299999999999
2727.0,68.830500000000001,71.439400000000006,10.935,82.515100000000004,-1.44614,-9.4141300000000001,1.99129
2728.0,69.680099999999996,84.230099999999993,23.427700000000002,96.981800000000007,-1.0740700000000001,-8.4248600000000007,1.1612
2729.0,70.569000000000003,71.041399999999996,9.7775800000000004,85.127499999999998,-0.81411900000000004,-7.3687500000000004,0.391905
2730.0,71.394000000000005,84.545100000000005,22.7319,99.591800000000006,-0.66343799999999997,-6.2766799999999998,-0.26984799999999998
2731.0,53.576300000000003,75.822999999999993,24.923500000000001,50.4056,-14.293200000000001,10.192500000000001,0.96585100000000002
2732.0,54.943800000000003,67.591800000000006,14.0732,38.773699999999998,-14.7882,8.2812000000000001,1.2381899999999999
2733.0,55.984499999999997,81.559600000000003,26.127500000000001,50.468400000000003,-15.029299999999999,6.5896999999999997,1.86375
2734.0,56.183,71.028800000000004,14.4567,39.476999999999997,-14.8988,4.4133100000000001,2.6589700000000001
2735.0,56.875100000000003,83.500399999999999,25.388100000000001,51.972099999999998,-14.661799999999999,2.3721399999999999,3.3715600000000001
2736.0,57.321599999999997,71.407799999999995,12.316000000000001,40.905299999999997,-14.333399999999999,0.37256,4.0507299999999997
2737.0,57.761800000000001,84.159099999999995,24.304500000000001,54.912199999999999,-13.867100000000001,-1.512,4.6649399999999996
2738.0,58.077800000000003,72.760800000000003,12.4903,45.326099999999997,-13.298,-3.2122799999999998,5.1600099999999998
2739.0,58.457299999999996,85.344399999999993,24.7849,59.966500000000003,-12.671099999999999,-4.7665100000000002,5.5623399999999998
2740.0,58.820300000000003,75.246700000000004,14.560600000000001,52.274900000000002,-11.9504,-6.0985800000000001,5.8700999999999999
2741.0,59.212000000000003,86.242800000000003,25.547000000000001,65.863600000000005,-11.1851,-7.2554699999999999,6.0678299999999998
2742.0,59.604700000000001,73.927899999999994,13.3231,56.314900000000002,-10.3781,-8.1750699999999998,6.1475099999999996
2743.0,60.019199999999998,85.840900000000005,25.395600000000002,71.086299999999994,-9.5413999999999994,-8.9008699999999994,6.1107300000000002
2744.0,60.447899999999997,74.109899999999996,13.859,62.253700000000002,-8.6932200000000002,-9.3916199999999996,5.95059
2745.0,60.915500000000002,85.404799999999994,25.347200000000001,76.428399999999996,-7.84687,-9.6832899999999995,5.6655199999999999
2746.0,61.397199999999998,74.974800000000002,15.102600000000001,68.783900000000003,-7.0180899999999999,-9.7727000000000004,5.2596999999999996
2747.0,61.926600000000001,86.903300000000002,27.169499999999999,83.360699999999994,-6.2222299999999997,-9.6955899999999993,4.7497600000000002
2748.0,62.517899999999997,74.305400000000006,14.628299999999999,73.229699999999994,-5.4780499999999996,-9.4616699999999998,4.1460299999999997
2749.0,63.1768,85.616600000000005,25.913699999999999,86.805800000000005,-4.8038800000000004,-9.1139399999999995,3.46563
2750.0,63.9116,74.307699999999997,14.480600000000001,77.553899999999999,-4.2112699999999998,-8.66235,2.7291799999999999
2751.0,64.730500000000006,86.408100000000005,26.343599999999999,91.495800000000003,-3.7080000000000002,-8.12547,1.95794
2752.0,65.647800000000004,75.634900000000002,15.1784,82.334400000000002,-3.29386,-7.4857399999999998,1.1653
2753.0,66.676100000000005,89.325599999999994,28.2852,97.365499999999997,-2.97641,-6.7667999999999999,0.375691
2754.0,67.813599999999994,77.633799999999994,15.797599999999999,86.723600000000005,-2.7555000000000001,-5.9736000000000002,-0.38154700000000003
2755.0,68.998999999999995,90.947100000000006,28.202999999999999,100.842,-2.6494599999999999,-5.1966200000000002,-1.03688
2756.0,70.078299999999999,78.787599999999998,15.187799999999999,89.300799999999995,-2.6543899999999998,-4.4273800000000003,-1.5194099999999999
2757.0,50.542900000000003,56.317900000000002,7.1979199999999999,34.588299999999997,-13.151999999999999,8.5235000000000003,0.20383799999999999
2758.0,51.945500000000003,73.233400000000003,22.016300000000001,48.788600000000002,-13.8971,7.0227399999999998,0.862981
2759.0,52.855800000000002,63.131100000000004,10.224399999999999,37.323999999999998,-14.149100000000001,5.4254100000000003,1.30158
2760.0,53.2849,76.593500000000006,22.397300000000001,50.859999999999999,-13.9757,3.5543399999999998,1.88287
2761.0,53.828099999999999,66.3767,11.092000000000001,40.761200000000002,-13.8017,1.8692800000000001,2.5246400000000002
2762.0,54.136699999999998,79.501999999999995,23.5318,54.715200000000003,-13.4458,0.247664,3.0817199999999998
2763.0,54.570900000000002,68.751099999999994,12.1534,45.169400000000003,-13.052899999999999,-1.34013,3.49946
2764.0,54.988599999999998,80.348799999999997,23.355399999999999,58.513199999999998,-12.6027,-2.6797900000000001,3.8800500000000002
2765.0,55.412599999999998,69.203400000000002,11.9382,49.331000000000003,-12.0655,-3.8888799999999999,4.1727400000000001
2766.0,55.844299999999997,79.365700000000004,21.921500000000002,61.633699999999997,-11.4651,-4.8818099999999998,4.3620700000000001
2767.0,56.298999999999999,69.369100000000003,11.8348,53.911999999999999,-10.834099999999999,-5.7164200000000003,4.4576099999999999
2768.0,56.770000000000003,81.210599999999999,23.626100000000001,68.101600000000005,-10.167899999999999,-6.3365499999999999,4.4450200000000004
2769.0,57.271000000000001,70.311999999999998,12.706,59.5794,-9.4925300000000004,-6.7812700000000001,4.3324100000000003
2770.0,57.782800000000002,81.683899999999994,24.057200000000002,73.283799999999999,-8.8043800000000001,-7.0299699999999996,4.1111399999999998
2771.0,58.314399999999999,71.103499999999997,13.444900000000001,64.945599999999999,-8.1225699999999996,-7.1191599999999999,3.7951100000000002
2772.0,58.889000000000003,81.296899999999994,23.540299999999998,77.241900000000001,-7.4576099999999999,-7.0436100000000001,3.3747500000000001
2773.0,59.5197,70.482699999999994,12.549799999999999,68.350200000000001,-6.83284,-6.8497000000000003,2.8600599999999998
2774.0,60.204099999999997,82.781000000000006,24.585699999999999,82.368799999999993,-6.25739,-6.5537799999999997,2.2612199999999998
2775.0,60.974899999999998,72.798900000000003,14.2286,73.891599999999997,-5.75101,-6.2001299999999997,1.6048
2776.0,61.832900000000002,84.272900000000007,25.215699999999998,86.680199999999999,-5.3181399999999996,-5.7821499999999997,0.90296399999999999
2777.0,62.810699999999997,73.855500000000006,14.1595,77.371499999999997,-4.9684699999999999,-5.3278999999999996,0.17610899999999999
2778.0,63.914499999999997,85.046999999999997,24.535399999999999,89.471100000000007,-4.6979699999999998,-4.7933399999999997,-0.57166600000000001
2779.0,65.182400000000001,73.333600000000004,11.778,78.422499999999999,-4.5216799999999999,-4.2432600000000003,-1.3123199999999999
2780.0,66.569800000000001,85.413499999999999,22.637699999999999,90.957099999999997,-4.4588400000000004,-3.66296,-2.00867
2781.0,67.981499999999997,74.205399999999997,10.2186,80.137900000000002,-4.5383899999999997,-3.21915,-2.5489000000000002
2782.0,69.165099999999995,86.981099999999998,22.079899999999999,93.373800000000003,-4.7619800000000003,-2.8234599999999999,-2.8250099999999998
2783.0,48.561300000000003,72.445400000000006,24.4724,53.6755,-12.464700000000001,6.7952899999999996,-0.30991600000000002
2784.0,49.195099999999996,61.611600000000003,12.751099999999999,41.651299999999999,-12.9765,5.9013900000000001,0.056391999999999998
2785.0,49.962499999999999,74.621099999999998,24.191099999999999,53.782200000000003,-13.129200000000001,4.0971399999999996,0.86050400000000005
2786.0,50.7881,63.500100000000003,11.8512,42.787700000000001,-13.1578,2.9357199999999999,1.5648
2787.0,51.065199999999997,75.783600000000007,23.506399999999999,55.844000000000001,-12.959099999999999,1.5778000000000001,1.6601999999999999
2788.0,51.504800000000003,65.079499999999996,12.0428,45.808399999999999,-12.656000000000001,-0.0261715,1.8277099999999999
2789.0,52.0199,77.112700000000004,23.501100000000001,58.932099999999998,-12.3544,-1.1724399999999999,2.1609400000000001
2790.0,52.410899999999998,66.489800000000002,12.6637,50.058100000000003,-11.9984,-2.23434,2.3975499999999998
2791.0,52.877200000000002,78.380200000000002,24.286899999999999,63.687100000000001,-11.549899999999999,-3.1064699999999998,2.5607199999999999
2792.0,53.3748,68.814999999999998,14.5466,56.069800000000001,-11.0908,-3.78931,2.64161
2793.0,53.904699999999998,79.587000000000003,25.1419,68.783699999999996,-10.583600000000001,-4.31989,2.6392899999999999
2794.0,54.462299999999999,68.575800000000001,13.974600000000001,59.7423,-10.076000000000001,-4.65557,2.5520499999999999
2795.0,55.035499999999999,80.000100000000003,25.2332,73.069299999999998,-9.5513399999999997,-4.8438999999999997,2.3772799999999998
2796.0,55.634799999999998,69.307599999999994,14.3422,64.186000000000007,-9.0367099999999994,-4.8621100000000004,2.1142500000000002
2797.0,56.2682,80.799300000000002,25.5732,77.337699999999998,-8.5325000000000006,-4.7509499999999996,1.7559
2798.0,56.927399999999999,71.460899999999995,15.904299999999999,69.467299999999994,-8.0511599999999994,-4.5209700000000002,1.31454
2799.0,57.6355,83.186700000000002,27.194800000000001,82.430800000000005,-7.5982599999999998,-4.2186599999999999,0.798458
2800.0,58.422899999999998,72.428399999999996,15.8756,72.689499999999995,-7.1960100000000002,-3.8595600000000001,0.21884700000000001
2801.0,59.2958,83.751599999999996,26.508400000000002,84.798400000000001,-6.8577500000000002,-3.4924300000000001,-0.41114499999999998
2802.0,60.283200000000001,74.036799999999999,15.9633,75.690600000000003,-6.59206,-3.1034099999999998,-1.0787899999999999
2803.0,61.4084,85.927099999999996,26.848500000000001,87.988699999999994,-6.4058099999999998,-2.71597,-1.7724299999999999
2804.0,62.7211,76.673000000000002,16.360399999999998,78.955500000000001,-6.3027199999999999,-2.2789199999999998,-2.4967000000000001
2805.0,64.235699999999994,89.739999999999995,27.946100000000001,92.031499999999994,-6.30558,-1.88693,-3.21075
2806.0,65.912999999999997,80.004199999999997,16.553599999999999,82.178700000000006,-6.4348299999999998,-1.5408200000000001,-3.8511299999999999
2807.0,67.510000000000005,92.4148,27.525500000000001,94.679699999999997,-6.7120300000000004,-1.45977,-4.2166600000000001
2808.0,68.635900000000007,82.134900000000002,16.473299999999998,84.896500000000003,-7.1091600000000001,-1.51007,-4.16425
2809.0,46.332700000000003,53.923499999999997,8.0037299999999991,38.259,-11.7834,5.5874199999999998,-0.78100800000000004
2810.0,46.882800000000003,68.247399999999999,21.452100000000002,52.5092,-11.9754,4.6687799999999999,-0.67271800000000004
2811.0,47.450600000000001,56.928699999999999,8.9758600000000008,40.594299999999997,-12.173400000000001,2.82294,-0.148755
2812.0,48.128100000000003,65.403300000000002,16.502800000000001,49.069800000000001,-12.168100000000001,2.06568,0.040388199999999999
2813.0,48.625999999999998,59.275100000000002,9.8812499999999996,44.356999999999999,-12.031700000000001,1.23309,0.261907
2814.0,49.335900000000002,73.004000000000005,22.873200000000001,58.895400000000002,-11.9412,-0.31499700000000003,0.60109999999999997
2815.0,49.857999999999997,62.3292,11.7159,49.135599999999997,-11.731999999999999,-1.0324,0.75110900000000003
2816.0,50.2605,73.684899999999999,22.986699999999999,62.307000000000002,-11.411300000000001,-1.8398699999999999,0.89033399999999996
2817.0,50.8596,63.165100000000002,12.145,53.305500000000002,-11.101100000000001,-2.3877000000000002,0.94362500000000005
2818.0,51.398400000000002,73.415599999999998,22.247800000000002,65.345299999999995,-10.735200000000001,-2.7776299999999998,0.92638399999999999
2819.0,52.026699999999998,63.983499999999999,12.5532,57.510800000000003,-10.376899999999999,-3.0307599999999999,0.83626800000000001
2820.0,52.641399999999997,75.380499999999998,23.732099999999999,70.532799999999995,-10.0031,-3.1052499999999998,0.66489699999999996
2821.0,53.3142,65.645200000000003,13.6882,62.249499999999998,-9.6456800000000005,-3.0614400000000002,0.42514099999999999
2822.0,53.991100000000003,77.079999999999998,24.7836,75.017700000000005,-9.2927900000000001,-2.8647100000000001,0.110639
2823.0,54.696599999999997,67.206599999999995,14.472899999999999,66.245500000000007,-8.9528599999999994,-2.5796800000000002,-0.26135999999999998
2824.0,55.445599999999999,77.616100000000003,24.3353,77.538899999999998,-8.6320099999999993,-2.19312,-0.70945599999999998
2825.0,56.256999999999998,68.176900000000003,14.206099999999999,68.703900000000004,-8.3520000000000003,-1.7840400000000001,-1.2211099999999999
2826.0,57.125900000000001,80.114999999999995,25.330100000000002,80.999499999999998,-8.1145399999999999,-1.35917,-1.79461
2827.0,58.104199999999999,71.425600000000003,15.6572,72.423500000000004,-7.9399699999999998,-0.98140899999999998,-2.4026800000000001
2828.0,59.210700000000003,82.835899999999995,25.9221,83.765000000000001,-7.8309100000000003,-0.605653,-3.0504600000000002
2829.0,60.507100000000001,73.869100000000003,15.5814,74.537800000000004,-7.7981699999999998,-0.27596799999999999,-3.7224400000000002
2830.0,62.014499999999998,85.006100000000004,25.093499999999999,85.2119,-7.8494000000000002,0.078438099999999997,-4.4364999999999997
2831.0,63.750999999999998,74.973500000000001,13.1907,74.573499999999996,-8.0096699999999998,0.28675200000000001,-5.1290100000000001
2832.0,65.539500000000004,86.558000000000007,22.903300000000002,85.567700000000002,-8.3300800000000006,0.32943600000000001,-5.6882799999999998
2833.0,67.080200000000005,76.992199999999997,12.002700000000001,76.075999999999993,-8.8035200000000007,-0.057247300000000001,-5.8398000000000003
2834.0,67.816400000000002,89.3429,24.173100000000002,89.339500000000001,-9.4143000000000008,-0.61280800000000002,-5.3281000000000001
2835.0,43.9634,68.060000000000002,24.248200000000001,55.727400000000003,-10.615600000000001,4.2395500000000004,-1.7826599999999999
2836.0,44.893500000000003,57.411999999999999,12.564299999999999,45.143900000000002,-10.992100000000001,3.3816000000000002,-1.5292699999999999
2837.0,45.6922,68.785700000000006,23.051300000000001,56.860100000000003,-11.272399999999999,1.9194100000000001,-1.53613
2838.0,46.585099999999997,58.591299999999997,11.911799999999999,47.097999999999999,-11.301500000000001,1.1082700000000001,-1.7065600000000001
2839.0,46.953000000000003,69.888499999999993,23.0002,59.502800000000001,-11.247199999999999,0.471443,-1.29287
2840.0,47.4101,60.244999999999997,13.07,50.680300000000003,-11.2394,-0.47380499999999998,-0.879969
2841.0,47.995100000000001,71.226500000000001,23.741399999999999,62.811399999999999,-11.1364,-1.0323,-0.86102100000000004
2842.0,48.5227,61.560600000000001,13.924200000000001,54.716799999999999,-10.883699999999999,-1.5227200000000001,-0.83296599999999998
2843.0,49.128599999999999,72.520700000000005,24.717099999999999,67.173100000000005,-10.699400000000001,-1.7984800000000001,-0.88241599999999998
2844.0,49.771000000000001,63.583199999999998,15.5723,59.740000000000002,-10.4513,-1.9295599999999999,-0.99892499999999995
2845.0,50.457099999999997,73.993300000000005,25.729199999999999,71.526399999999995,-10.237,-1.9150100000000001,-1.1677
2846.0,51.169899999999998,64.301000000000002,15.724299999999999,63.0869,-10.015700000000001,-1.7634700000000001,-1.4023099999999999
2847.0,51.885199999999998,75.131799999999998,26.195499999999999,74.987399999999994,-9.8165200000000006,-1.4991300000000001,-1.68591
2848.0,52.635199999999998,65.369799999999998,15.974500000000001,66.096400000000003,-9.6258700000000008,-1.1239600000000001,-2.0323099999999998
2849.0,53.4452,77.012900000000002,27.028500000000001,78.377899999999997,-9.4647500000000004,-0.65899099999999999,-2.4366099999999999
2850.0,54.284399999999998,68.599400000000003,17.895399999999999,70.308700000000002,-9.3293999999999997,-0.14147799999999999,-2.8943300000000001
2851.0,55.172499999999999,80.006900000000002,28.425999999999998,81.756200000000007,-9.2187099999999997,0.38029499999999999,-3.4028
2852.0,56.145299999999999,70.938800000000001,18.302700000000002,72.434700000000007,-9.1586800000000004,0.86282999999999999,-3.9531000000000001
2853.0,57.221299999999999,82.187899999999999,28.319800000000001,83.183899999999994,-9.14635,1.27946,-4.5453400000000004
2854.0,58.4512,73.910399999999996,18.611799999999999,74.202699999999993,-9.2083200000000005,1.6267100000000001,-5.1654400000000003
2855.0,59.8977,85.529399999999995,28.550000000000001,84.9255,-9.3358600000000003,1.9359500000000001,-5.8424100000000001
2856.0,61.601999999999997,77.627200000000002,18.683299999999999,75.932000000000002,-9.5718300000000003,2.1708400000000001,-6.5441599999999998
2857.0,63.537700000000001,90.161600000000007,29.0092,87.244500000000002,-9.9178200000000007,2.2286800000000002,-7.2411399999999997
2858.0,65.4572,82.259200000000007,19.032800000000002,78.445400000000006,-10.4442,1.8756900000000001,-7.65632
2859.0,66.909300000000002,94.168599999999998,29.653199999999998,90.428100000000001,-11.098800000000001,1.0378099999999999,-7.5091700000000001
2860.0,67.182199999999995,85.362200000000001,21.3706,83.479100000000003,-11.789999999999999,-0.088923000000000002,-6.2835400000000003
2861.0,42.634300000000003,52.476399999999998,10.117900000000001,43.576500000000003,-9.6302599999999998,2.8605999999999998,-2.4798100000000001
2862.0,43.569899999999997,63.074300000000001,19.992799999999999,54.383899999999997,-10.128399999999999,2.12304,-2.5765799999999999
2863.0,44.381300000000003,54.275599999999997,10.5898,46.379600000000003,-10.3537,1.1897899999999999,-2.44997
2864.0,45.1599,64.897199999999998,20.739799999999999,57.8123,-10.5702,0.49687500000000001,-2.32809
2865.0,45.656599999999997,55.934100000000001,11.6127,49.778199999999998,-10.615399999999999,-0.15543299999999999,-2.3769
2866.0,46.132800000000003,66.727400000000003,22.261199999999999,61.527500000000003,-10.59,-0.64862799999999998,-2.4129
2867.0,46.724800000000002,57.507800000000003,12.9526,53.674599999999998,-10.545400000000001,-1.0218100000000001,-2.4081299999999999
2868.0,47.408200000000001,67.778800000000004,23.046700000000001,65.329499999999996,-10.4397,-1.2052499999999999,-2.5046499999999998
2869.0,48.0867,58.3827,13.5419,57.382300000000001,-10.326499999999999,-1.2190799999999999,-2.65333
2870.0,48.832799999999999,68.392399999999995,23.324100000000001,68.650599999999997,-10.226900000000001,-1.09327,-2.8540299999999998
2871.0,49.577199999999998,59.6218,14.2918,61.002499999999998,-10.1288,-0.83277999999999996,-3.09504
2872.0,50.336599999999997,70.487099999999998,24.8078,72.757800000000003,-10.0573,-0.47076899999999999,-3.3754200000000001
2873.0,51.130099999999999,61.826700000000002,15.7026,64.806399999999996,-9.9917999999999996,0.0060997100000000004,-3.69814
2874.0,51.965400000000002,73.395899999999997,26.689699999999998,76.802400000000006,-9.9607600000000005,0.56318999999999997,-4.0670400000000004
2875.0,52.819800000000001,63.9086,16.514700000000001,67.470100000000002,-9.95411,1.18502,-4.5021500000000003
2876.0,53.771599999999999,74.5869,26.300599999999999,77.997600000000006,-9.98475,1.82826,-4.9795699999999998
2877.0,54.7804,66.207400000000007,16.845099999999999,69.128299999999996,-10.051600000000001,2.46984,-5.4816900000000004
2878.0,55.832500000000003,77.818700000000007,27.195,79.904300000000006,-10.1439,3.01735,-6.0157800000000003
2879.0,57.009300000000003,70.152500000000003,18.052700000000002,71.1297,-10.285299999999999,3.4736199999999999,-6.5891099999999998
2880.0,58.372199999999999,81.504400000000004,27.6891,81.152600000000007,-10.4948,3.81656,-7.2091900000000004
2881.0,60.0002,73.842799999999997,18.024699999999999,71.947999999999993,-10.7873,4.1059000000000001,-7.8922499999999998
2882.0,61.887599999999999,84.790199999999999,26.6873,81.152299999999997,-11.193099999999999,4.22837,-8.6173300000000008
2883.0,63.899999999999999,76.593699999999998,16.0977,71.163399999999996,-11.7509,4.0527899999999999,-9.29068
2884.0,65.566999999999993,87.213200000000001,24.842600000000001,80.773799999999994,-12.4559,3.1675499999999999,-9.5489999999999995
2885.0,66.379499999999993,80.118399999999994,17.158799999999999,74.251000000000005,-13.260999999999999,1.69581,-8.9652100000000008
2886.0,66.0244,90.800299999999993,29.354399999999998,88.219099999999997,-13.9785,0.062171900000000002,-7.0558500000000004
2887.0,1627.28,1027.55,225.97800000000001,-389.81400000000002,-299.77499999999998,530.83000000000004,76.990300000000005
2888.0,1627.5899999999999,1089.1700000000001,219.71299999999999,-438.791,-299.012,442.60599999999999,101.672
2889.0,1628.76,1143.6400000000001,216.422,-473.98599999999999,-295.64800000000002,349.27100000000002,126.616
2890.0,1631.01,1184.51,210.24600000000001,-501.45699999999999,-289.65100000000001,251.83600000000001,151.833
2891.0,1633.99,1215.1199999999999,205.32400000000001,-517.19399999999996,-280.678,151.08500000000001,176.791
2892.0,1637.5999999999999,1229.1600000000001,195.614,-526.649,-268.71800000000002,48.357599999999998,201.435
2893.0,1641.74,1236.3,190.77699999999999,-519.39499999999998,-253.72300000000001,-55.040100000000002,225.94
2894.0,1646.4400000000001,1226.51,181.08799999999999,-505.572,-235.744,-157.892,249.667
2895.0,1651.6099999999999,1208.29,174.69200000000001,-476.75200000000001,-214.60400000000001,-258.82400000000001,272.42500000000001
2896.0,1657.24,1175.5699999999999,165.61000000000001,-439.40699999999998,-190.59800000000001,-356.64800000000002,293.68700000000001
2897.0,1663.3299999999999,1129.76,155.37899999999999,-393.22500000000002,-163.79400000000001,-450.31,312.46100000000001
2898.0,1669.8099999999999,1070.1300000000001,142.29499999999999,-339.517,-134.44399999999999,-538.34400000000005,328.90300000000002
2899.0,1676.53,1004.37,132.88900000000001,-271.57100000000003,-102.631,-619.34000000000003,342.95999999999998
2900.0,1683.3699999999999,926.07600000000002,120.71899999999999,-197.31999999999999,-69.021600000000007,-692.31700000000001,353.85599999999999
2901.0,1690.3299999999999,839.29999999999995,108.631,-114.931,-33.859699999999997,-756.14999999999998,361.14699999999999
2902.0,1697.3099999999999,746.32399999999996,97.368600000000001,-23.976600000000001,2.5211299999999999,-809.61800000000005,365.05700000000002
2903.0,1704.22,648.27499999999998,87.365899999999996,74.328000000000003,39.4529,-852.05499999999995,364.97000000000003
2904.0,1710.9100000000001,541.83900000000006,74.485100000000003,173.994,76.169899999999998,-882.84900000000005,360.43299999999999
2905.0,1717.3,434.67099999999999,64.069400000000002,279.767,112.306,-901.19799999999998,351.601
2906.0,1723.24,327.35700000000003,55.052300000000002,389.31799999999998,147.227,-906.56600000000003,338.66300000000001
2907.0,1728.6800000000001,220.78200000000001,47.058199999999999,500.50400000000002,180.21600000000001,-898.90099999999995,321.35700000000003
2908.0,1733.46,118.32299999999999,41.319400000000002,613.29300000000001,210.77000000000001,-877.99000000000001,299.97399999999999
2909.0,1737.54,21.411300000000001,38.140000000000001,726.30799999999999,238.054,-844.10000000000002,274.57299999999998
2910.0,1740.9000000000001,-71.733699999999999,34.348100000000002,834.43299999999999,261.33100000000002,-797.71199999999999,245.328
2911.0,1743.8599999999999,-154.28299999999999,34.9696,942.077,280.27600000000001,-739.24400000000003,212.607
2912.0,1745.98,-227.697,36.907800000000002,1045.0,294.101,-668.89800000000002,176.703
2913.0,1580.45,400.88400000000001,59.0672,-830.96299999999997,-243.10300000000001,526.60799999999995,302.96499999999997
2914.0,1584.3699999999999,474.49799999999999,58.315199999999997,-867.74000000000001,-231.768,451.101,327.82100000000003
2915.0,1588.98,527.17700000000002,44.6875,-908.322,-217.67099999999999,369.053,352.73700000000002
2916.0,1593.6500000000001,579.56299999999999,40.731699999999996,-929.15499999999997,-200.72499999999999,281.65300000000002,377.37
2917.0,1598.8599999999999,610.77499999999998,25.892099999999999,-950.33900000000006,-180.834,190.334,401.44499999999999
2918.0,1604.49,642.13,22.4023,-949.33299999999997,-157.94499999999999,96.226399999999998,424.74799999999999
2919.0,1610.5599999999999,647.18499999999995,4.1343899999999998,-952.10799999999995,-132.006,0.71408799999999995,446.762
2920.0,1617.02,651.83600000000001,-2.6282999999999999,-932.19299999999998,-103.036,-94.766499999999994,467.33100000000002
2921.0,1623.9200000000001,631.07600000000002,-22.872199999999999,-914.78999999999996,-71.152199999999993,-188.809,485.983
2922.0,1631.21,608.35900000000004,-33.227200000000003,-876.73599999999999,-36.439799999999998,-279.90100000000001,502.49599999999998
2923.0,1639.02,565.41499999999996,-52.494100000000003,-837.23000000000002,0.91689799999999999,-366.65899999999999,516.57500000000005
2924.0,1647.1600000000001,522.22400000000005,-61.027799999999999,-777.25199999999995,40.676499999999997,-447.75799999999998,527.82500000000005
2925.0,1655.5,454.84300000000002,-83.500200000000007,-722.44899999999996,82.4726,-521.94299999999998,535.71500000000003
2926.0,1664.0799999999999,389.791,-94.365799999999993,-648.12,125.998,-587.97799999999995,540.13199999999995
2927.0,1672.8099999999999,306.53699999999998,-115.145,-576.91999999999996,170.80199999999999,-644.928,540.73599999999999
2928.0,1681.4100000000001,224.84299999999999,-127.181,-491.42099999999999,216.369,-691.83000000000004,537.27300000000002
2929.0,1689.8900000000001,126.883,-149.726,-412.31999999999999,262.19799999999998,-728.03599999999994,529.553
2930.0,1698.1900000000001,38.474400000000003,-158.37299999999999,-316.40800000000002,307.80700000000002,-752.98500000000001,517.63300000000004
2931.0,1706.0799999999999,-64.197699999999998,-178.17500000000001,-230.352,352.55599999999998,-766.43700000000001,501.29700000000003
2932.0,1713.3900000000001,-158.08199999999999,-187.58500000000001,-134.02000000000001,395.86099999999999,-768.21400000000006,480.61099999999999
2933.0,1720.03,-261.09300000000002,-205.922,-48.237699999999997,437.15699999999998,-758.43899999999996,455.66000000000003
2934.0,1725.8599999999999,-352.56900000000002,-213.87100000000001,45.011099999999999,475.85700000000003,-737.327,426.66899999999998
2935.0,1730.77,-451.03500000000003,-231.26499999999999,124.342,511.50400000000002,-705.34000000000003,393.79899999999998
2936.0,1734.77,-531.84400000000005,-234.74700000000001,212.30099999999999,543.62300000000005,-662.94000000000005,357.505
2937.0,1737.24,-617.80600000000004,-248.30699999999999,283.03699999999998,571.76999999999998,-610.71600000000001,317.87900000000002
2938.0,1738.9400000000001,-686.06600000000003,-250.435,357.43400000000003,595.47699999999998,-549.99900000000002,276.01100000000002
2939.0,1429.8399999999999,221.476,85.114000000000004,-766.93700000000001,-202.23699999999999,459.29199999999997,377.76299999999998
2940.0,1439.53,267.60899999999998,65.214399999999998,-819.48199999999997,-186.26300000000001,399.78699999999998,402.48399999999998
2941.0,1449.3599999999999,321.642,60.233400000000003,-849.63999999999999,-168.256,334.42399999999998,426.673
2942.0,1459.3299999999999,354.99000000000001,41.052100000000003,-885.44000000000005,-147.38200000000001,263.80099999999999,450.14499999999998
2943.0,1469.01,392.38900000000001,34.420499999999997,-899.46199999999999,-123.782,188.76599999999999,472.76999999999998
2944.0,1478.55,405.36500000000001,12.035600000000001,-919.43700000000001,-97.292299999999997,110.58,494.065
2945.0,1487.95,424.928,5.9857399999999998,-912.97400000000005,-68.027699999999996,30.4618,513.923
2946.0,1497.23,418.63499999999999,-16.033899999999999,-912.27200000000005,-35.961500000000001,-50.253100000000003,531.82299999999998
2947.0,1506.3599999999999,417.41199999999998,-22.6448,-885.89999999999998,-1.2677099999999999,-130.12799999999999,547.59799999999996
2948.0,1515.3299999999999,391.61399999999998,-43.6785,-864.02800000000002,35.918100000000003,-207.815,560.73000000000002
2949.0,1523.98,367.22000000000003,-53.2286,-821.01700000000005,75.302000000000007,-281.82999999999998,571.0
2950.0,1532.3900000000001,318.32299999999998,-77.782200000000003,-784.28800000000001,116.595,-350.88400000000001,577.97400000000005
2951.0,1540.5699999999999,277.30399999999997,-85.501300000000001,-722.74199999999996,159.465,-413.71100000000001,581.58100000000002
2952.0,1548.3900000000001,212.779,-108.643,-669.755,203.483,-469.30700000000002,581.38499999999999
2953.0,1555.73,154.851,-118.121,-597.30999999999995,248.20599999999999,-516.57600000000002,577.34400000000005
2954.0,1562.6700000000001,78.921400000000006,-139.614,-532.63099999999997,293.14100000000002,-554.96699999999998,569.22699999999998
2955.0,1569.03,13.098699999999999,-146.23699999999999,-449.94999999999999,337.834,-583.77800000000002,557.08799999999997
2956.0,1574.6900000000001,-72.527000000000001,-169.14699999999999,-382.03100000000001,381.68799999999999,-602.78300000000002,540.78200000000004
2957.0,1579.6900000000001,-144.08600000000001,-175.84700000000001,-297.70999999999998,424.28899999999999,-611.75599999999997,520.54300000000001
2958.0,1584.01,-228.87700000000001,-194.70599999999999,-226.86099999999999,465.11900000000003,-610.93299999999999,496.40899999999999
2959.0,1587.5699999999999,-298.68799999999999,-198.87799999999999,-143.79900000000001,503.78500000000003,-600.42600000000004,468.66500000000002
2960.0,1590.3699999999999,-378.69900000000001,-214.47999999999999,-76.011300000000006,539.85199999999998,-580.78999999999996,437.46800000000002
2961.0,1592.4000000000001,-440.69099999999997,-214.511,2.6422300000000001,572.98299999999995,-552.45600000000002,403.22500000000002
2962.0,1593.5599999999999,-513.73000000000002,-228.74199999999999,61.036000000000001,602.88099999999997,-516.12599999999998,366.11399999999998
2963.0,1594.29,-566.40599999999995,-226.66900000000001,129.221,629.26999999999998,-472.71899999999999,326.82400000000001
2964.0,1594.6300000000001,-626.40300000000002,-236.01300000000001,178.85499999999999,652.38300000000004,-422.73899999999998,284.86099999999999
2965.0,1146.22,153.958,43.509399999999999,-585.01800000000003,-174.09800000000001,362.27499999999998,342.78199999999998
2966.0,1162.23,183.709,22.3307,-636.32299999999998,-159.25800000000001,320.03199999999998,365.73099999999999
2967.0,1177.22,230.35499999999999,23.362400000000001,-659.63199999999995,-142.55000000000001,271.78199999999998,388.40800000000002
2968.0,1191.5699999999999,249.85499999999999,0.74548000000000003,-699.13199999999995,-123.119,219.00800000000001,409.97500000000002
2969.0,1205.24,285.58999999999997,0.61422200000000005,-708.60599999999999,-101.28100000000001,162.04300000000001,430.791
2970.0,1218.22,293.77300000000002,-21.213999999999999,-731.61099999999999,-76.823499999999996,101.89400000000001,450.02100000000002
2971.0,1230.3399999999999,313.75799999999998,-23.8187,-726.54399999999998,-49.897799999999997,39.598700000000001,467.815
2972.0,1241.6500000000001,304.57499999999999,-48.317100000000003,-734.64800000000002,-20.541599999999999,-23.73,483.375
2973.0,1252.03,308.31900000000002,-51.755699999999997,-712.49699999999996,11.0383,-86.751499999999993,496.82299999999998
2974.0,1261.52,280.34899999999999,-79.0899,-705.73000000000002,44.637500000000003,-148.34,507.38499999999999
2975.0,1270.0799999999999,270.31200000000001,-80.411900000000003,-664.41899999999998,79.984200000000001,-207.053,515.23400000000004
2976.0,1277.6500000000001,229.03200000000001,-105.499,-639.39400000000001,116.723,-261.96499999999997,519.64099999999996
2977.0,1284.0799999999999,202.90799999999999,-108.285,-584.83399999999995,154.48699999999999,-311.61500000000001,520.80799999999999
2978.0,1289.46,146.83699999999999,-134.71000000000001,-548.31600000000003,192.78800000000001,-355.40100000000001,518.16700000000003
2979.0,1293.73,111.82599999999999,-134.50399999999999,-480.16000000000003,231.28200000000001,-392.16399999999999,512.04700000000003
2980.0,1296.8099999999999,45.241999999999997,-161.30500000000001,-435.69099999999997,269.38099999999997,-421.66199999999998,501.99599999999998
2981.0,1298.73,1.9417500000000001,-161.34999999999999,-362.06299999999999,306.74799999999999,-443.05700000000002,488.46300000000002
2982.0,1299.5699999999999,-66.824299999999994,-184.27600000000001,-310.68900000000002,342.82100000000003,-456.65499999999997,471.19499999999999
2983.0,1299.26,-110.43000000000001,-180.75999999999999,-233.02600000000001,377.33300000000003,-461.93900000000002,450.71100000000001
2984.0,1297.8499999999999,-181.21100000000001,-203.91499999999999,-183.833,409.73399999999998,-459.565,426.89499999999998
2985.0,1295.4300000000001,-222.642,-198.50700000000001,-108.599,439.86799999999999,-449.43099999999998,400.36399999999998
2986.0,1292.03,-289.94200000000001,-220.19399999999999,-64.391099999999994,467.32299999999998,-432.44299999999998,371.09800000000001
2987.0,1287.78,-326.87099999999998,-213.99799999999999,3.3817400000000002,491.97800000000001,-408.80000000000001,339.786
2988.0,1282.8399999999999,-385.101,-231.601,41.630800000000001,513.73800000000006,-379.56099999999998,306.35000000000002
2989.0,1277.2,-413.38499999999999,-222.91800000000001,101.13500000000001,532.25199999999995,-344.90499999999997,271.71300000000002
2990.0,1270.52,-462.12599999999998,-238.44900000000001,128.78999999999999,547.89400000000001,-305.95499999999998,235.09200000000001
2991.0,875.36800000000005,208.56399999999999,73.575000000000003,-350.452,-148.68600000000001,276.59699999999998,267.81099999999998
2992.0,891.63300000000004,226.45500000000001,53.917900000000003,-394.67200000000003,-137.14500000000001,245.95599999999999,287.92399999999998
2993.0,907.22900000000004,260.28199999999998,53.811199999999999,-415.72000000000003,-124.101,210.45699999999999,307.65300000000002
2994.0,922.22299999999996,273.17500000000001,34.949100000000001,-449.63,-108.58499999999999,171.16399999999999,326.71300000000002
2995.0,936.36000000000001,298.89299999999997,33.093400000000003,-460.74599999999998,-90.936999999999998,128.25800000000001,344.87799999999999
2996.0,949.62300000000005,300.80000000000001,11.668799999999999,-484.62900000000002,-71.023899999999998,82.602599999999995,361.83699999999999
2997.0,961.92600000000004,317.714,10.4666,-481.428,-48.978200000000001,34.894799999999996,377.25200000000001
2998.0,973.13099999999997,309.50200000000001,-10.304399999999999,-490.36200000000002,-24.854700000000001,-13.855499999999999,390.85300000000001
2999.0,983.18200000000002,314.86599999999999,-11.5467,-472.47899999999998,1.105,-62.712000000000003,402.238
3000.0,991.95299999999997,295.99400000000003,-30.9238,-465.32499999999999,28.730799999999999,-110.541,411.19499999999999
3001.0,999.34799999999996,287.24700000000001,-34.124400000000001,-435.03300000000002,57.646299999999997,-156.36699999999999,417.34399999999999
3002.0,1005.3099999999999,253.94399999999999,-56.006599999999999,-416.875,87.581800000000001,-199.042,420.56900000000002
3003.0,1009.87,236.27099999999999,-56.769100000000002,-371.96600000000001,118.09,-237.79300000000001,420.62599999999998
3004.0,1012.91,194.559,-76.610900000000001,-341.16199999999998,148.84800000000001,-271.64699999999999,417.48899999999998
3005.0,1014.46,166.91,-78.136200000000002,-288.226,179.334,-300.06900000000002,411.03800000000001
3006.0,1014.55,119.745,-95.661299999999997,-248.51300000000001,209.238,-322.435,401.40699999999998
3007.0,1013.22,89.191000000000003,-93.897800000000004,-187.89400000000001,238.06700000000001,-338.59300000000002,388.62599999999998
3008.0,1010.48,36.8185,-112.184,-146.78,265.54000000000002,-348.20699999999999,372.93000000000001
3009.0,1006.49,3.9148499999999999,-110.03700000000001,-85.873500000000007,291.22699999999998,-351.55000000000001,354.495
3010.0,1001.33,-45.5503,-124.306,-43.041499999999999,314.99200000000002,-348.62099999999998,333.65600000000001
3011.0,995.149,-75.659000000000006,-119.8,16.069199999999999,336.464,-339.98000000000002,310.66000000000003
3012.0,988.05899999999997,-120.261,-131.05600000000001,55.940899999999999,355.67399999999998,-325.83699999999999,285.87400000000002
3013.0,980.27300000000002,-144.042,-123.279,111.09,372.274,-306.99200000000002,259.62299999999999
3014.0,971.78099999999995,-183.45500000000001,-133.483,143.328,386.56900000000002,-283.69499999999999,232.12700000000001
3015.0,962.92499999999995,-201.66,-124.986,189.95099999999999,397.99299999999999,-256.83199999999999,204.06700000000001
3016.0,953.65999999999997,-231.774,-131.274,215.238,407.55399999999997,-226.88200000000001,174.876
3017.0,658.18799999999999,208.755,36.921100000000003,-224.20599999999999,-127.965,210.18899999999999,190.58099999999999
3018.0,671.76599999999996,272.41699999999997,73.093800000000002,-207.68600000000001,-120.14400000000001,187.06700000000001,206.923
3019.0,684.75,249.55799999999999,24.973800000000001,-272.64400000000001,-110.877,160.07400000000001,223.06700000000001
3020.0,697.25400000000002,308.69499999999999,60.533099999999997,-249.26499999999999,-99.612499999999997,130.11600000000001,238.86199999999999
3021.0,709.173,279.75099999999998,10.8545,-306.86799999999999,-86.541300000000007,97.256399999999999,253.899
3022.0,720.34699999999998,334.25999999999999,47.855200000000004,-272.33600000000001,-71.579599999999999,62.149900000000002,268.13400000000001
3023.0,730.68200000000002,295.65199999999999,-4.5509700000000004,-321.90800000000002,-54.838900000000002,25.299600000000002,280.97800000000001
3024.0,739.99599999999998,340.70299999999997,30.974799999999998,-277.45400000000001,-36.388500000000001,-12.437900000000001,292.44299999999998
3025.0,748.23000000000002,292.19499999999999,-22.667899999999999,-316.464,-16.447800000000001,-50.424500000000002,301.91000000000003
3026.0,755.18899999999996,326.61099999999999,11.382099999999999,-261.63299999999998,4.8242700000000003,-87.605599999999995,309.43400000000003
3027.0,760.88999999999999,270.31599999999997,-40.675899999999999,-287.54700000000003,27.082899999999999,-123.372,314.45999999999998
3028.0,765.14800000000002,298.709,-3.4023099999999999,-218.643,50.114699999999999,-156.62299999999999,317.12099999999998
3029.0,767.97199999999998,231.989,-57.033000000000001,-236.20500000000001,73.460300000000004,-186.89099999999999,316.95699999999999
3030.0,769.29200000000003,252.14400000000001,-19.875,-158.84999999999999,96.885000000000005,-213.161,314.23099999999999
3031.0,769.20500000000004,180.68199999999999,-70.992000000000004,-166.91800000000001,119.902,-235.292,308.63999999999999
3032.0,767.63699999999994,195.31100000000001,-33.282299999999999,-83.770700000000005,142.30099999999999,-252.44399999999999,300.548
3033.0,764.75900000000001,118.44799999999999,-84.952399999999997,-88.989800000000002,163.595,-264.82799999999997,289.80200000000002
3034.0,760.60400000000004,133.90700000000001,-42.923299999999998,-0.105973,183.679,-271.899,276.88
3035.0,755.351,57.619500000000002,-91.833100000000002,-2.9077199999999999,202.12,-274.18400000000003,261.73399999999998
3036.0,749.04399999999998,72.438599999999994,-49.649999999999999,84.013000000000005,218.922,-271.35899999999998,244.90000000000001
3037.0,741.952,-2.4841700000000002,-97.590999999999994,78.572299999999998,233.72999999999999,-264.25,226.41800000000001
3038.0,734.10299999999995,15.1898,-54.091200000000001,161.72800000000001,246.71799999999999,-252.69300000000001,206.81
3039.0,725.79700000000003,-57.521900000000002,-102.27500000000001,149.99299999999999,257.53399999999999,-237.67400000000001,186.18100000000001
3040.0,717.03499999999997,-33.168500000000002,-55.384,229.25399999999999,266.63,-219.15100000000001,164.91800000000001
3041.0,708.154,-100.968,-102.459,211.149,273.44099999999997,-198.00899999999999,143.369
3042.0,698.73099999999999,-70.359499999999997,-53.971400000000003,283.06700000000001,278.88299999999998,-174.53800000000001,121.273
3043.0,518.38599999999997,282.50099999999998,91.475800000000007,-72.102500000000006,-111.371,165.99700000000001,134.59999999999999
3044.0,527.78300000000002,262.51100000000002,49.8431,-128.56800000000001,-106.10299999999999,147.02699999999999,147.11600000000001
3045.0,536.86000000000001,314.67099999999999,82.218199999999996,-108.806,-99.676500000000004,125.075,159.74199999999999
3046.0,545.78999999999996,291.48399999999998,40.558900000000001,-159.767,-91.648799999999994,100.77,172.108
3047.0,554.27999999999997,338.73399999999998,71.754099999999994,-134.25999999999999,-82.146799999999999,74.221199999999996,184.15100000000001
3048.0,562.36599999999999,308.27300000000002,27.665800000000001,-180.005,-71.133799999999994,45.887300000000003,195.464
3049.0,569.846,350.75099999999998,59.6235,-145.28399999999999,-58.657200000000003,16.233899999999998,205.92400000000001
3050.0,576.65200000000004,314.51999999999998,16.129100000000001,-181.44499999999999,-44.819499999999998,-14.1899,215.15199999999999
3051.0,582.60400000000004,350.262,48.266599999999997,-137.196,-29.740400000000001,-44.709400000000002,222.988
3052.0,587.63999999999999,307.92000000000002,6.0167700000000002,-162.69499999999999,-13.6225,-74.709400000000002,229.11099999999999
3053.0,591.58900000000006,334.52600000000001,36.531300000000002,-110.83799999999999,3.33256,-103.43300000000001,233.392
3054.0,594.44299999999998,282.27800000000002,-8.1496200000000005,-130.053,20.838000000000001,-130.28200000000001,235.60300000000001
3055.0,596.12199999999996,304.08800000000002,24.7408,-67.947400000000002,38.650300000000001,-154.56700000000001,235.71700000000001
3056.0,596.63800000000003,246.85300000000001,-18.257200000000001,-78.651899999999998,56.441800000000001,-175.833,233.614
3057.0,595.96000000000004,262.06,13.9489,-11.6599,73.951099999999997,-193.53100000000001,229.369
3058.0,594.19500000000005,201.57499999999999,-27.250299999999999,-16.443899999999999,90.865700000000004,-207.45099999999999,222.999
3059.0,591.36599999999999,215.69499999999999,7.9006400000000001,56.098399999999998,106.973,-217.27699999999999,214.68600000000001
3060.0,587.59500000000003,150.84899999999999,-34.703899999999997,51.008400000000002,122.00700000000001,-223.03100000000001,204.53999999999999
3061.0,582.97500000000002,163.23500000000001,0.55109399999999997,123.235,135.827,-224.65799999999999,192.822
3062.0,577.67200000000003,100.435,-39.209200000000003,119.157,148.27099999999999,-222.40799999999999,179.71299999999999
3063.0,571.78300000000002,114.873,-2.1278600000000001,190.13300000000001,159.27099999999999,-216.41800000000001,165.495
3064.0,565.47400000000005,54.890700000000002,-40.204900000000002,183.53399999999999,168.779,-207.077,150.37
3065.0,558.88,73.8292,-0.55461300000000002,252.02799999999999,176.76900000000001,-194.66800000000001,134.63
3066.0,552.053,16.0578,-39.054000000000002,239.083,183.345,-179.626,118.39400000000001
3067.0,545.19399999999996,38.436199999999999,0.925817,301.58199999999999,188.38800000000001,-162.24199999999999,102.10299999999999
3068.0,538.28700000000003,-14.2134,-36.103299999999997,282.875,192.37,-143.25700000000001,85.484099999999998
3069.0,430.98899999999998,239.04400000000001,42.4405,-62.603499999999997,-99.127300000000005,137.25,99.030000000000001
3070.0,437.15300000000002,285.11200000000002,70.608500000000006,-46.142299999999999,-95.372799999999998,120.79300000000001,108.56100000000001
3071.0,443.19299999999998,269.87700000000001,38.883000000000003,-87.578100000000006,-90.677499999999995,101.992,118.298
3072.0,449.10000000000002,312.209,66.122600000000006,-67.361199999999997,-84.744600000000005,81.296599999999998,127.92400000000001
3073.0,454.77199999999999,292.75299999999999,33.530999999999999,-104.057,-77.612700000000004,58.799399999999999,137.334
3074.0,460.20699999999999,331.93400000000003,61.722099999999998,-76.639600000000002,-69.275499999999994,34.889099999999999,146.28299999999999
3075.0,465.28399999999999,305.726,27.0776,-108.485,-59.766399999999997,9.9349000000000007,154.57599999999999
3076.0,469.93099999999998,337.87,53.575099999999999,-75.427899999999994,-49.158200000000001,-15.582800000000001,161.98400000000001
3077.0,474.024,304.93400000000003,18.028400000000001,-100.568,-37.547699999999999,-41.156399999999998,168.30699999999999
3078.0,477.46899999999999,329.18299999999999,42.8185,-61.561599999999999,-25.078299999999999,-66.227900000000005,173.34100000000001
3079.0,480.18799999999999,291.47800000000001,8.8515499999999996,-77.6571,-11.9154,-90.242800000000003,176.929
3080.0,482.10700000000003,312.00900000000001,36.244999999999997,-29.004100000000001,1.7422500000000001,-112.65900000000001,178.928
3081.0,483.18599999999998,266.70499999999998,0.75719899999999996,-40.206699999999998,15.6729,-132.96199999999999,179.25299999999999
3082.0,483.42000000000002,280.94099999999997,27.500900000000001,13.3447,29.648800000000001,-150.70599999999999,177.85900000000001
3083.0,482.82999999999998,232.68199999999999,-5.8885300000000003,8.7448899999999998,43.441800000000001,-165.529,174.762
3084.0,481.43900000000002,242.43000000000001,20.6844,65.481200000000001,56.834400000000002,-177.14699999999999,170.005
3085.0,479.315,189.73400000000001,-13.668699999999999,62.031199999999998,69.622200000000007,-185.38800000000001,163.696
3086.0,476.53399999999999,200.25899999999999,16.258500000000002,122.964,81.642700000000005,-190.184,155.959
3087.0,473.185,147.87299999999999,-16.136299999999999,121.10599999999999,92.748599999999996,-191.554,146.96199999999999
3088.0,469.35599999999999,156.99799999999999,13.1172,179.84399999999999,102.843,-189.607,136.87200000000001
3089.0,465.16699999999997,104.937,-19.098800000000001,175.61099999999999,111.845,-184.53700000000001,125.89
3090.0,460.68900000000002,115.343,10.4938,231.203,119.73999999999999,-176.58000000000001,114.18600000000001
3091.0,456.04599999999999,64.040000000000006,-22.611499999999999,221.86000000000001,126.482,-166.035,101.965
3092.0,451.262,78.912999999999997,9.1892399999999999,274.70999999999998,132.16800000000001,-153.214,89.366299999999995
3093.0,446.471,30.890799999999999,-23.357900000000001,260.59199999999998,136.721,-138.41300000000001,76.632599999999996
3094.0,441.57499999999999,49.543799999999997,8.9144199999999998,307.98899999999998,140.34299999999999,-122.163,63.725999999999999
3095.0,376.721,261.20400000000001,69.635000000000005,-2.6463999999999999,-90.232100000000003,118.666,80.577399999999997
3096.0,380.93700000000001,249.06899999999999,42.005200000000002,-39.821300000000001,-87.222999999999999,103.98399999999999,88.198099999999997
3097.0,385.036,287.68599999999998,66.292599999999993,-23.388400000000001,-83.364900000000006,87.394800000000004,95.878100000000003
3098.0,389.02800000000002,272.74299999999999,38.375700000000002,-56.867199999999997,-78.498800000000003,69.144000000000005,103.59099999999999
3099.0,392.90499999999997,307.60199999999998,61.938200000000002,-36.329900000000002,-72.659599999999998,49.429000000000002,111.143
3100.0,396.62799999999999,286.99299999999999,31.944800000000001,-66.505099999999999,-65.828900000000004,28.5291,118.34999999999999
3101.0,400.17500000000001,318.41899999999998,56.171799999999998,-39.428199999999997,-58.0505,6.7860500000000004,125.045
3102.0,403.452,293.88600000000002,26.8935,-62.6646,-49.368600000000001,-15.3992,131.06399999999999
3103.0,406.39100000000002,320.21800000000002,51.115499999999997,-29.179500000000001,-39.863500000000002,-37.585700000000003,136.232
3104.0,408.89299999999997,291.423,22.986999999999998,-44.837000000000003,-29.627600000000001,-59.303800000000003,140.40899999999999
3105.0,410.89299999999997,310.31400000000002,45.3367,-6.9591700000000003,-18.790800000000001,-80.086200000000005,143.44200000000001
3106.0,412.33100000000002,273.50200000000001,14.7262,-19.1892,-7.4966299999999997,-99.458600000000004,145.23699999999999
3107.0,413.19299999999998,288.77300000000002,38.782600000000002,25.757000000000001,4.0839299999999996,-117.009,145.697
3108.0,413.452,248.232,9.3959200000000003,19.399799999999999,15.777799999999999,-132.34200000000001,144.797
3109.0,413.13099999999997,257.79599999999999,32.174100000000003,66.862499999999997,27.398099999999999,-145.15799999999999,142.51300000000001
3110.0,412.24700000000001,214.66999999999999,3.9866199999999998,64.5244,38.776600000000002,-155.19999999999999,138.89699999999999
3111.0,410.85399999999998,223.238,28.823499999999999,115.83799999999999,49.747,-162.334,134.001
3112.0,408.98500000000001,175.846,-1.36717,112.232,60.172699999999999,-166.46100000000001,127.93300000000001
3113.0,406.72000000000003,182.36699999999999,22.872900000000001,162.642,69.926299999999998,-167.62700000000001,120.794
3114.0,404.10500000000002,136.31999999999999,-5.3337500000000002,159.73400000000001,78.924999999999997,-165.88800000000001,112.733
3115.0,401.22500000000002,144.077,20.011399999999998,209.078,87.085599999999999,-161.43299999999999,103.869
3116.0,398.125,99.8125,-7.2614999999999998,204.13,94.3827,-154.43100000000001,94.366799999999998
3117.0,394.89499999999998,110.97499999999999,20.009899999999998,251.77000000000001,100.773,-145.17400000000001,84.350800000000007
3118.0,391.529,67.715000000000003,-8.2996099999999995,241.547,106.288,-133.88900000000001,73.971599999999995
3119.0,388.11000000000001,81.466099999999997,19.093699999999998,284.62200000000001,110.90000000000001,-120.89400000000001,63.384999999999998
3120.0,384.72300000000001,41.604399999999998,-8.7306399999999993,269.82100000000003,114.739,-106.627,52.615200000000002
3121.0,337.16500000000002,208.86099999999999,25.7866,-23.760000000000002,-83.500699999999995,104.97799999999999,69.904799999999994
3122.0,340.40499999999997,246.27699999999999,49.439399999999999,-8.5560899999999993,-80.761700000000005,91.808400000000006,76.371600000000001
3123.0,343.65499999999997,234.58500000000001,25.135200000000001,-39.5944,-77.375900000000001,77.057100000000005,83.081199999999995
3124.0,346.72000000000003,268.84100000000001,48.071300000000001,-21.411899999999999,-73.102999999999994,60.879300000000001,89.734800000000007
3125.0,349.637,253.80000000000001,23.152799999999999,-48.820700000000002,-67.948599999999999,43.395499999999998,96.205600000000004
3126.0,352.483,285.90600000000001,46.990699999999997,-24.944299999999998,-61.9529,24.8811,102.357
3127.0,355.20999999999998,265.74000000000001,20.4528,-48.758600000000001,-55.145800000000001,5.6303700000000001,108.048
3128.0,357.78899999999999,292.18400000000003,42.646900000000002,-21.052299999999999,-47.580199999999998,-13.997,113.154
3129.0,360.13299999999998,266.78300000000002,15.3331,-40.030299999999997,-39.3095,-33.608699999999999,117.556
3130.0,362.17399999999998,286.66500000000002,35.758499999999998,-8.4915000000000003,-30.410299999999999,-52.789099999999998,121.134
3131.0,363.84199999999998,257.673,9.8018800000000006,-20.669,-20.969899999999999,-71.118799999999993,123.783
3132.0,365.09399999999999,274.76100000000002,32.366999999999997,18.1343,-11.1037,-88.199799999999996,125.404
3133.0,365.90199999999999,239.315,4.7027999999999999,8.8983000000000008,-0.93873200000000001,-103.65300000000001,125.92700000000001
3134.0,366.262,250.97399999999999,26.2379,50.706499999999998,9.3767600000000009,-117.15000000000001,125.307
3135.0,366.18099999999998,213.16,0.127779,46.323,19.696999999999999,-128.41300000000001,123.53
3136.0,365.673,220.82400000000001,21.017800000000001,89.948899999999995,29.871099999999998,-137.232,120.61
3137.0,364.76499999999999,178.916,-6.4921199999999999,85.726399999999998,39.760599999999997,-143.46700000000001,116.59
3138.0,363.488,187.34299999999999,17.1463,132.745,49.2361,-147.053,111.53700000000001
3139.0,361.88400000000001,145.49600000000001,-9.0490399999999998,129.578,58.188699999999997,-147.999,105.536
3140.0,359.99000000000001,152.40199999999999,13.604100000000001,174.48099999999999,66.523099999999999,-146.381,98.688599999999994
3141.0,357.86000000000001,110.407,-12.897500000000001,169.08500000000001,74.165999999999997,-142.33799999999999,91.101900000000001
3142.0,355.524,118.17700000000001,9.8224900000000002,211.42599999999999,81.061800000000005,-136.05099999999999,82.893500000000003
3143.0,353.036,76.389899999999997,-17.840299999999999,201.63999999999999,87.168700000000001,-127.754,74.178100000000001
3144.0,350.41300000000001,87.979500000000002,6.8357299999999999,242.18199999999999,92.484800000000007,-117.68000000000001,65.086299999999994
3145.0,347.69299999999998,48.802199999999999,-20.482199999999999,228.57400000000001,96.999600000000001,-106.09699999999999,55.738799999999998
3146.0,344.92700000000002,63.506300000000003,4.6582699999999999,265.13600000000002,100.723,-93.368700000000004,46.198900000000002
3147.0,305.15100000000001,220.03100000000001,45.859400000000001,13.6615,-77.619100000000003,93.647400000000005,62.5916
3148.0,308.25099999999998,209.10499999999999,22.679600000000001,-16.8186,-75.317099999999996,81.987399999999994,68.695099999999996
3149.0,310.99700000000001,240.66499999999999,43.205100000000002,-2.3860999999999999,-72.210099999999997,68.877200000000002,74.771699999999996
3150.0,313.61599999999999,227.09399999999999,19.712299999999999,-30.119700000000002,-68.283199999999994,54.488100000000003,80.902799999999999
3151.0,316.12799999999999,256.017,39.954700000000003,-12.024900000000001,-63.567300000000003,38.9833,86.871200000000002
3152.0,318.548,238.25999999999999,14.869999999999999,-37.002400000000002,-58.0625,22.541899999999998,92.471800000000002
3153.0,320.91500000000002,264.99400000000003,35.8354,-13.499499999999999,-51.835599999999999,5.4314900000000002,97.611699999999999
3154.0,323.18299999999999,244.78,11.6738,-32.626399999999997,-44.939799999999998,-12.0311,102.187
3155.0,325.28500000000003,267.66699999999997,32.652000000000001,-4.0918599999999996,-37.427700000000002,-29.482500000000002,106.11799999999999
3156.0,327.14499999999998,244.34800000000001,9.6104400000000005,-17.111000000000001,-29.3567,-46.550899999999999,109.315
3157.0,328.69499999999999,260.928,28.708500000000001,14.363099999999999,-20.794899999999998,-62.854999999999997,111.69499999999999
3158.0,329.89699999999999,230.73400000000001,3.21983,3.4273600000000002,-11.833500000000001,-78.034700000000001,113.178
3159.0,330.72699999999998,244.43100000000001,23.6812,40.385899999999999,-2.5819000000000001,-91.752499999999998,113.7
3160.0,331.18400000000003,211.22900000000001,-0.88280199999999998,33.948999999999998,6.8360300000000001,-103.721,113.214
3161.0,331.267,219.97,18.1252,72.364800000000002,16.288699999999999,-113.69,111.7
3162.0,330.99299999999999,184.655,-5.5802199999999997,68.961200000000005,25.641500000000001,-121.47499999999999,109.163
3163.0,330.37200000000001,192.70699999999999,15.1181,110.447,34.766800000000003,-126.949,105.634
3164.0,329.42899999999997,153.428,-10.7964,105.378,43.544499999999999,-130.06,101.161
3165.0,328.18400000000003,159.67400000000001,9.1971399999999992,145.88399999999999,51.865400000000001,-130.81299999999999,95.813100000000006
3166.0,326.66899999999998,121.529,-15.1326,141.35599999999999,59.635899999999999,-129.28100000000001,89.672300000000007
3167.0,324.91000000000003,128.95699999999999,5.8773499999999999,181.12,66.775400000000005,-125.58799999999999,82.830500000000001
3168.0,322.94499999999999,92.237200000000001,-17.763400000000001,174.886,73.225200000000001,-119.90900000000001,75.391099999999994
3169.0,320.80599999999998,102.815,5.1586600000000002,213.624,78.937299999999993,-112.44799999999999,67.460099999999997
3170.0,318.51499999999999,66.670000000000002,-19.572199999999999,202.898,83.893000000000001,-103.43600000000001,59.149799999999999
3171.0,316.08800000000002,79.636200000000002,3.7326100000000002,238.23599999999999,88.085899999999995,-93.097700000000003,50.594000000000001
3172.0,313.63099999999997,46.072499999999998,-20.738600000000002,223.76400000000001,91.548000000000002,-81.783600000000007,41.815300000000001
3173.0,276.29599999999999,177.03700000000001,11.434900000000001,-5.9803699999999997,-72.246799999999993,83.644099999999995,55.015999999999998
3174.0,278.964,207.18199999999999,30.280200000000001,5.9831300000000001,-69.950699999999998,73.022000000000006,60.449300000000001
3175.0,281.86599999999999,197.27000000000001,10.3423,-19.1158,-67.306799999999996,61.349400000000003,66.458200000000005
3176.0,284.38400000000001,224.15899999999999,28.6418,-4.4642499999999998,-63.862900000000003,48.650599999999997,72.439400000000006
3177.0,286.66399999999999,211.07599999999999,8.0699000000000005,-26.922699999999999,-59.565600000000003,34.928199999999997,78.172499999999999
3178.0,288.89800000000002,236.77600000000001,27.341699999999999,-7.4556699999999996,-54.521500000000003,20.373100000000001,83.542500000000004
3179.0,291.09300000000002,220.25800000000001,5.6609699999999998,-26.7761,-48.793900000000001,5.1947299999999998,88.405100000000004
3180.0,293.238,241.786,23.531300000000002,-4.3005300000000002,-42.454700000000003,-10.3224,92.695899999999995
3181.0,295.255,221.51499999999999,1.3633200000000001,-19.611499999999999,-35.563200000000002,-25.854800000000001,96.352999999999994
3182.0,297.05599999999998,237.732,17.616800000000001,5.7107000000000001,-28.166899999999998,-41.049900000000001,99.320800000000006
3183.0,298.57600000000002,214.87899999999999,-3.20838,-3.9300299999999999,-20.326000000000001,-55.561,101.53400000000001
3184.0,299.76999999999998,229.06700000000001,14.9764,27.3843,-12.114599999999999,-69.058300000000003,102.92700000000001
3185.0,300.62299999999999,200.79400000000001,-7.4480899999999997,19.804500000000001,-3.6295999999999999,-81.246600000000001,103.44
3186.0,301.13,210.39500000000001,9.6732300000000002,53.224400000000003,5.0150399999999999,-91.858900000000006,103.03
3187.0,301.29899999999998,180.39500000000001,-11.3576,49.626300000000001,13.694699999999999,-100.682,101.675
3188.0,301.13099999999997,186.63999999999999,5.0635700000000003,84.252799999999993,22.286300000000001,-107.54900000000001,99.376900000000006
3189.0,300.63999999999999,153.148,-17.3291,80.470100000000002,30.665400000000002,-112.354,96.156899999999993
3190.0,299.83600000000001,160.398,1.6519699999999999,118.102,38.718499999999999,-115.041,92.062299999999993
3191.0,298.74299999999999,127.105,-19.567599999999999,115.197,46.341000000000001,-115.629,87.153099999999995
3192.0,297.37200000000001,133.06700000000001,-1.46166,150.93799999999999,53.443199999999997,-114.179,81.505499999999998
3193.0,295.75900000000001,99.598799999999997,-22.988499999999998,146.066,59.9452,-110.819,75.205299999999994
3194.0,293.91800000000001,106.35899999999999,-4.7166199999999998,179.74100000000001,65.789400000000001,-105.697,68.3476
3195.0,291.89499999999998,72.917900000000003,-27.291,171.11600000000001,70.922700000000006,-99.016499999999994,61.033099999999997
3196.0,289.69999999999999,83.131799999999998,-7.0254899999999996,203.68199999999999,75.336600000000004,-90.968400000000003,53.368400000000001
3197.0,287.37200000000001,51.828800000000001,-29.221499999999999,192.02500000000001,79.015100000000004,-81.774500000000003,45.477499999999999
3198.0,284.93400000000003,64.737499999999997,-8.2814599999999992,221.63800000000001,81.979900000000001,-71.699399999999997,37.400700000000001
3199.0,249.94800000000001,188.15100000000001,31.0061,24.704000000000001,-66.539199999999994,74.515500000000003,47.642899999999997
3200.0,253.17699999999999,182.02600000000001,13.4009,2.2116500000000001,-64.963700000000003,64.982500000000002,52.672899999999998
3201.0,255.61099999999999,205.18000000000001,27.728999999999999,11.693899999999999,-62.663200000000003,54.4895,57.9026
3202.0,257.86000000000001,194.208,9.2178100000000001,-10.0868,-59.597099999999998,43.094299999999997,63.507599999999996
3203.0,259.97699999999998,215.03899999999999,23.6312,2.8719999999999999,-55.831899999999997,30.938500000000001,69.097300000000004
3204.0,261.97399999999999,200.809,3.9206699999999999,-16.511700000000001,-51.280799999999999,18.053799999999999,74.292299999999997
3205.0,264.02100000000002,220.63300000000001,19.206600000000002,1.0480400000000001,-46.069000000000003,4.6052,78.986900000000006
3206.0,266.06900000000002,205.471,0.718279,-13.159000000000001,-40.296199999999999,-9.1686700000000005,83.088899999999995
3207.0,268.02699999999999,222.81200000000001,16.218699999999998,8.6362799999999993,-34.020699999999998,-22.974499999999999,86.560400000000001
3208.0,269.79000000000002,205.71899999999999,-1.0164500000000001,-0.32903199999999999,-27.290600000000001,-36.491900000000001,89.367000000000004
3209.0,271.27800000000002,217.88800000000001,12.8063,23.626000000000001,-20.150700000000001,-49.401299999999999,91.461299999999994
3210.0,272.45100000000002,195.05500000000001,-6.6051000000000002,16.078499999999998,-12.6694,-61.399099999999997,92.792500000000004
3211.0,273.29500000000002,205.065,8.4806699999999999,44.5625,-4.9382200000000003,-72.216099999999997,93.304100000000005
3212.0,273.80700000000002,180.001,-10.003299999999999,40.753300000000003,2.9371299999999998,-81.620999999999995,92.959500000000006
3213.0,273.995,185.86799999999999,3.7469600000000001,70.159199999999998,10.839600000000001,-89.426000000000002,91.734899999999996
3214.0,273.86200000000002,159.315,-13.8515,68.894499999999994,18.650300000000001,-95.478899999999996,89.635599999999997
3215.0,273.42099999999999,164.88499999999999,1.50315,100.913,26.253699999999998,-99.691500000000005,86.683499999999995
3216.0,272.67599999999999,134.917,-18.093299999999999,97.962000000000003,33.544899999999998,-102.02,82.923400000000001
3217.0,271.64400000000001,138.99600000000001,-3.32423,129.03899999999999,40.421999999999997,-102.482,78.409499999999994
3218.0,270.33999999999997,110.188,-21.3748,126.657,46.8033,-101.13,73.219399999999993
3219.0,268.791,115.401,-5.5650300000000001,157.21799999999999,52.612099999999998,-98.087400000000002,67.431600000000003
3220.0,267.01400000000001,87.869,-22.875299999999999,153.50700000000001,57.8003,-93.483999999999995,61.141100000000002
3221.0,265.05700000000002,95.875699999999995,-5.1922499999999996,183.46000000000001,62.3185,-87.512,54.441699999999997
3222.0,262.923,68.688000000000002,-23.407399999999999,176.00299999999999,66.164900000000003,-80.342699999999994,47.430199999999999
3223.0,260.66399999999999,78.632999999999996,-5.2857099999999999,203.31200000000001,69.319199999999995,-72.167100000000005,40.231699999999996
3224.0,258.28699999999998,53.511299999999999,-23.191099999999999,192.86600000000001,71.841899999999995,-63.237699999999997,32.859400000000001
3225.0,226.733,154.648,6.4756299999999998,9.6710200000000004,-62.030700000000003,66.829899999999995,40.717799999999997
3226.0,228.91200000000001,178.99600000000001,20.217400000000001,17.055099999999999,-59.782699999999998,57.997799999999998,44.214100000000002
3227.0,231.63999999999999,174.91399999999999,6.4416599999999997,0.123625,-57.878599999999999,48.128100000000003,48.891800000000003
3228.0,233.82400000000001,194.47300000000001,19.0383,10.5192,-55.545699999999997,37.8947,54.052799999999998
3229.0,235.42699999999999,184.40000000000001,3.6304699999999999,-6.0036100000000001,-52.294400000000003,26.980399999999999,59.233800000000002
3230.0,237.11600000000001,202.43799999999999,17.054500000000001,7.9951100000000004,-48.281199999999998,15.501799999999999,64.241699999999994
3231.0,238.91800000000001,190.02500000000001,0.78503699999999998,-6.00556,-43.652700000000003,3.5579700000000001,68.761200000000002
3232.0,240.804,205.334,13.1776,10.409599999999999,-38.489800000000002,-8.6877800000000001,72.691500000000005
3233.0,242.661,190.57499999999999,-3.25718,-0.22617899999999999,-32.879800000000003,-20.982299999999999,75.998699999999999
3234.0,244.34399999999999,201.858,7.8447100000000001,18.417899999999999,-26.856200000000001,-33.026800000000001,78.667900000000003
3235.0,245.76400000000001,185.41499999999999,-7.1880600000000001,12.612299999999999,-20.4604,-44.521900000000002,80.670100000000005
3236.0,246.875,195.38499999999999,5.7870600000000003,36.342700000000001,-13.750500000000001,-55.194400000000002,81.961699999999993
3237.0,247.667,174.476,-10.615399999999999,32.036000000000001,-6.8069699999999997,-64.804400000000001,82.498099999999994
3238.0,248.14599999999999,180.684,1.4449099999999999,57.311500000000002,0.26549099999999998,-73.145700000000005,82.242000000000004
3239.0,248.31700000000001,158.65799999999999,-13.5647,56.380800000000001,7.3564800000000004,-80.0488,81.175700000000006
3240.0,248.185,162.14099999999999,-2.0889700000000002,82.4876,14.3546,-85.394099999999995,79.301900000000003
3241.0,247.75299999999999,137.23599999999999,-18.244700000000002,81.226200000000006,21.152899999999999,-89.094499999999996,76.643199999999993
3242.0,247.035,141.90700000000001,-4.3044500000000001,110.027,27.6508,-91.114699999999999,73.243799999999993
3243.0,246.04400000000001,117.363,-19.279199999999999,109.57599999999999,33.7624,-91.468299999999999,69.164100000000005
3244.0,244.79599999999999,120.914,-6.0713499999999998,136.68600000000001,39.411000000000001,-90.218800000000002,64.472099999999998
3245.0,243.31399999999999,96.193200000000004,-21.263999999999999,134.547,44.532400000000003,-87.461500000000001,59.249000000000002
3246.0,241.61799999999999,100.373,-7.86083,159.934,49.081499999999998,-83.330399999999997,53.578400000000002
3247.0,239.74700000000001,75.5047,-23.977799999999998,154.59299999999999,53.018900000000002,-77.980800000000002,47.550899999999999
3248.0,237.71899999999999,82.638400000000004,-8.7070000000000007,179.28,56.3429,-71.577600000000004,41.252200000000002
3249.0,235.56899999999999,59.455800000000004,-24.4541,171.53899999999999,59.043100000000003,-64.277900000000002,34.790799999999997
3250.0,233.30000000000001,68.782700000000006,-8.5215099999999993,193.929,61.155299999999997,-56.302300000000002,28.2074
3251.0,206.83600000000001,158.053,20.732600000000001,30.115200000000002,-57.725700000000003,60.913400000000003,36.4985
3252.0,208.46299999999999,162.90000000000001,12.339700000000001,19.151399999999999,-55.773499999999999,51.732999999999997,38.327300000000001
3253.0,211.23699999999999,180.81200000000001,20.9224,22.760200000000001,-53.945300000000003,43.018000000000001,41.088999999999999
3254.0,212.375,174.74000000000001,8.9178300000000004,7.97872,-51.709099999999999,33.3797,45.039400000000001
3255.0,213.67099999999999,188.84700000000001,17.967500000000001,16.468800000000002,-48.907899999999998,23.2714,49.654000000000003
3256.0,214.86600000000001,178.03100000000001,3.47112,2.7608700000000002,-45.458799999999997,12.9854,54.363900000000001
3257.0,216.30099999999999,191.333,13.573,15.1647,-41.383400000000002,2.2785000000000002,58.636200000000002
3258.0,217.946,180.47900000000001,0.24688399999999999,5.68736,-36.8384,-8.6547999999999998,62.374699999999997
3259.0,219.65199999999999,192.696,10.9864,21.828099999999999,-31.908100000000001,-19.653099999999998,65.493099999999998
3260.0,221.19900000000001,180.77799999999999,-1.071,16.717700000000001,-26.598700000000001,-30.415199999999999,68.0214
3261.0,222.51400000000001,188.91399999999999,8.3583599999999993,34.5486,-20.950900000000001,-40.697899999999997,69.926599999999993
3262.0,223.52099999999999,172.13499999999999,-5.6737099999999998,30.278700000000001,-15.0024,-50.220799999999997,71.190899999999999
3263.0,224.24199999999999,178.76599999999999,5.0357799999999999,51.944600000000001,-8.8450900000000008,-58.787500000000001,71.760300000000001
3264.0,224.65799999999999,160.316,-8.1112000000000002,50.728700000000003,-2.5632899999999998,-66.200400000000002,71.610799999999998
3265.0,224.79900000000001,163.559,1.4859800000000001,72.984300000000005,3.7319900000000001,-72.334999999999994,70.719899999999996
3266.0,224.655,144.07400000000001,-10.7745,73.872799999999998,9.9442000000000004,-77.058099999999996,69.098200000000006
3267.0,224.25299999999999,147.345,0.39662999999999998,98.398499999999999,15.971,-80.318399999999997,66.767899999999997
3268.0,223.578,124.88200000000001,-13.6701,97.605599999999995,21.730499999999999,-82.073499999999996,63.772300000000001
3269.0,222.65899999999999,126.907,-2.97044,121.251,27.1356,-82.350099999999998,60.160600000000002
3270.0,221.501,105.521,-15.6053,120.996,32.124299999999998,-81.182199999999995,56.004800000000003
3271.0,220.137,108.571,-3.9055,144.29300000000001,36.636000000000003,-78.678100000000001,51.3752
3272.0,218.577,88.230500000000006,-15.8752,142.95400000000001,40.637,-74.935699999999997,46.353000000000002
3273.0,216.864,93.703199999999995,-2.4390000000000001,165.922,44.092799999999997,-70.114599999999996,41.017200000000003
3274.0,215.00200000000001,73.427400000000006,-15.2934,161.364,47.006,-64.3489,35.444400000000002
3275.0,213.036,80.451099999999997,-1.4583600000000001,182.22800000000001,49.3643,-57.787199999999999,29.731000000000002
3276.0,210.964,61.7181,-14.141299999999999,175.17599999999999,51.212200000000003,-50.628300000000003,23.902200000000001
3277.0,187.72200000000001,110.46599999999999,-15.696999999999999,-5.4530900000000004,-52.883499999999998,55.407499999999999,31.145800000000001
3278.0,191.065,150.989,13.003399999999999,19.953199999999999,-51.568899999999999,48.283999999999999,33.686900000000001
3279.0,192.268,154.964,6.2688300000000003,11.8956,-50.122500000000002,39.002600000000001,34.453800000000001
3280.0,193.64400000000001,174.61600000000001,17.867799999999999,22.2468,-48.155700000000003,29.215499999999999,36.8675
3281.0,194.691,166.791,5.51335,9.3902000000000001,-45.761499999999998,20.145600000000002,40.843200000000003
3282.0,195.19399999999999,180.28800000000001,16.1751,21.062999999999999,-42.779299999999999,10.612299999999999,45.158099999999997
3283.0,196.26599999999999,169.75700000000001,2.9608099999999999,10.2141,-39.179699999999997,0.96793399999999996,49.155000000000001
3284.0,197.61600000000001,181.364,12.558,23.504000000000001,-35.245199999999997,-8.8958999999999993,52.663800000000002
3285.0,199.13200000000001,169.64599999999999,-0.39727200000000001,15.5716,-30.952500000000001,-18.787500000000001,55.576300000000003
3286.0,200.51300000000001,178.191,8.1376299999999997,30.4908,-26.3337,-28.476700000000001,57.953699999999998
3287.0,201.68799999999999,165.452,-3.3494100000000002,26.709499999999998,-21.393899999999999,-37.712899999999998,59.762900000000002
3288.0,202.57900000000001,173.14599999999999,6.9216899999999999,45.894599999999997,-16.179099999999998,-46.258499999999998,60.997399999999999
3289.0,203.203,156.702,-5.7336499999999999,43.188299999999998,-10.7577,-53.9285,61.610300000000002
3290.0,203.56200000000001,161.28100000000001,3.7295099999999999,63.464599999999997,-5.2198000000000002,-60.554499999999997,61.578499999999998
3291.0,203.67400000000001,144.14599999999999,-7.5882300000000003,63.606699999999996,0.33703300000000003,-66.013999999999996,60.881799999999998
3292.0,203.536,146.47499999999999,1.35653,84.401899999999998,5.8228400000000002,-70.213700000000003,59.528199999999998
3293.0,203.15600000000001,126.91,-10.975300000000001,84.078299999999999,11.1478,-73.093500000000006,57.534199999999998
3294.0,202.54499999999999,130.476,0.25104100000000001,107.248,16.234400000000001,-74.619600000000005,54.943300000000001
3295.0,201.71799999999999,111.32599999999999,-10.989800000000001,107.637,21.0124,-74.810900000000004,51.8078
3296.0,200.68199999999999,113.88800000000001,-0.43402000000000002,129.285,25.425000000000001,-73.714200000000005,48.186599999999999
3297.0,199.464,94.502300000000005,-11.921200000000001,128.17500000000001,29.420500000000001,-71.412099999999995,44.146599999999999
3298.0,198.07300000000001,97.537199999999999,-1.2241200000000001,148.36099999999999,32.969200000000001,-68.003900000000002,39.758499999999998
3299.0,196.54599999999999,77.825999999999993,-13.6473,144.43199999999999,36.040100000000002,-63.620800000000003,35.091999999999999
3300.0,194.887,83.384,-1.2950299999999999,164.16900000000001,38.634799999999998,-58.385300000000001,30.214700000000001
3301.0,193.13300000000001,64.979399999999998,-13.4686,158.23500000000001,40.743499999999997,-52.434600000000003,25.203299999999999
3302.0,191.27600000000001,72.367900000000006,-0.52137199999999995,176.167,42.393700000000003,-45.932699999999997,20.104399999999998
3303.0,170.97399999999999,85.218100000000007,-36.620600000000003,-19.913399999999999,-49.864400000000003,48.557899999999997,23.173200000000001
3304.0,171.86799999999999,104.001,-25.1995,-12.2844,-46.181100000000001,44.806699999999999,25.3413
3305.0,174.125,158.93899999999999,20.704899999999999,30.417899999999999,-46.5413,34.750999999999998,27.916899999999998
3306.0,177.96600000000001,158.27099999999999,10.364699999999999,18.076000000000001,-45.246899999999997,26.0504,29.993099999999998
3307.0,178.00299999999999,170.66499999999999,19.093399999999999,26.4664,-42.870100000000001,17.555599999999998,33.3461
3308.0,178.178,160.369,6.2409400000000002,14.6942,-40.161200000000001,8.5791000000000004,37.254199999999997
3309.0,178.852,171.316,15.041700000000001,25.929600000000001,-37.018000000000001,-0.18246599999999999,40.980200000000004
3310.0,179.97300000000001,161.59399999999999,3.6004499999999999,18.0381,-33.598599999999998,-9.17225,44.203899999999997
3311.0,181.27199999999999,172.02699999999999,13.063499999999999,32.2271,-29.901199999999999,-18.106000000000002,46.915999999999997
3312.0,182.49199999999999,161.98599999999999,3.1091600000000001,28.193999999999999,-25.8964,-26.8858,49.117100000000001
3313.0,183.50899999999999,168.904,11.308199999999999,43.464399999999998,-21.5915,-35.222999999999999,50.834299999999999
3314.0,184.285,154.846,-0.28984799999999999,40.021299999999997,-17.022600000000001,-42.940300000000001,52.031599999999997
3315.0,184.816,160.559,8.9744499999999992,58.384900000000002,-12.260199999999999,-49.833199999999998,52.683399999999999
3316.0,185.11799999999999,145.32400000000001,-1.72428,57.5383,-7.3858100000000002,-55.783900000000003,52.753399999999999
3317.0,185.197,148.113,6.4565299999999999,76.115099999999998,-2.4816699999999998,-60.671199999999999,52.234000000000002
3318.0,185.06800000000001,132.22399999999999,-3.3466499999999999,77.075199999999995,2.36714,-64.413700000000006,51.126800000000003
3319.0,184.74000000000001,135.16200000000001,6.2156799999999999,97.5364,7.0864399999999996,-66.954099999999997,49.4589
3320.0,184.209,116.715,-5.2062299999999997,96.911900000000003,11.6045,-68.279700000000005,47.259099999999997
3321.0,183.48699999999999,118.506,3.8346100000000001,116.45399999999999,15.857799999999999,-68.400499999999994,44.567599999999999
3322.0,182.589,101.072,-6.2956899999999996,116.34999999999999,19.792200000000001,-67.353499999999997,41.442300000000003
3323.0,181.53,103.729,3.57613,135.59200000000001,23.364799999999999,-65.217600000000004,37.940600000000003
3324.0,180.322,87.191699999999997,-5.9821499999999999,134.608,26.546399999999998,-62.0764,34.127099999999999
3325.0,178.994,91.917199999999994,5.3789499999999997,153.63399999999999,29.314399999999999,-58.054000000000002,30.061900000000001
3326.0,177.542,75.315100000000001,-5.0348899999999999,149.869,31.666699999999999,-53.261099999999999,25.805499999999999
3327.0,176.0,81.263999999999996,6.58995,167.09700000000001,33.593499999999999,-47.823,21.420400000000001
3328.0,174.36500000000001,65.894900000000007,-3.72566,161.24700000000001,35.116300000000003,-41.892800000000001,16.9438
3329.0,158.09299999999999,76.843299999999999,-41.514200000000002,-18.555399999999999,-47.144399999999997,43.297600000000003,17.157800000000002
3330.0,157.30099999999999,114.70099999999999,-10.4238,12.295,-42.629300000000001,39.8249,20.035
3331.0,159.33000000000001,140.32300000000001,10.263500000000001,23.405799999999999,-43.616300000000003,30.583200000000001,22.3172
3332.0,163.23599999999999,155.523,17.190300000000001,26.7134,-42.245199999999997,23.751200000000001,23.737500000000001
3333.0,163.06299999999999,152.01599999999999,10.2562,19.636800000000001,-40.139600000000002,15.176399999999999,27.147600000000001
3334.0,163.37100000000001,161.505,16.9297,27.5458,-37.608499999999999,6.9821799999999996,30.662400000000002
3335.0,163.636,153.74100000000001,7.5579599999999996,20.657299999999999,-34.872100000000003,-1.1689000000000001,34.148099999999999
3336.0,164.69200000000001,162.244,14.4346,30.918399999999998,-31.920999999999999,-9.3553099999999993,37.064599999999999
3337.0,165.71000000000001,153.19999999999999,4.76952,25.678699999999999,-28.726800000000001,-17.503499999999999,39.579700000000003
3338.0,166.822,159.56399999999999,11.2829,37.653300000000002,-25.255299999999998,-25.494900000000001,41.607999999999997
3339.0,167.65700000000001,149.58699999999999,2.6474600000000001,35.572200000000002,-21.494800000000001,-33.0548,43.233699999999999
3340.0,168.346,155.583,10.9687,51.407600000000002,-17.493200000000002,-40.052300000000002,44.382100000000001
3341.0,168.773,142.333,1.09544,49.882599999999996,-13.2959,-46.275500000000001,45.062899999999999
3342.0,169.042,145.83699999999999,8.8123799999999992,66.629000000000005,-8.9919600000000006,-51.6434,45.222700000000003
3343.0,169.102,132.095,0.053213000000000003,67.409499999999994,-4.6481300000000001,-56.015999999999998,44.866900000000001
3344.0,168.999,133.761,7.3247,84.504000000000005,-0.34579700000000002,-59.363799999999998,43.984099999999998
3345.0,168.69900000000001,117.857,-2.4635199999999999,84.630700000000004,3.8542100000000001,-61.613500000000002,42.594999999999999
3346.0,168.24700000000001,120.749,6.86069,103.807,7.8826700000000001,-62.760399999999997,40.7271
3347.0,167.62899999999999,105.279,-1.98973,104.535,11.6875,-62.801699999999997,38.428199999999997
3348.0,166.86199999999999,107.294,6.6957300000000002,122.346,15.218400000000001,-61.795699999999997,35.7363
3349.0,165.952,91.561300000000003,-2.4585499999999998,121.718,18.438600000000001,-59.7958,32.706000000000003
3350.0,164.91399999999999,93.946399999999997,6.2951800000000002,138.262,21.319099999999999,-56.8932,29.392299999999999
3351.0,163.75899999999999,77.811099999999996,-3.7962699999999998,135.12799999999999,23.8401,-53.183199999999999,25.848099999999999
3352.0,162.499,82.365600000000001,6.3819999999999997,151.34700000000001,25.991800000000001,-48.774900000000002,22.126899999999999
3353.0,161.142,67.314300000000003,-3.52867,146.50700000000001,27.773299999999999,-43.778799999999997,18.278400000000001
3354.0,159.70599999999999,73.408000000000001,7.1565300000000001,161.24600000000001,29.185300000000002,-38.333799999999997,14.353199999999999
3355.0,144.20500000000001,117.248,7.7610599999999996,28.101900000000001,-42.5608,39.758699999999997,12.1701
3356.0,144.87299999999999,123.652,8.1010000000000009,25.851299999999998,-40.203600000000002,35.4758,15.784599999999999
3357.0,146.953,145.43000000000001,23.325800000000001,35.953000000000003,-40.376100000000001,27.613299999999999,17.225000000000001
3358.0,149.55699999999999,141.077,12.024699999999999,22.961500000000001,-39.108600000000003,21.265499999999999,18.793299999999999
3359.0,149.84299999999999,153.714,21.229700000000001,31.8598,-37.391599999999997,13.195600000000001,22.2075
3360.0,150.22900000000001,144.19200000000001,8.90503,20.931999999999999,-35.156700000000001,5.6898499999999999,25.453099999999999
3361.0,150.435,154.10400000000001,17.308199999999999,31.786300000000001,-32.746200000000002,-1.9092499999999999,28.6389
3362.0,151.33500000000001,145.44999999999999,7.2658399999999999,24.966100000000001,-30.224599999999999,-9.3873499999999996,31.278199999999998
3363.0,152.208,154.614,15.9503,37.841999999999999,-27.443200000000001,-16.856400000000001,33.586500000000001
3364.0,153.155,145.99299999999999,7.5940099999999999,34.579900000000002,-24.430700000000002,-24.130800000000001,35.456600000000002
3365.0,153.86699999999999,151.96299999999999,14.903700000000001,47.962299999999999,-21.117100000000001,-31.023299999999999,36.981400000000001
3366.0,154.44999999999999,140.02600000000001,5.2040499999999996,45.199100000000001,-17.5886,-37.373800000000003,38.087699999999998
3367.0,154.816,145.00899999999999,13.340199999999999,61.060499999999998,-13.870799999999999,-43.010399999999997,38.774799999999999
3368.0,155.036,132.24000000000001,4.4968399999999997,60.520000000000003,-10.0585,-47.853999999999999,38.996600000000001
3369.0,155.06800000000001,134.66,11.5563,76.304599999999994,-6.1912799999999999,-51.7986,38.754899999999999
3370.0,154.97200000000001,121.47799999999999,3.5371000000000001,77.305099999999996,-2.3483499999999999,-54.790199999999999,38.046199999999999
3371.0,154.74100000000001,124.169,11.7913,94.701800000000006,1.4180900000000001,-56.769100000000002,36.8996
3372.0,154.37,108.795,2.28464,94.223799999999997,5.03796,-57.7485,35.329700000000003
3373.0,153.84700000000001,110.43300000000001,9.9646699999999999,110.663,8.4696899999999999,-57.729500000000002,33.359999999999999
3374.0,153.20099999999999,95.985299999999995,1.5783100000000001,110.63500000000001,11.66,-56.753599999999999,31.034500000000001
3375.0,152.42599999999999,98.4101,9.9722000000000008,126.834,14.581,-54.874200000000002,28.398599999999998
3376.0,151.54400000000001,84.721299999999999,2.0389200000000001,126.045,17.200500000000002,-52.173099999999998,25.502400000000002
3377.0,150.55000000000001,88.989599999999996,11.759399999999999,142.137,19.506900000000002,-48.735500000000002,22.3947
3378.0,149.46000000000001,75.130399999999995,2.9736799999999999,138.87700000000001,21.485800000000001,-44.6708,19.122499999999999
3379.0,148.26400000000001,80.458600000000004,12.928900000000001,153.44999999999999,23.137799999999999,-40.069099999999999,15.729799999999999
3380.0,147.001,67.512699999999995,4.11212,148.32900000000001,24.454599999999999,-35.073,12.251300000000001
3381.0,130.96100000000001,111.702,10.165100000000001,27.117799999999999,-37.731400000000001,35.8245,7.1614500000000003
3382.0,133.03899999999999,126.69,18.742999999999999,33.7288,-37.4482,31.335599999999999,9.7821300000000004
3383.0,135.619,127.703,13.0158,25.452400000000001,-37.186199999999999,25.158999999999999,12.4306
3384.0,137.464,139.95699999999999,19.734100000000002,30.842400000000001,-36.148600000000002,18.748000000000001,15.057399999999999
3385.0,138.04400000000001,135.74100000000001,11.8558,23.286899999999999,-34.616599999999998,11.5558,18.2423
3386.0,138.40299999999999,145.30699999999999,18.911300000000001,31.837199999999999,-32.767099999999999,4.56149,21.313199999999998
3387.0,138.78299999999999,138.22200000000001,10.186500000000001,25.531700000000001,-30.701499999999999,-2.40985,24.164000000000001
3388.0,139.49600000000001,146.14400000000001,17.001899999999999,35.4251,-28.526,-9.3061000000000007,26.583400000000001
3389.0,140.27799999999999,137.952,8.4258500000000005,30.749700000000001,-26.1082,-16.146799999999999,28.674900000000001
3390.0,141.05099999999999,143.70599999999999,14.5801,41.658900000000003,-23.4498,-22.798400000000001,30.4208
3391.0,141.672,134.99199999999999,7.15341,39.900100000000002,-20.5276,-29.078499999999998,31.839500000000001
3392.0,142.149,140.417,14.7173,53.9163,-17.392499999999998,-34.849200000000003,32.892000000000003
3393.0,142.46199999999999,129.05699999999999,6.3051700000000004,52.635399999999997,-14.0847,-39.967700000000001,33.5687
3394.0,142.64500000000001,132.34,13.222,67.244399999999999,-10.674799999999999,-44.338900000000002,33.840600000000002
3395.0,142.69300000000001,120.798,5.8895499999999998,68.038399999999996,-7.2160900000000003,-47.865900000000003,33.697899999999997
3396.0,142.619,122.467,12.2723,82.748999999999995,-3.7679200000000002,-50.529000000000003,33.138500000000001
3397.0,142.41,109.01600000000001,3.9436,82.778000000000006,-0.37682500000000002,-52.291600000000003,32.173200000000001
3398.0,142.10499999999999,111.764,12.0344,99.173299999999998,2.8912100000000001,-53.132899999999999,30.8249
3399.0,141.678,98.880799999999994,4.6098800000000004,99.824799999999996,5.9863799999999996,-53.049799999999998,29.1282
3400.0,141.131,100.84099999999999,12.0609,114.953,8.8779000000000003,-52.101500000000001,27.104600000000001
3401.0,140.47800000000001,87.746700000000004,4.35642,114.419,11.5359,-50.334099999999999,24.797999999999998
3402.0,139.72800000000001,89.978999999999999,11.791700000000001,128.405,13.9299,-47.8262,22.253599999999999
3403.0,138.87299999999999,76.5017,3.23169,125.68300000000001,16.0459,-44.647300000000001,19.513400000000001
3404.0,137.93000000000001,80.566900000000004,11.8599,139.37899999999999,17.866099999999999,-40.898600000000002,16.619599999999998
3405.0,136.87700000000001,68.065899999999999,3.50488,135.244,19.3963,-36.663499999999999,13.6119
3406.0,135.75899999999999,73.392099999999999,12.5427,147.65799999999999,20.621200000000002,-32.067700000000002,10.530200000000001
3407.0,121.0,121.086,25.864999999999998,41.366199999999999,-34.412999999999997,32.697099999999999,4.0678700000000001
3408.0,123.08499999999999,117.97199999999999,16.6769,30.251300000000001,-34.459499999999998,28.156500000000001,6.8121999999999998
3409.0,125.307,131.45699999999999,23.960100000000001,36.121699999999997,-34.111499999999999,22.685500000000001,9.5064499999999992
3410.0,126.82899999999999,127.56999999999999,15.1304,26.763500000000001,-33.341500000000003,16.599399999999999,12.303800000000001
3411.0,127.50700000000001,137.22300000000001,21.3139,33.5167,-32.050699999999999,10.133699999999999,15.2637
3412.0,127.877,129.821,11.592499999999999,25.295100000000001,-30.487300000000001,3.6621000000000001,18.056899999999999
3413.0,128.31200000000001,138.375,18.595600000000001,34.550899999999999,-28.750299999999999,-2.7421000000000002,20.583100000000002
3414.0,128.92599999999999,131.17699999999999,10.447800000000001,29.331499999999998,-26.850999999999999,-9.0980399999999992,22.791599999999999
3415.0,129.61099999999999,139.09800000000001,18.067799999999998,40.665199999999999,-24.741399999999999,-15.362299999999999,24.703199999999999
3416.0,130.25,131.68700000000001,11.1114,38.202800000000003,-22.384699999999999,-21.4313,26.3201
3417.0,130.77600000000001,136.92099999999999,17.593399999999999,49.967599999999997,-19.7776,-27.1556,27.644500000000001
3418.0,131.17699999999999,126.666,9.3467300000000009,47.738100000000003,-16.973099999999999,-32.391500000000001,28.646000000000001
3419.0,131.45099999999999,131.261,16.642099999999999,61.693899999999999,-14.010999999999999,-37.022500000000001,29.298100000000002
3420.0,131.608,120.32599999999999,9.0572199999999992,61.215699999999998,-10.9602,-40.968600000000002,29.594000000000001
3421.0,131.608,122.66500000000001,15.344200000000001,74.895200000000003,-7.8392799999999996,-44.158299999999997,29.515599999999999
3422.0,131.52799999999999,111.428,8.4268900000000002,75.650199999999998,-4.7004599999999996,-46.537399999999998,29.0518
3423.0,131.417,114.309,15.835599999999999,90.907300000000006,-1.637,-48.067799999999998,28.229399999999998
3424.0,131.20099999999999,101.26900000000001,7.5766200000000001,90.344700000000003,1.29989,-48.767099999999999,27.079999999999998
3425.0,130.83699999999999,103.128,14.387700000000001,104.56100000000001,4.1042199999999998,-48.639600000000002,25.600999999999999
3426.0,130.39099999999999,90.894900000000007,7.0848699999999996,104.334,6.7346000000000004,-47.721800000000002,23.822299999999998
3427.0,129.84700000000001,93.495699999999999,14.517799999999999,118.367,9.1545199999999998,-46.058300000000003,21.790099999999999
3428.0,129.22200000000001,81.909199999999998,7.5766,117.46599999999999,11.3385,-43.723500000000001,19.534099999999999
3429.0,128.501,86.165700000000001,16.211600000000001,131.48099999999999,13.2744,-40.781799999999997,17.101400000000002
3430.0,127.69499999999999,74.355500000000006,8.4693500000000004,128.39699999999999,14.946,-37.329900000000002,14.528600000000001
3431.0,126.774,79.517799999999994,17.319600000000001,141.113,16.354700000000001,-33.438200000000002,11.850099999999999
3432.0,125.786,68.374799999999993,9.4783100000000005,136.35400000000001,17.4848,-29.228400000000001,9.0970200000000006
3433.0,112.236,103.244,13.8376,28.6539,-31.603300000000001,29.961200000000002,2.5306199999999999
3434.0,113.851,117.712,22.688300000000002,35.878700000000002,-31.6159,25.411899999999999,5.0333100000000002
3435.0,115.97,114.59699999999999,13.8856,25.930199999999999,-31.354900000000001,20.450399999999998,7.5319000000000003
3436.0,117.16500000000001,126.01900000000001,20.972899999999999,32.754300000000001,-30.677399999999999,14.778,10.2171
3437.0,117.926,121.197,12.8255,25.405200000000001,-29.629899999999999,8.8805999999999994,12.870200000000001
3438.0,118.318,130.94200000000001,20.408200000000001,34.595999999999997,-28.34,2.9369499999999999,15.4152
3439.0,118.816,124.262,12.1976,28.617999999999999,-26.870000000000001,-2.9558300000000002,17.674700000000001
3440.0,119.35299999999999,132.042,19.157,38.415399999999998,-25.2407,-8.7912599999999994,19.6816
3441.0,119.922,124.18000000000001,11.113300000000001,33.828800000000001,-23.369399999999999,-14.535600000000001,21.426100000000002
3442.0,120.449,129.804,17.223700000000001,44.187399999999997,-21.253699999999998,-20.069800000000001,22.937999999999999
3443.0,120.898,121.762,10.3475,42.2958,-18.922699999999999,-25.266100000000002,24.171099999999999
3444.0,121.23699999999999,127.11199999999999,17.568999999999999,55.133000000000003,-16.403400000000001,-30.014500000000002,25.117000000000001
3445.0,121.44799999999999,116.97199999999999,9.9480699999999995,53.641800000000003,-13.736000000000001,-34.201300000000003,25.7378
3446.0,121.59399999999999,120.51900000000001,16.503699999999998,66.898399999999995,-10.9451,-37.744700000000002,26.043399999999998
3447.0,121.67700000000001,110.53100000000001,9.9019999999999992,67.376400000000004,-8.1686700000000005,-40.537199999999999,26.008299999999998
3448.0,121.596,112.709,15.931900000000001,80.575100000000006,-5.3608500000000001,-42.601100000000002,25.600999999999999
3449.0,121.52200000000001,100.902,8.3150700000000004,80.018799999999999,-2.5569099999999998,-44.012099999999997,24.911999999999999
3450.0,121.321,103.965,15.761699999999999,94.437399999999997,0.10922999999999999,-44.625500000000002,23.904
3451.0,121.042,92.9435,9.16798,94.720600000000005,2.6478100000000002,-44.463700000000003,22.5731
3452.0,120.691,95.298000000000002,15.911099999999999,107.97199999999999,5.0320999999999998,-43.578299999999999,21.009
3453.0,120.238,84.104299999999995,9.0314800000000002,107.167,7.2370000000000001,-42.011600000000001,19.200199999999999
3454.0,119.73399999999999,86.663600000000002,15.721299999999999,119.41,9.2349499999999995,-39.8551,17.1936
3455.0,119.131,75.111400000000003,8.0673499999999994,116.696,11.005000000000001,-37.145499999999998,15.026400000000001
3456.0,118.453,79.219499999999996,15.7788,128.68799999999999,12.5349,-33.977899999999998,12.7287
3457.0,117.66200000000001,68.534400000000005,8.3567599999999995,124.809,13.826499999999999,-30.415500000000002,10.3398
3458.0,116.791,73.700900000000004,16.448399999999999,135.714,14.868499999999999,-26.560500000000001,7.8875700000000002
3459.0,103.907,107.53,23.756399999999999,38.815800000000003,-29.2393,27.312799999999999,1.8786799999999999
3460.0,105.498,106.904,17.642600000000002,31.288499999999999,-29.125399999999999,23.0502,4.2953700000000001
3461.0,107.458,117.58,23.019300000000001,35.865699999999997,-28.930199999999999,18.4495,6.4126399999999997
3462.0,108.54000000000001,115.541,16.931100000000001,29.8642,-28.3536,13.203900000000001,8.76464
3463.0,109.289,123.01600000000001,21.4376,35.003999999999998,-27.497900000000001,7.8352599999999999,11.066000000000001
3464.0,109.657,117.446,13.909000000000001,28.900300000000001,-26.3719,2.3670599999999999,13.279
3465.0,110.161,124.56,19.687899999999999,36.615600000000001,-25.130299999999998,-3.0504699999999998,15.312900000000001
3466.0,110.574,118.643,13.1281,32.685699999999997,-23.669899999999998,-8.4028899999999993,17.144400000000001
3467.0,111.095,125.452,19.743200000000002,42.6935,-22.0061,-13.6629,18.746099999999998
3468.0,111.517,119.069,13.8452,40.851399999999998,-20.110800000000001,-18.670100000000001,20.143899999999999
3469.0,111.898,123.66200000000001,19.5364,51.226799999999997,-18.002199999999998,-23.389600000000002,21.299299999999999
3470.0,112.187,114.88500000000001,12.4108,49.441499999999998,-15.711399999999999,-27.641300000000001,22.1783
3471.0,112.44199999999999,119.23,18.966000000000001,61.827800000000003,-13.346299999999999,-31.416399999999999,22.7699
3472.0,112.5,109.855,12.3452,61.266399999999997,-10.809799999999999,-34.540900000000001,23.060099999999998
3473.0,112.495,111.887,17.719100000000001,73.039000000000001,-8.1609999999999996,-37.096699999999998,23.152999999999999
3474.0,112.636,102.417,11.532999999999999,73.414199999999994,-5.5452199999999996,-38.988399999999999,22.869900000000001
3475.0,112.492,105.753,18.447900000000001,86.955500000000001,-3.1203799999999999,-40.082000000000001,22.144500000000001
3476.0,112.354,94.777799999999999,11.463900000000001,86.581500000000005,-0.78441300000000003,-40.625900000000001,21.171199999999999
3477.0,112.2,96.992900000000006,17.539899999999999,98.913399999999996,1.53348,-40.476500000000001,19.981000000000002
3478.0,111.887,86.630300000000005,11.105499999999999,98.476299999999995,3.6882899999999998,-39.587000000000003,18.595800000000001
3479.0,111.559,89.508399999999995,17.757899999999999,110.724,5.7044600000000001,-38.141599999999997,16.960000000000001
3480.0,111.161,79.710400000000007,11.5823,109.67,7.5121599999999997,-36.133200000000002,15.171200000000001
3481.0,110.69199999999999,84.063999999999993,19.3353,121.98,9.1241000000000003,-33.649900000000002,13.2203
3482.0,110.142,74.024699999999996,12.4496,119.03,10.513199999999999,-30.752400000000002,11.1717
3483.0,109.47499999999999,79.111400000000003,20.385400000000001,130.21100000000001,11.688499999999999,-27.505099999999999,9.0294399999999992
3484.0,108.727,69.544899999999998,13.3842,125.777,12.629300000000001,-24.003499999999999,6.8434699999999999
3485.0,95.8018,92.606499999999997,14.0898,29.8157,-26.910900000000002,24.627199999999998,1.68181
3486.0,97.907700000000006,105.172,21.1403,35.790300000000002,-26.964400000000001,20.955300000000001,3.75936
3487.0,99.477000000000004,102.822,14.553699999999999,27.761700000000001,-26.859200000000001,16.692599999999999,5.6453600000000002
3488.0,100.373,112.236,20.4131,33.2224,-26.130500000000001,11.9689,7.6865600000000001
3489.0,101.15000000000001,108.925,14.0961,27.9709,-25.3657,6.8896499999999996,9.8214000000000006
3490.0,101.886,117.88800000000001,20.892499999999998,36.384700000000002,-24.540099999999999,1.9633400000000001,11.790699999999999
3491.0,102.134,112.294,14.212300000000001,31.7376,-23.469200000000001,-2.96434,13.4697
3492.0,102.524,119.446,20.729600000000001,40.8185,-22.1815,-7.9943,15.0341
3493.0,102.967,112.226,13.365399999999999,36.600299999999997,-20.665800000000001,-12.7387,16.5123
3494.0,103.294,117.505,19.1494,46.259500000000003,-18.963000000000001,-17.289899999999999,17.811199999999999
3495.0,103.63500000000001,110.161,12.737500000000001,44.314500000000002,-17.0474,-21.517499999999998,18.860800000000001
3496.0,103.828,115.395,19.5608,56.128500000000003,-14.9526,-25.331600000000002,19.7272
3497.0,104.17400000000001,105.961,12.0527,53.998800000000003,-12.7567,-28.773599999999998,20.3399
3498.0,104.196,110.55200000000001,18.8751,66.613699999999994,-10.4787,-31.3888,20.530799999999999
3499.0,104.11,100.97799999999999,12.4186,66.404799999999994,-8.2433099999999992,-33.657299999999999,20.496500000000001
3500.0,104.31699999999999,101.36,15.654999999999999,75.423699999999997,-5.9280200000000001,-35.429099999999998,20.130700000000001
3501.0,104.12,93.566999999999993,11.062099999999999,76.715500000000006,-3.59903,-36.294699999999999,19.5748
3502.0,104.19,97.683899999999994,18.746500000000001,90.661799999999999,-1.45967,-36.799599999999998,18.8017
3503.0,104.107,87.865399999999994,12.2278,89.8125,0.61496899999999999,-36.628999999999998,17.700199999999999
3504.0,103.83799999999999,90.951499999999996,18.808199999999999,101.93300000000001,2.5938300000000001,-35.749099999999999,16.438099999999999
3505.0,103.64700000000001,81.195899999999995,12.292299999999999,100.55500000000001,4.4103399999999997,-34.426900000000003,14.9711
3506.0,103.343,84.282799999999995,18.5489,111.512,6.0604699999999996,-32.568199999999997,13.357200000000001
3507.0,103.011,74.3369,11.5441,108.685,7.5164400000000002,-30.319099999999999,11.6129
3508.0,102.58,78.571899999999999,18.511700000000001,119.264,8.7753800000000002,-27.677099999999999,9.7718100000000003
3509.0,102.051,69.526399999999995,11.926,115.649,9.8342600000000004,-24.744199999999999,7.8674600000000003
3510.0,101.422,74.512600000000006,19.126100000000001,125.194,10.693,-21.563500000000001,5.9192799999999997
3511.0,88.631299999999996,97.203400000000002,23.500499999999999,40.225700000000003,-24.902899999999999,22.403300000000002,1.8416999999999999
3512.0,90.4953,93.932100000000005,15.2948,30.814299999999999,-24.939299999999999,18.966699999999999,3.6519499999999998
3513.0,92.421099999999996,106.48,23.017800000000001,38.276000000000003,-24.944299999999998,14.9544,5.1281100000000004
3514.0,93.214200000000005,103.95999999999999,17.070799999999998,33.008699999999997,-24.439599999999999,10.711600000000001,6.6791099999999997
3515.0,93.911500000000004,110.964,21.773,37.636899999999997,-23.749600000000001,6.0450799999999996,8.6773100000000003
3516.0,94.484899999999996,102.758,12.105399999999999,28.209800000000001,-22.976099999999999,1.68496,10.2927
3517.0,94.562799999999996,112.598,20.947099999999999,38.958300000000001,-21.7819,-2.89663,11.8324
3518.0,95.174000000000007,107.15300000000001,14.737500000000001,35.405900000000003,-20.765799999999999,-7.5160799999999997,13.3813
3519.0,95.457599999999999,113.977,21.426600000000001,45.279299999999999,-19.3781,-11.747999999999999,14.6584
3520.0,95.768900000000002,107.491,15.393700000000001,42.936300000000003,-17.848500000000001,-15.8994,15.849500000000001
3521.0,96.015699999999995,112.655,21.3504,53.123399999999997,-16.063600000000001,-19.614799999999999,16.7896
3522.0,96.211299999999994,103.93600000000001,14.1258,50.606699999999996,-14.241400000000001,-23.1022,17.575099999999999
3523.0,96.463499999999996,107.626,19.3996,60.866700000000002,-12.2507,-26.072199999999999,17.9879
3524.0,96.463300000000004,100.04600000000001,13.960800000000001,60.806100000000001,-10.0695,-28.401800000000001,18.3354
3525.0,96.716200000000001,103.06100000000001,19.3826,71.978200000000001,-8.0179500000000008,-30.399000000000001,18.453399999999998
3526.0,96.797799999999995,94.739500000000007,13.363799999999999,71.557900000000004,-6.0319000000000003,-31.730899999999998,17.954899999999999
3527.0,96.686199999999999,98.943899999999999,20.6386,84.289199999999994,-3.9692400000000001,-32.640900000000002,17.375499999999999
3528.0,96.741600000000005,89.276200000000003,14.058299999999999,83.047399999999996,-1.9888600000000001,-33.095199999999998,16.665199999999999
3529.0,96.676199999999994,92.249899999999997,19.973400000000002,94.258200000000002,-0.11761199999999999,-32.835299999999997,15.691700000000001
3530.0,96.574399999999997,83.219999999999999,13.862,93.224800000000002,1.69357,-32.051000000000002,14.5105
3531.0,96.450299999999999,86.703100000000006,20.138200000000001,104.21299999999999,3.3238099999999999,-30.7911,13.194000000000001
3532.0,96.301599999999993,78.271299999999997,14.3713,102.771,4.8082399999999996,-29.117699999999999,11.7211
3533.0,96.089200000000005,82.943600000000004,21.529800000000002,113.76900000000001,6.11022,-27.060400000000001,10.1555
3534.0,95.802599999999998,74.367699999999999,15.2621,110.809,7.2372699999999996,-24.6892,8.5045300000000008
3535.0,95.412599999999998,79.4803,22.4498,120.72499999999999,8.1814699999999991,-22.045500000000001,6.8065499999999997
3536.0,94.900700000000001,71.316100000000006,16.164899999999999,116.55500000000001,8.9375599999999995,-19.199000000000002,5.0836899999999998
3537.0,81.893600000000006,77.509399999999999,8.5823,25.675799999999999,-22.835799999999999,20.561699999999998,1.7186300000000001
3538.0,83.415199999999999,95.385000000000005,21.629000000000001,38.483899999999998,-22.8904,17.075800000000001,3.1914500000000001
3539.0,85.658500000000004,90.563500000000005,12.395,28.484999999999999,-23.184200000000001,13.198399999999999,5.5008999999999997
3540.0,87.103099999999998,99.085599999999999,17.995200000000001,33.857700000000001,-22.921099999999999,9.9857399999999998,7.5433300000000001
3541.0,87.038399999999996,96.042699999999996,12.8467,29.971699999999998,-22.078299999999999,6.11355,8.3884699999999999
3542.0,87.640299999999996,106.77500000000001,21.606200000000001,39.857900000000001,-21.546900000000001,1.1118600000000001,9.1637799999999991
3543.0,88.171099999999996,101.899,15.3203,35.128900000000002,-20.441800000000001,-2.7084299999999999,10.412599999999999
3544.0,88.251300000000001,108.25,21.711500000000001,43.595799999999997,-19.522200000000002,-6.9320000000000004,11.926500000000001
3545.0,88.543400000000005,101.557,14.8451,39.431899999999999,-18.151700000000002,-10.7318,13.0953
3546.0,88.7654,106.571,20.279199999999999,48.487499999999997,-16.7408,-14.486499999999999,14.1555
3547.0,89.002899999999997,100.22799999999999,14.6059,46.743200000000002,-15.1381,-17.776499999999999,14.9863
3548.0,89.253,104.84399999999999,20.415700000000001,57.115299999999998,-13.5083,-20.8674,15.6617
3549.0,89.470500000000001,97.551199999999994,14.366899999999999,55.781700000000001,-11.6782,-23.358599999999999,16.012599999999999
3550.0,89.412000000000006,100.61499999999999,19.619599999999998,66.020600000000002,-9.8166200000000003,-25.531500000000001,16.276599999999998
3551.0,89.675399999999996,91.3155,12.2812,63.514800000000001,-7.9211299999999998,-27.3338,16.227
3552.0,89.633099999999999,96.546400000000006,19.648800000000001,75.875900000000001,-5.9650299999999996,-28.345500000000001,15.9787
3553.0,89.848699999999994,88.507999999999996,14.1731,75.776399999999995,-4.1972800000000001,-29.1997,15.499499999999999
3554.0,89.930099999999996,91.916600000000003,19.952000000000002,86.434299999999993,-2.4520200000000001,-29.481000000000002,14.692
3555.0,89.884,84.268799999999999,14.9072,86.284499999999994,-0.73535499999999998,-29.1553,13.814299999999999
3556.0,89.950999999999993,87.255399999999995,20.254100000000001,96.259799999999998,0.868174,-28.454899999999999,12.732200000000001
3557.0,89.903700000000001,79.450900000000004,14.8104,95.124300000000005,2.3457599999999998,-27.269300000000001,11.520200000000001
3558.0,89.912800000000004,82.583500000000001,20.147500000000001,104.40900000000001,3.6620900000000001,-25.786799999999999,10.1966
3559.0,89.802700000000002,74.448899999999995,14.0829,101.828,4.8307200000000003,-23.921800000000001,8.7804300000000008
3560.0,89.690799999999996,78.568700000000007,20.1081,110.905,5.8226500000000003,-21.822399999999998,7.3123300000000002
3561.0,89.413600000000002,71.206500000000005,14.435,107.693,6.6628100000000003,-19.450500000000002,5.8020199999999997
3562.0,89.105900000000005,75.913600000000002,20.674399999999999,115.934,7.3378899999999998,-16.922799999999999,4.2991299999999999
3563.0,75.668400000000005,84.122100000000003,18.378900000000002,37.6081,-20.873999999999999,18.128299999999999,1.2780100000000001
3564.0,77.707899999999995,88.835300000000004,18.846699999999998,37.590200000000003,-21.1492,15.615,3.0154100000000001
3565.0,78.686199999999999,90.648099999999999,17.923100000000002,34.826500000000003,-21.641999999999999,11.1693,4.7182300000000001
3566.0,80.827699999999993,74.989800000000002,-1.28983,14.854200000000001,-21.2882,8.7218400000000003,5.7035400000000003
3567.0,80.103999999999999,95.3934,17.817299999999999,36.297800000000002,-20.206700000000001,6.2257699999999998,7.0592800000000002
3568.0,81.286100000000005,97.621200000000002,18.222300000000001,37.506999999999998,-20.2102,0.43497599999999997,8.8806600000000007
3569.0,82.367699999999999,100.188,18.863099999999999,39.218299999999999,-19.193200000000001,-2.2645499999999998,9.85243
3570.0,81.674099999999996,97.807699999999997,16.9057,40.008200000000002,-18.1585,-6.1868100000000004,10.905799999999999
3571.0,82.250900000000001,102.503,21.066500000000001,46.8872,-17.041899999999998,-9.7664100000000005,11.7182
3572.0,82.341700000000003,98.380200000000002,17.340599999999998,46.5657,-15.6897,-13.007300000000001,12.6617
3573.0,82.638300000000001,101.91200000000001,21.4328,54.351599999999998,-14.3187,-15.9621,13.3956
3574.0,82.809899999999999,95.687700000000007,16.195,53.265900000000002,-12.722799999999999,-18.619499999999999,13.9682
3575.0,82.998699999999999,99.805599999999998,21.5274,62.8645,-11.096299999999999,-20.836099999999998,14.335699999999999
3576.0,83.144000000000005,92.628699999999995,15.9152,62.064999999999998,-9.4880300000000002,-22.670999999999999,14.450900000000001
3577.0,83.382499999999993,95.5595,20.375800000000002,71.247200000000007,-7.8625999999999996,-24.105399999999999,14.2384
3578.0,83.3626,89.111400000000003,15.930300000000001,71.229699999999994,-6.1320699999999997,-25.061900000000001,13.971399999999999
3579.0,83.553799999999995,93.074200000000005,22.0396,81.929599999999994,-4.4744200000000003,-25.744599999999998,13.5936
3580.0,83.735699999999994,85.075299999999999,15.9931,80.450199999999995,-2.8507500000000001,-25.900099999999998,12.917899999999999
3581.0,83.831800000000001,88.369299999999996,21.343299999999999,90.251499999999993,-1.2940499999999999,-25.587599999999998,12.0609
3582.0,83.957599999999999,80.8733,15.791399999999999,88.890600000000006,0.12764300000000001,-24.8964,11.069900000000001
3583.0,84.084699999999998,84.794700000000006,21.585000000000001,98.6143,1.4358,-23.852399999999999,9.9539500000000007
3584.0,84.194199999999995,77.673199999999994,16.2226,96.833799999999997,2.5948600000000002,-22.497699999999998,8.7426499999999994
3585.0,84.272300000000001,82.723200000000006,22.898,106.711,3.61009,-20.861799999999999,7.4729900000000002
3586.0,84.283600000000007,75.332099999999997,16.9878,103.568,4.4836400000000003,-18.984400000000001,6.1513299999999997
3587.0,84.214100000000002,80.7453,23.721900000000002,112.595,5.2024699999999999,-16.914899999999999,4.8387200000000004
3588.0,84.013800000000003,73.453699999999998,17.571999999999999,108.229,5.7911200000000003,-14.6699,3.4957600000000002
3589.0,70.274600000000007,74.825800000000001,12.493499999999999,32.470100000000002,-19.265499999999999,16.075099999999999,1.8813800000000001
3590.0,72.149100000000004,86.203199999999995,20.4803,39.613,-19.518799999999999,14.2601,2.8509899999999999
3591.0,73.229799999999997,81.608699999999999,12.647600000000001,31.9373,-20.233000000000001,9.9331800000000001,3.6968999999999999
3592.0,75.488600000000005,82.3352,9.1157299999999992,29.592400000000001,-19.997399999999999,7.4439399999999996,4.1442899999999998
3593.0,74.682400000000001,86.730900000000005,13.1312,34.132100000000001,-18.976199999999999,5.20777,5.8743999999999996
3594.0,75.219499999999996,95.9876,21.7742,42.156700000000001,-18.923999999999999,0.30023899999999998,7.5921399999999997
3595.0,76.204499999999996,86.599800000000002,10.602,32.234900000000003,-18.132300000000001,-2.24702,8.2874300000000005
3596.0,75.741399999999999,97.1892,21.1432,45.693399999999997,-16.893699999999999,-5.4376600000000002,9.5410699999999995
3597.0,76.353200000000001,92.287099999999995,15.917400000000001,43.238,-16.037400000000002,-8.8130600000000001,10.5344
3598.0,76.554100000000005,96.784400000000005,20.485399999999998,50.875799999999998,-14.763199999999999,-11.5403,11.2662
3599.0,76.716399999999993,91.191599999999994,15.51,49.450800000000001,-13.4991,-14.1616,11.9176
3600.0,76.941599999999994,96.173900000000003,21.194099999999999,58.914999999999999,-12.079700000000001,-16.424900000000001,12.3338
3601.0,77.108699999999999,89.370900000000006,15.4885,57.214700000000001,-10.669700000000001,-18.3597,12.598100000000001
3602.0,77.3506,93.853499999999997,21.142199999999999,67.046400000000006,-9.1335899999999999,-19.921800000000001,12.7257
3603.0,77.517899999999997,87.375100000000003,16.0943,66.210800000000006,-7.5853999999999999,-21.082000000000001,12.685499999999999
3604.0,77.735799999999998,90.874200000000002,21.084900000000001,75.466099999999997,-6.1135099999999998,-21.9131,12.349600000000001
3605.0,77.910499999999999,83.296499999999995,15.1273,73.711699999999993,-4.6645000000000003,-22.365400000000001,11.8127
3606.0,78.124300000000005,87.935100000000006,21.379200000000001,84.103999999999999,-3.24756,-22.421199999999999,11.1692
3607.0,78.369600000000005,80.777500000000003,15.764200000000001,82.516499999999994,-1.8827700000000001,-22.108499999999999,10.360099999999999
3608.0,78.589500000000001,85.138199999999998,21.6449,92.174099999999996,-0.62310500000000002,-21.4529,9.4307599999999994
3609.0,78.858199999999997,77.763300000000001,15.700100000000001,89.769900000000007,0.51150899999999999,-20.532499999999999,8.4048200000000008
3610.0,79.089799999999997,82.365200000000002,21.637,98.923500000000004,1.5268299999999999,-19.325500000000002,7.3058800000000002
3611.0,79.337100000000007,74.415999999999997,14.91,95.113699999999994,2.4042699999999999,-17.9087,6.1608200000000002
3612.0,79.493700000000004,80.090199999999996,21.641200000000001,104.343,3.15178,-16.253799999999998,4.9946599999999997
3613.0,79.655900000000003,72.385400000000004,14.8576,99.735399999999998,3.7697799999999999,-14.4633,3.8305199999999999
3614.0,79.627499999999998,79.118399999999994,22.286000000000001,108.783,4.2763200000000001,-12.4886,2.7048899999999998
3615.0,65.197900000000004,76.752399999999994,17.9465,38.085000000000001,-17.645800000000001,14.4839,1.6182399999999999
3616.0,66.893699999999995,76.173100000000005,14.174300000000001,34.323599999999999,-18.053999999999998,12.6755,2.18445
3617.0,68.549999999999997,88.793700000000001,23.517499999999998,43.474899999999998,-18.642800000000001,9.3425899999999995,3.56141
3618.0,69.736199999999997,84.418700000000001,16.6493,37.149099999999997,-18.4877,6.9803300000000004,4.7570399999999999
3619.0,69.796599999999998,91.908100000000005,22.892299999999999,44.2151,-18.060199999999998,4.0723700000000003,5.6880300000000004
3620.0,70.196399999999997,85.549800000000005,15.246499999999999,37.672899999999998,-17.618600000000001,0.65224199999999999,6.4848999999999997
3621.0,70.718100000000007,92.662800000000004,21.219200000000001,45.674700000000001,-17.032399999999999,-2.18024,7.3353000000000002
3622.0,70.772199999999998,87.133700000000005,15.228899999999999,41.890500000000003,-15.9344,-4.8733000000000004,8.4002700000000008
3623.0,70.918099999999995,94.404300000000006,22.6327,51.6248,-15.0246,-7.7230800000000004,9.3512799999999991
3624.0,71.296599999999998,88.476699999999994,16.5732,48.542299999999997,-13.9655,-10.1187,9.9578600000000002
3625.0,71.429199999999994,93.975800000000007,22.5459,57.859200000000001,-12.751899999999999,-12.3445,10.492900000000001
3626.0,71.707300000000004,87.050600000000003,16.160499999999999,54.919600000000003,-11.5374,-14.254200000000001,10.847799999999999
3627.0,71.924999999999997,92.505300000000005,22.429099999999998,64.890299999999996,-10.2186,-15.874000000000001,11.043799999999999
3628.0,72.145899999999997,85.536100000000005,16.434899999999999,62.629899999999999,-8.9027999999999992,-17.185099999999998,11.021800000000001
3629.0,72.323700000000002,90.055899999999994,22.105799999999999,72.093100000000007,-7.58385,-18.132000000000001,10.8406
3630.0,72.621099999999998,83.694699999999997,16.866800000000001,70.695999999999998,-6.2700199999999997,-18.756499999999999,10.5547
3631.0,72.933999999999997,88.641599999999997,22.956499999999998,80.641300000000001,-4.9382700000000002,-19.038799999999998,10.0952
3632.0,73.243300000000005,81.255499999999998,16.742699999999999,78.145099999999999,-3.67258,-19.013300000000001,9.4637600000000006
3633.0,73.567599999999999,85.767499999999998,22.392800000000001,87.360100000000003,-2.4833400000000001,-18.680299999999999,8.6989900000000002
3634.0,73.935299999999998,78.976900000000001,16.678799999999999,85.025099999999995,-1.3967000000000001,-18.094799999999999,7.8291500000000003
3635.0,74.314700000000002,83.957499999999996,22.658899999999999,94.152199999999993,-0.41766199999999998,-17.262699999999999,6.8744199999999998
3636.0,74.729299999999995,77.513800000000003,17.111599999999999,91.5197,0.434332,-16.226199999999999,5.8725100000000001
3637.0,75.123000000000005,83.4178,23.781400000000001,100.81,1.17567,-14.979100000000001,4.8304400000000003
3638.0,75.521699999999996,76.693899999999999,17.688700000000001,97.056100000000001,1.7930900000000001,-13.574,3.8042600000000002
3639.0,75.843999999999994,82.779300000000006,24.238199999999999,105.563,2.3054100000000002,-12.0185,2.7734299999999998
3640.0,76.129999999999995,75.879599999999996,17.6554,100.61799999999999,2.6977899999999999,-10.354200000000001,1.82141
3641.0,60.794699999999999,65.614599999999996,9.3523200000000006,31.4528,-16.2667,12.7652,0.97945499999999996
3642.0,62.488199999999999,78.916700000000006,19.912299999999998,41.4557,-16.801300000000001,11.1523,1.85564
3643.0,63.668900000000001,77.1751,15.648899999999999,36.150799999999997,-17.074400000000001,8.4008599999999998,2.76959
3644.0,64.216899999999995,83.9268,20.8187,41.479799999999997,-17.028400000000001,6.0780700000000003,3.53308
3645.0,64.807100000000005,80.599900000000005,15.9366,37.991399999999999,-16.9421,3.3058999999999998,4.6351100000000001
3646.0,65.433099999999996,88.110299999999995,21.907599999999999,45.767800000000001,-16.406400000000001,0.69618400000000003,5.77433
3647.0,65.600099999999998,83.385900000000007,16.523900000000001,42.387500000000003,-15.7317,-1.9232100000000001,6.8229899999999999
3648.0,65.991600000000005,89.044600000000003,21.492100000000001,49.774999999999999,-15.015700000000001,-4.3593700000000002,7.5008600000000003
3649.0,66.165099999999995,83.134399999999999,15.385,46.280299999999997,-14.1058,-6.6728199999999998,8.0820799999999995
3650.0,66.455500000000001,88.504800000000003,20.784300000000002,54.452199999999998,-13.192299999999999,-8.7510200000000005,8.6582799999999995
3651.0,66.737399999999994,82.862200000000001,15.3278,52.111899999999999,-12.1342,-10.584199999999999,9.0613200000000003
3652.0,66.996399999999994,88.478899999999996,21.3813,61.366799999999998,-11.046900000000001,-12.1653,9.3173700000000004
3653.0,67.276499999999999,82.215400000000002,15.6858,59.000700000000002,-9.9035700000000002,-13.4771,9.4224099999999993
3654.0,67.561099999999996,87.392200000000003,21.563199999999998,68.279600000000002,-8.7334300000000002,-14.4956,9.3939299999999992
3655.0,67.876599999999996,81.325599999999994,16.2515,66.424999999999997,-7.5529200000000003,-15.216100000000001,9.2100200000000001
3656.0,68.194100000000006,85.648799999999994,21.399000000000001,74.9893,-6.3911600000000002,-15.6608,8.8568099999999994
3657.0,68.547200000000004,79.158000000000001,15.7258,72.682199999999995,-5.2643199999999997,-15.8238,8.3583099999999995
3658.0,68.9482,84.324200000000005,21.671399999999998,81.913899999999998,-4.18133,-15.7254,7.7320200000000003
3659.0,69.382300000000001,78.361999999999995,16.439699999999998,79.819400000000002,-3.17178,-15.3851,6.9970800000000004
3660.0,69.865799999999993,83.177599999999998,21.925799999999999,88.272900000000007,-2.2520699999999998,-14.851900000000001,6.1761799999999996
3661.0,70.383099999999999,77.207999999999998,16.5398,85.661699999999996,-1.43567,-14.1243,5.2962199999999999
3662.0,70.945499999999996,81.967600000000004,21.787099999999999,93.495999999999995,-0.72234799999999999,-13.239699999999999,4.3756199999999996
3663.0,71.5184,75.688199999999995,15.846299999999999,89.909499999999994,-0.119881,-12.1778,3.4458000000000002
3664.0,72.135099999999994,80.9358,21.279699999999998,97.503100000000003,0.37595600000000001,-10.991400000000001,2.5140799999999999
3665.0,72.728899999999996,75.277000000000001,15.5906,93.673299999999998,0.76664299999999996,-9.6744199999999996,1.63741
3666.0,73.316000000000003,80.931799999999996,21.101099999999999,100.806,1.06382,-8.2877299999999998,0.81156799999999996
3667.0,57.144799999999996,74.854600000000005,21.037800000000001,45.209800000000001,-15.262600000000001,11.2913,1.22858
3668.0,58.475200000000001,72.016400000000004,15.9528,38.833399999999997,-15.789899999999999,9.6520600000000005,1.63388
3669.0,59.5364,81.4148,23.1174,45.418399999999998,-15.9514,7.5138499999999997,2.31223
3670.0,60.105499999999999,77.947100000000006,18.132200000000001,41.053100000000001,-16.014299999999999,5.2094300000000002,3.1469499999999999
3671.0,60.568300000000001,84.065700000000007,22.8291,47.032800000000002,-15.7235,2.8280599999999998,4.05192
3672.0,60.972900000000003,78.544799999999995,16.179200000000002,42.149999999999999,-15.2971,0.48788799999999999,4.8549899999999999
3673.0,61.277099999999997,84.671400000000006,21.542400000000001,49.609299999999998,-14.7362,-1.75424,5.5677199999999996
3674.0,61.6526,79.638400000000004,15.992100000000001,46.430500000000002,-14.130699999999999,-3.7897099999999999,6.2949900000000003
3675.0,62.040300000000002,85.936400000000006,21.918600000000001,54.952599999999997,-13.352600000000001,-5.6858300000000002,6.8892199999999999
3676.0,62.330599999999997,80.742199999999997,16.679099999999998,52.403799999999997,-12.512600000000001,-7.3876200000000001,7.3023600000000002
3677.0,62.663400000000003,86.127099999999999,22.154800000000002,60.708300000000001,-11.6165,-8.8665500000000002,7.6061399999999999
3678.0,62.990600000000001,80.127399999999994,16.402200000000001,57.901899999999998,-10.6599,-10.1113,7.7813699999999999
3679.0,63.332500000000003,85.602599999999995,22.231000000000002,66.735799999999998,-9.6748600000000007,-11.117800000000001,7.8119899999999998
3680.0,63.671999999999997,79.582300000000004,16.6599,64.196700000000007,-8.6647300000000005,-11.878399999999999,7.6973900000000004
3681.0,64.029799999999994,84.704599999999999,22.280000000000001,72.839299999999994,-7.65693,-12.388,7.4523400000000004
3682.0,64.446700000000007,79.266099999999994,17.311199999999999,70.899199999999993,-6.6636300000000004,-12.643800000000001,7.0834900000000003
3683.0,64.906499999999994,84.600300000000004,23.084800000000001,79.634399999999999,-5.6964499999999996,-12.6754,6.5870800000000003
3684.0,65.397199999999998,78.458100000000002,17.3504,76.733999999999995,-4.7779699999999998,-12.5077,5.9780699999999998
3685.0,65.941900000000004,83.520399999999995,22.7593,84.845299999999995,-3.9333399999999998,-12.1694,5.2750199999999996
3686.0,66.546300000000002,77.956000000000003,17.460799999999999,82.108900000000006,-3.1777600000000001,-11.6792,4.5003500000000001
3687.0,67.216899999999995,83.365300000000005,23.037099999999999,90.109700000000004,-2.51871,-11.055199999999999,3.6776200000000001
3688.0,67.948700000000002,78.156999999999996,17.8687,87.222499999999997,-1.9603900000000001,-10.2974,2.8268800000000001
3689.0,68.753100000000003,84.215699999999998,23.798200000000001,95.298400000000001,-1.50153,-9.41418,1.9710799999999999
3690.0,69.605099999999993,78.852400000000003,18.129200000000001,91.601600000000005,-1.1372899999999999,-8.4279299999999999,1.13774
3691.0,70.494600000000005,84.682599999999994,23.494900000000001,98.760599999999997,-0.88084700000000005,-7.3764399999999997,0.36459000000000003
3692.0,71.310100000000006,79.134699999999995,17.416599999999999,94.183899999999994,-0.72561399999999998,-6.2946099999999996,-0.302819
3693.0,53.506900000000002,61.144100000000002,10.168900000000001,35.626100000000001,-14.2559,10.025499999999999,0.98450000000000004
3694.0,54.870100000000001,75.263000000000005,21.8033,46.344499999999996,-14.8003,8.1749200000000002,1.2713699999999999
3695.0,55.910200000000003,68.946100000000001,13.604699999999999,37.833399999999997,-15.0207,6.5872900000000003,1.83161
3696.0,56.061599999999999,77.663300000000007,21.217400000000001,46.107799999999997,-14.8826,4.3581300000000001,2.6290200000000001
3697.0,56.773499999999999,72.292599999999993,14.279999999999999,40.777200000000001,-14.6379,2.3773399999999998,3.32036
3698.0,57.218899999999998,80.691500000000005,21.707899999999999,50.244300000000003,-14.3163,0.335285,4.0242899999999997
3699.0,57.677900000000001,74.561999999999998,14.797599999999999,45.343600000000002,-13.852499999999999,-1.5087699999999999,4.6533800000000003
3700.0,57.984699999999997,81.380899999999997,21.221299999999999,54.022399999999998,-13.2857,-3.2320799999999998,5.1502800000000004
3701.0,58.373699999999999,75.004800000000003,14.539899999999999,49.673400000000001,-12.6616,-4.7687999999999997,5.54657
3702.0,58.728400000000001,81.144499999999994,20.572199999999999,58.244799999999998,-11.9366,-6.10928,5.8680500000000002
3703.0,59.126199999999997,75.356800000000007,14.760999999999999,55.0227,-11.1736,-7.2576400000000003,6.0598700000000001
3704.0,59.513100000000001,81.692999999999998,21.2026,64.148200000000003,-10.369400000000001,-8.1797299999999993,6.13436
3705.0,59.933399999999999,75.685000000000002,15.342599999999999,60.975499999999997,-9.5359499999999997,-8.9017199999999992,6.0969899999999999
3706.0,60.3611,81.7453,21.603100000000001,69.945400000000006,-8.6888000000000005,-9.3891399999999994,5.94041
3707.0,60.823900000000002,75.863299999999995,15.9161,66.921199999999999,-7.8439500000000004,-9.6847399999999997,5.6568699999999996
3708.0,61.293300000000002,81.221699999999998,21.474699999999999,75.066100000000006,-7.0119300000000004,-9.7753700000000006,5.2557099999999997
3709.0,61.818399999999997,75.354299999999995,15.749700000000001,71.835999999999999,-6.2178800000000001,-9.7046299999999999,4.7474400000000001
3710.0,62.404699999999998,81.444400000000002,21.904,80.3977,-5.4794999999999998,-9.4698200000000003,4.13985
3711.0,63.061700000000002,76.091399999999993,16.532299999999999,77.311400000000006,-4.81013,-9.1288999999999998,3.46014
3712.0,63.787599999999998,81.911000000000001,22.2376,85.188100000000006,-4.2188699999999999,-8.6784599999999994,2.7263700000000002
3713.0,64.598500000000001,76.545599999999993,16.650600000000001,81.671400000000006,-3.7169300000000001,-8.1506100000000004,1.95946
3714.0,65.500500000000002,82.2761,21.998899999999999,89.003500000000003,-3.3010999999999999,-7.5148299999999999,1.16944
3715.0,66.513800000000003,76.526799999999994,15.689,84.606200000000001,-2.9820899999999999,-6.8048700000000002,0.38082500000000002
3716.0,67.643799999999999,82.609999999999999,20.971800000000002,91.719899999999996,-2.7670400000000002,-6.0134299999999996,-0.38538600000000001
3717.0,68.840599999999995,77.349500000000006,14.8042,87.288899999999998,-2.6634000000000002,-5.2304599999999999,-1.04878
3718.0,69.949700000000007,83.958100000000002,20.5078,94.489199999999997,-2.6637599999999999,-4.4542700000000002,-1.53999
3719.0,50.6464,68.322900000000004,19.053100000000001,46.536299999999997,-13.2316,8.3832199999999997,0.29327700000000001
3720.0,51.961799999999997,67.786100000000005,16.521599999999999,43.3461,-13.934200000000001,6.9036799999999996,0.83762199999999998
3721.0,52.848300000000002,73.718100000000007,20.828199999999999,47.9711,-14.1669,5.4114800000000001,1.22251
3722.0,53.219200000000001,71.655799999999999,17.510000000000002,46.007100000000001,-13.9682,3.4801799999999998,1.80375
3723.0,53.799999999999997,76.035200000000003,20.761500000000002,50.4955,-13.786,1.861,2.4564599999999999
3724.0,54.114199999999997,71.689099999999996,15.746,47.024099999999997,-13.443099999999999,0.20216899999999999,3.0506700000000002
3725.0,54.559199999999997,77.240799999999993,20.658899999999999,53.747999999999998,-13.054600000000001,-1.34487,3.4574099999999999
3726.0,54.972000000000001,72.817300000000003,15.8622,51.115499999999997,-12.606,-2.6941099999999998,3.85514
3727.0,55.408299999999997,78.500399999999999,21.257400000000001,58.734299999999998,-12.0733,-3.8847399999999999,4.1446100000000001
3728.0,55.838500000000003,74.027699999999996,16.6187,56.432499999999997,-11.474600000000001,-4.8807799999999997,4.3287500000000003
3729.0,56.296599999999998,79.273899999999998,21.765799999999999,63.918999999999997,-10.8468,-5.7061400000000004,4.4252200000000004
3730.0,56.761800000000001,74.127099999999999,16.580300000000001,61.128799999999998,-10.177899999999999,-6.3225100000000003,4.4207000000000001
3731.0,57.259599999999999,79.603099999999998,22.033300000000001,68.950999999999993,-9.5073500000000006,-6.7667999999999999,4.30511
3732.0,57.7607,74.396100000000004,16.818999999999999,66.076899999999995,-8.8202999999999996,-7.0137299999999998,4.0821399999999999
3733.0,58.299500000000002,80.003299999999996,22.3842,73.908500000000004,-8.1446400000000008,-7.10283,3.7658999999999998
3734.0,58.878,75.471000000000004,17.750900000000001,71.478300000000004,-7.4871400000000001,-7.0201599999999997,3.3417300000000001
3735.0,59.510599999999997,81.173299999999998,23.275400000000001,79.092200000000005,-6.8673999999999999,-6.8313800000000002,2.8288899999999999
3736.0,60.187600000000003,76.198800000000006,18.040500000000002,75.825800000000001,-6.2886199999999999,-6.5328499999999998,2.2387199999999998
3737.0,60.953600000000002,81.716899999999995,23.192499999999999,82.847700000000003,-5.7814699999999997,-6.1890299999999998,1.58988
3738.0,61.805100000000003,77.340599999999995,18.328299999999999,79.768900000000002,-5.3523199999999997,-5.7703499999999996,0.89012999999999998
3739.0,62.781399999999998,83.057400000000001,23.415900000000001,86.602199999999996,-5.0089100000000002,-5.3251299999999997,0.16447100000000001
3740.0,63.886000000000003,79.106300000000005,18.631,83.521500000000003,-4.7533099999999999,-4.7897100000000004,-0.58977599999999997
3741.0,65.168300000000002,85.161100000000005,23.636600000000001,90.251199999999997,-4.5911600000000004,-4.2409600000000003,-1.3383
3742.0,66.561999999999998,81.266000000000005,18.485499999999998,86.756200000000007,-4.5323099999999998,-3.6606000000000001,-2.0389300000000001
3743.0,67.971800000000002,86.552199999999999,22.590199999999999,92.488600000000005,-4.59267,-3.2075399999999998,-2.5777100000000002
3744.0,69.115700000000004,82.561700000000002,17.7041,88.936000000000007,-4.7719800000000001,-2.8214000000000001,-2.8420899999999998
3745.0,48.569099999999999,58.838799999999999,10.9392,39.961799999999997,-12.555099999999999,6.8177599999999998,-0.19611899999999999
3746.0,49.152700000000003,68.495400000000004,19.695599999999999,48.510599999999997,-13.0115,5.8453600000000003,0.093573299999999998
3747.0,49.9251,62.757599999999996,12.408799999999999,41.960999999999999,-13.1534,4.13232,0.78317599999999998
3748.0,50.697000000000003,69.277299999999997,17.7011,48.679900000000004,-13.1347,2.8573599999999999,1.4262999999999999
3749.0,51.011099999999999,65.051100000000005,12.7933,45.130499999999998,-12.9213,1.50345,1.6084099999999999
3750.0,51.460700000000003,73.104200000000006,20.1158,53.859000000000002,-12.642899999999999,-0.060783200000000003,1.8507100000000001
3751.0,51.966999999999999,67.559700000000007,14.0075,49.410200000000003,-12.3422,-1.1723699999999999,2.17266
3752.0,52.347999999999999,74.010900000000007,20.264199999999999,57.634500000000003,-11.9838,-2.25386,2.4167900000000002
3753.0,52.809600000000003,68.251400000000004,14.233599999999999,53.586599999999997,-11.533799999999999,-3.10791,2.5794700000000002
3754.0,53.299500000000002,74.290099999999995,20.113099999999999,61.594000000000001,-11.069599999999999,-3.7985600000000002,2.6733600000000002
3755.0,53.832099999999997,69.029300000000006,14.664300000000001,58.250700000000002,-10.563499999999999,-4.32308,2.6655000000000002
3756.0,54.3874,75.466499999999996,20.956,66.676599999999993,-10.057499999999999,-4.6612,2.57152
3757.0,54.966900000000003,70.114400000000003,15.425700000000001,63.210000000000001,-9.5336499999999997,-4.8474599999999999,2.3985099999999999
3758.0,55.5687,76.639799999999994,21.753499999999999,71.554199999999994,-9.0192700000000006,-4.8612900000000003,2.1367099999999999
3759.0,56.189500000000002,71.186800000000005,16.048100000000002,67.745099999999994,-8.5145499999999998,-4.7583700000000002,1.7788900000000001
3760.0,56.831499999999998,77.198899999999995,21.743600000000001,75.222399999999993,-8.0264500000000005,-4.5293999999999999,1.3434200000000001
3761.0,57.531199999999998,72.033100000000005,16.151199999999999,71.292900000000003,-7.5710499999999996,-4.2364499999999996,0.83090399999999998
3762.0,58.312899999999999,78.801500000000004,22.365500000000001,79.078599999999994,-7.1739300000000004,-3.8762500000000002,0.24515799999999999
3763.0,59.180399999999999,74.099400000000003,16.988,75.177099999999996,-6.8383900000000004,-3.5193500000000002,-0.38493300000000003
3764.0,60.156500000000001,80.729399999999998,22.791499999999999,82.401300000000006,-6.5734700000000004,-3.1305900000000002,-1.05141
3765.0,61.269199999999998,75.955799999999996,17.035499999999999,78.055499999999995,-6.38598,-2.7533799999999999,-1.74299
3766.0,62.5657,82.498800000000003,22.339300000000001,84.781800000000004,-6.2807599999999999,-2.3186800000000001,-2.4686499999999998
3767.0,64.063500000000005,77.241500000000002,15.6342,79.569599999999994,-6.27597,-1.93079,-3.1869299999999998
3768.0,65.738900000000001,84.088499999999996,20.804500000000001,86.257499999999993,-6.40496,-1.5831599999999999,-3.8377599999999998
3769.0,67.343299999999999,79.270600000000002,14.588200000000001,81.634500000000003,-6.6645700000000003,-1.47024,-4.2066400000000002
3770.0,68.474699999999999,86.855599999999995,21.366800000000001,89.695400000000006,-7.0193899999999996,-1.5024200000000001,-4.1378500000000003
3771.0,46.393599999999999,65.509100000000004,19.5746,49.9086,-11.837,5.5751200000000001,-0.821905
3772.0,46.941499999999998,62.879399999999997,16.033100000000001,47.171700000000001,-12.013500000000001,4.6062000000000003,-0.68855500000000003
3773.0,47.557899999999997,67.276799999999994,19.276199999999999,51.158799999999999,-12.1988,2.8874200000000001,-0.20929900000000001
3774.0,48.269599999999997,60.174799999999998,11.1914,44.186599999999999,-12.195399999999999,1.9936100000000001,0.022580200000000002
3775.0,48.728999999999999,68.876800000000003,19.4132,54.124200000000002,-12.056100000000001,1.1070599999999999,0.26876899999999998
3776.0,49.387900000000002,66.138499999999993,15.975,52.091500000000003,-11.9534,-0.35860300000000001,0.60036699999999998
3777.0,49.893700000000003,71.023499999999999,20.4038,57.9375,-11.738799999999999,-1.0257099999999999,0.73786300000000005
3778.0,50.294600000000003,67.048699999999997,16.356100000000001,55.790100000000002,-11.416700000000001,-1.8622000000000001,0.88565799999999995
3779.0,50.902299999999997,72.465900000000005,21.437999999999999,62.708500000000001,-11.110900000000001,-2.3770099999999998,0.92752900000000005
3780.0,51.441200000000002,68.365700000000004,17.206900000000001,60.426400000000001,-10.7462,-2.7816700000000001,0.90324400000000005
3781.0,52.069600000000001,73.740600000000001,22.306899999999999,67.361000000000004,-10.391,-3.0185599999999999,0.81611100000000003
3782.0,52.676499999999997,69.069800000000001,17.4313,64.325699999999998,-10.012700000000001,-3.0936599999999999,0.65466999999999997
3783.0,53.339300000000001,74.806399999999996,22.8582,71.478700000000003,-9.6585400000000003,-3.0483799999999999,0.41338999999999998
3784.0,54.002299999999998,69.992500000000007,17.7209,67.998999999999995,-9.3045899999999993,-2.8522699999999999,0.098337300000000002
3785.0,54.718699999999998,76.288200000000003,23.563500000000001,75.380200000000002,-8.9688499999999998,-2.5656699999999999,-0.27143099999999998
3786.0,55.476799999999997,72.264600000000002,18.988399999999999,72.240600000000001,-8.6574200000000001,-2.1719300000000001,-0.72740700000000003
3787.0,56.288200000000003,78.561599999999999,24.597000000000001,79.136499999999998,-8.3829700000000003,-1.77,-1.2390099999999999
3788.0,57.146799999999999,74.300899999999999,19.523099999999999,75.218299999999999,-8.1422799999999995,-1.34233,-1.80365
3789.0,58.116,80.512299999999996,24.761900000000001,81.548500000000004,-7.9649700000000001,-0.97584499999999996,-2.4035099999999998
3790.0,59.215400000000002,76.8626,19.961300000000001,77.800700000000006,-7.8621699999999999,-0.59939500000000001,-3.0511599999999999
3791.0,60.511499999999998,83.179500000000004,24.913900000000002,83.869299999999996,-7.8359199999999998,-0.27784199999999998,-3.7259199999999999
3792.0,62.028100000000002,79.993200000000002,20.072700000000001,80.160600000000002,-7.90585,0.079069700000000007,-4.4510699999999996
3793.0,63.789999999999999,86.445400000000006,24.649100000000001,86.036900000000003,-8.0718300000000003,0.29551899999999998,-5.1553000000000004
3794.0,65.585099999999997,83.479799999999997,19.772200000000002,82.432599999999994,-8.3735499999999998,0.34499099999999999,-5.7053099999999999
3795.0,67.0869,88.688100000000006,23.717199999999998,87.855099999999993,-8.7744400000000002,-0.0079155000000000007,-5.8278699999999999
3796.0,67.676199999999994,85.577699999999993,20.535499999999999,85.702200000000005,-9.2729900000000001,-0.56771099999999997,-5.2451299999999996
3797.0,43.866599999999998,55.730699999999999,12.036899999999999,43.326599999999999,-10.6538,4.2433199999999998,-1.70536
3798.0,44.811999999999998,63.195599999999999,18.444299999999998,50.895299999999999,-11.004300000000001,3.4035299999999999,-1.4782599999999999
3799.0,45.612299999999998,57.677999999999997,12.0185,45.765099999999997,-11.2545,1.9720599999999999,-1.42069
3800.0,46.478700000000003,63.204700000000003,16.645900000000001,51.790500000000002,-11.3019,1.13747,-1.4845600000000001
3801.0,46.873100000000001,59.473799999999997,12.686299999999999,49.1096,-11.268800000000001,0.41912500000000003,-1.15835
3802.0,47.340499999999999,66.929000000000002,19.815799999999999,57.337699999999998,-11.232699999999999,-0.49712400000000001,-0.834843
3803.0,47.909500000000001,61.600099999999998,14.1927,53.182099999999998,-11.1189,-1.0374300000000001,-0.805952
3804.0,48.426099999999998,67.912499999999994,20.359400000000001,61.061500000000002,-10.859,-1.5367299999999999,-0.77556599999999998
3805.0,49.0197,62.433700000000002,14.7211,57.0745,-10.670999999999999,-1.80558,-0.82047599999999998
3806.0,49.651299999999999,68.543999999999997,20.628699999999998,64.690700000000007,-10.4132,-1.9417199999999999,-0.92229899999999998
3807.0,50.335299999999997,63.581000000000003,15.4123,61.099200000000003,-10.1988,-1.92807,-1.0968
3808.0,51.045299999999997,70.240899999999996,21.764800000000001,69.020799999999994,-9.9746799999999993,-1.7817700000000001,-1.33504
3809.0,51.764400000000002,65.355699999999999,16.511099999999999,65.204599999999999,-9.7713999999999999,-1.5158199999999999,-1.6110500000000001
3810.0,52.517400000000002,72.395300000000006,23.084299999999999,73.117199999999997,-9.5753500000000003,-1.13727,-1.9529700000000001
3811.0,53.306199999999997,67.170400000000001,17.285599999999999,68.518199999999993,-9.4134799999999998,-0.68168399999999996,-2.3645
3812.0,54.122500000000002,73.718100000000007,23.1327,75.415800000000004,-9.2685099999999991,-0.172179,-2.8165499999999999
3813.0,54.998899999999999,69.067300000000003,17.614699999999999,70.809600000000003,-9.1530500000000004,0.34287299999999998,-3.3236599999999998
3814.0,55.965200000000003,76.394400000000005,23.902899999999999,77.902199999999993,-9.0948899999999995,0.82008599999999998,-3.8795099999999998
3815.0,57.031999999999996,72.270799999999994,18.560199999999998,73.286900000000003,-9.0841600000000007,1.2301800000000001,-4.4759900000000004
3816.0,58.247900000000001,79.493200000000002,24.366,79.814599999999999,-9.1418099999999995,1.57378,-5.0937000000000001
3817.0,59.679400000000001,75.344099999999997,18.544499999999999,74.757800000000003,-9.2687200000000001,1.8776600000000001,-5.7761100000000001
3818.0,61.3675,82.331900000000005,23.577999999999999,80.650499999999994,-9.4954300000000007,2.11341,-6.4813200000000002
3819.0,63.287599999999998,77.853300000000004,16.910399999999999,74.954700000000003,-9.8343500000000006,2.1710400000000001,-7.19381
3820.0,65.203699999999998,84.966999999999999,21.984500000000001,81.254800000000003,-10.339700000000001,1.8431999999999999,-7.6119199999999996
3821.0,66.638900000000007,81.517899999999997,17.3078,78.034800000000004,-10.951499999999999,1.05436,-7.44245
3822.0,66.836399999999998,89.1554,25.570900000000002,87.761700000000005,-11.5207,0.043898699999999999,-6.1268099999999999
3823.0,42.648699999999998,65.042900000000003,22.686599999999999,56.154699999999998,-9.6608400000000003,2.81711,-2.4849100000000002
3824.0,43.609499999999997,57.0212,13.9383,48.419400000000003,-10.142200000000001,2.1186500000000001,-2.5938400000000001
3825.0,44.400399999999998,65.566400000000002,21.8645,57.716799999999999,-10.3551,1.1334299999999999,-2.41052
3826.0,45.159999999999997,60.280799999999999,16.148800000000001,53.274999999999999,-10.5769,0.492867,-2.27678
3827.0,45.675600000000003,66.501800000000003,22.201799999999999,60.436799999999998,-10.633599999999999,-0.17636499999999999,-2.3343799999999999
3828.0,46.171399999999998,60.188499999999998,15.712999999999999,55.055599999999998,-10.602,-0.65798400000000001,-2.3923199999999998
3829.0,46.7545,67.397499999999994,22.848199999999999,63.647100000000002,-10.551399999999999,-1.03766,-2.3895200000000001
3830.0,47.442900000000002,61.551099999999998,16.812999999999999,59.1691,-10.444000000000001,-1.20641,-2.4916
3831.0,48.122199999999999,68.603399999999993,23.7684,67.694400000000002,-10.3286,-1.2244999999999999,-2.6435
3832.0,48.873699999999999,63.273400000000002,18.201499999999999,63.603400000000001,-10.2334,-1.09274,-2.8531
3833.0,49.608899999999998,70.083200000000005,24.761299999999999,71.541799999999995,-10.132999999999999,-0.83013499999999996,-3.08928
3834.0,50.356299999999997,64.629999999999995,18.956099999999999,66.948800000000006,-10.0625,-0.46627600000000002,-3.3644599999999998
3835.0,51.130400000000002,71.655000000000001,25.561499999999999,74.672399999999996,-10.003500000000001,0.0095619499999999996,-3.7107399999999999
3836.0,51.948700000000002,66.104200000000006,19.446899999999999,69.536699999999996,-9.9790299999999998,0.55025000000000002,-4.0899000000000001
3837.0,52.811399999999999,73.988100000000003,26.6279,77.584500000000006,-9.9624799999999993,1.18493,-4.5032100000000002
3838.0,53.777000000000001,69.394400000000005,21.1143,72.817700000000002,-9.9956600000000009,1.8285100000000001,-4.9742499999999996
3839.0,54.787700000000001,77.1952,27.8414,80.124899999999997,-10.0707,2.47302,-5.4804000000000004
3840.0,55.828099999999999,72.393900000000002,21.7849,74.484200000000001,-10.164,3.0082900000000001,-6.0074500000000004
3841.0,56.994,80.389200000000002,28.310400000000001,81.357399999999998,-10.3103,3.4632399999999999,-6.5795700000000004
3842.0,58.349299999999999,75.987399999999994,22.2042,75.628500000000003,-10.5267,3.7932700000000001,-7.2015599999999997
3843.0,59.981400000000001,84.400000000000006,28.6007,82.460999999999999,-10.8291,4.0853700000000002,-7.8900499999999996
3844.0,61.881799999999998,80.0428,21.959599999999998,76.383700000000005,-11.232900000000001,4.2141299999999999,-8.6224699999999999
3845.0,63.908299999999997,89.135000000000005,28.610299999999999,83.667000000000002,-11.748799999999999,4.0635599999999998,-9.2815999999999992
3846.0,65.533100000000005,84.343999999999994,21.973400000000002,78.022400000000005,-12.3428,3.2223199999999999,-9.4978599999999993
3847.0,66.194800000000001,92.911900000000003,29.994700000000002,87.237300000000005,-12.9993,1.72803,-8.7956000000000003
3848.0,65.534400000000005,86.396699999999996,25.357099999999999,84.289400000000001,-13.6303,0.049595,-6.7268600000000003
3849.0,25349.299999999999,-38820.800000000003,-12311.0,-33798.400000000001,1810.8499999999999,-472.52600000000001,3522.73
3850.0,21098.700000000001,-39051.400000000001,-15609.799999999999,-31311.099999999999,1428.0599999999999,-1912.55,171.99799999999999
3851.0,17495.5,-42420.800000000003,-23292.200000000001,-28077.400000000001,-239.98699999999999,-826.33600000000001,1483.78
3852.0,18317.700000000001,-29179.5,-11931.6,-18252.700000000001,279.50799999999998,2742.0,5301.75
3853.0,15475.5,-12492.4,2401.7800000000002,-9278.9099999999999,1826.3599999999999,2287.8000000000002,3134.8400000000001
3854.0,11019.799999999999,-7476.3400000000001,3574.9699999999998,-4800.6099999999997,1706.8299999999999,239.126,2065.8899999999999
3855.0,8593.9200000000001,-5687.1300000000001,3004.9200000000001,-2269.6399999999999,1508.0899999999999,-486.76499999999999,1712.26
3856.0,6959.6300000000001,-3876.1900000000001,2949.3800000000001,-314.29399999999998,1307.0699999999999,-1024.6400000000001,1316.3
3857.0,5892.0600000000004,-2565.5799999999999,2741.27,1222.1300000000001,1073.1700000000001,-1347.53,1065.3900000000001
3858.0,5210.2200000000003,-1336.9000000000001,2579.0100000000002,2583.25,866.15099999999995,-1593.7,801.053
3859.0,4906.0,-287.399,2422.3200000000002,3723.4499999999998,665.42999999999995,-1756.0,556.35900000000004
3860.0,4902.25,669.68299999999999,2276.54,4716.8199999999997,482.94499999999999,-1876.3599999999999,322.52699999999999
3861.0,5098.6199999999999,1517.1800000000001,2143.9699999999998,5562.0900000000001,314.88400000000001,-1953.46,102.42
3862.0,5412.0699999999997,2270.8200000000002,2012.6600000000001,6275.9700000000003,164.875,-2002.8,-105.634
3863.0,5763.3299999999999,2951.8899999999999,1908.3800000000001,6887.21,31.6234,-2022.6600000000001,-292.93200000000002
3864.0,6104.3800000000001,3557.27,1820.6700000000001,7385.1099999999997,-82.766599999999997,-2022.3199999999999,-468.33699999999999
3865.0,6423.3800000000001,4082.02,1736.52,7782.1800000000003,-184.80600000000001,-2007.1300000000001,-632.55899999999997
3866.0,6699.8999999999996,4526.3800000000001,1651.97,8081.6800000000003,-276.327,-1976.78,-777.77200000000005
3867.0,6913.4499999999998,4914.6599999999999,1593.3099999999999,8302.9500000000007,-356.58499999999998,-1930.6500000000001,-906.73199999999997
3868.0,7072.5699999999997,5233.3999999999996,1534.47,8438.0,-425.29000000000002,-1872.26,-1025.9200000000001
3869.0,7183.4799999999996,5477.21,1460.03,8490.0200000000004,-482.56299999999999,-1802.8499999999999,-1130.6600000000001
3870.0,7245.21,5662.2299999999996,1382.8199999999999,8475.7900000000009,-529.43799999999999,-1725.3499999999999,-1218.1900000000001
3871.0,7253.71,5794.6400000000003,1311.1500000000001,8400.8099999999995,-567.63199999999995,-1640.8299999999999,-1290.25
3872.0,7216.4899999999998,5882.4300000000003,1246.52,8277.4400000000005,-598.25,-1551.1099999999999,-1348.52
3873.0,7137.4300000000003,5925.6599999999999,1183.6900000000001,8106.8199999999997,-621.5,-1457.28,-1393.6199999999999
3874.0,7021.3800000000001,5929.75,1122.76,7896.3999999999996,-638.45799999999997,-1360.24,-1425.6800000000001
3875.0,6872.8500000000004,5901.3800000000001,1066.5899999999999,7654.4099999999999,-649.75699999999995,-1260.99,-1446.3199999999999
3876.0,6695.8800000000001,5839.1899999999996,1010.1900000000001,7381.6400000000003,-656.32799999999997,-1160.3499999999999,-1455.5999999999999
3877.0,6495.0299999999997,5755.0500000000002,961.70299999999997,7091.0799999999999,-658.65899999999999,-1059.48,-1455.02
3878.0,6274.1599999999999,5645.1999999999998,913.40099999999995,6779.8199999999997,-657.48400000000004,-958.99400000000003,-1444.8800000000001
3879.0,6037.1700000000001,5511.9899999999998,864.17200000000003,6451.0200000000004,-653.13300000000004,-859.41300000000001,-1426.3599999999999
3880.0,5787.96,5365.3299999999999,820.68100000000004,6115.9200000000001,-646.14499999999998,-761.33100000000002,-1400.0799999999999
3881.0,5529.0799999999999,5204.8800000000001,780.23000000000002,5774.3199999999997,-636.84100000000001,-665.17600000000004,-1366.9100000000001
3882.0,5264.7399999999998,5032.9200000000001,741.71000000000004,5429.8000000000002,-625.94500000000005,-571.60900000000004,-1327.5
3883.0,4996.2700000000004,4851.21,705.44799999999998,5083.21,-613.35799999999995,-480.69200000000001,-1282.95
3884.0,4728.2200000000003,4658.7600000000002,666.75400000000002,4735.6099999999997,-600.02200000000005,-393.02600000000001,-1233.4000000000001
3885.0,4460.8900000000003,4466.6400000000003,636.38900000000001,4396.1999999999998,-585.29899999999998,-308.49299999999999,-1180.4400000000001
3886.0,4198.5500000000002,4262.1199999999999,597.98299999999995,4055.0100000000002,-570.53899999999999,-227.68899999999999,-1123.3699999999999
3887.0,3941.0999999999999,4070.6100000000001,577.22500000000002,3734.3400000000001,-554.64099999999996,-150.41499999999999,-1064.48
3888.0,3692.5300000000002,3859.0900000000001,537.38999999999999,3404.54,-539.33199999999999,-77.135000000000005,-1002.3099999999999
3889.0,3452.5799999999999,3673.77,525.71400000000006,3108.0900000000001,-523.03700000000003,-7.5319200000000004,-939.85000000000002
3890.0,3224.6199999999999,3461.8899999999999,485.70999999999998,2795.9000000000001,-507.798,57.946599999999997,-874.72400000000005
3891.0,3008.4899999999998,3279.4499999999998,475.09199999999998,2519.8099999999999,-491.69200000000001,119.64700000000001,-810.678
3892.0,2806.75,3067.73,431.59500000000003,2225.0300000000002,-476.98899999999998,177.25,-744.57100000000003
3893.0,2619.6599999999999,2900.8000000000002,430.87700000000001,1981.0599999999999,-461.32900000000001,231.13499999999999,-680.46400000000006
3894.0,2448.75,2691.5799999999999,382.971,1704.6900000000001,-447.255,281.108,-614.80100000000004
3895.0,2294.8699999999999,2536.77,386.137,1488.25,-432.38400000000001,327.33699999999999,-552.11400000000003
3896.0,2157.79,2330.75,333.16899999999998,1229.5,-419.28300000000002,370.12700000000001,-487.99900000000002
3897.0,2039.9100000000001,2194.96,344.78800000000001,1046.6099999999999,-405.46499999999997,408.78800000000001,-427.97000000000003
3898.0,1937.76,2002.5899999999999,297.08100000000002,813.44899999999996,-393.14100000000002,445.43900000000002,-365.73700000000002
3899.0,1856.5,1881.23,309.19299999999998,659.03899999999999,-380.35300000000001,476.20299999999997,-310.13799999999998
3900.0,1787.54,1710.28,277.48500000000001,459.024,-370.65899999999999,509.42599999999999,-244.154
3901.0,1740.5599999999999,1582.5899999999999,253.333,313.22899999999998,-353.92700000000002,525.04499999999996,-212.785
3902.0,1703.52,1510.6300000000001,314.61500000000001,255.94399999999999,-375.572,564.65800000000002,-77.930199999999999
3903.0,21475.299999999999,-26864.0,-4969.7799999999997,-22641.200000000001,3091.4899999999998,-424.108,3013.5300000000002
3904.0,17559.099999999999,-26862.200000000001,-7959.3299999999999,-20892.200000000001,2412.5500000000002,-866.25699999999995,1683.24
3905.0,14219.799999999999,-25232.599999999999,-9667.5900000000001,-16981.0,1590.6900000000001,-354.20600000000002,2025.9400000000001
3906.0,13785.6,-18117.900000000001,-4035.04,-10589.299999999999,1432.8800000000001,451.95800000000003,3380.6900000000001
3907.0,12562.200000000001,-10160.6,2638.8200000000002,-5568.3500000000004,1737.8800000000001,447.30200000000002,2708.77
3908.0,9757.2199999999993,-6294.1400000000003,3698.7199999999998,-2914.4499999999998,1697.97,-393.53800000000001,1691.4100000000001
3909.0,7661.6700000000001,-4525.21,3041.4099999999999,-1010.58,1355.97,-1056.4400000000001,1508.26
3910.0,6389.25,-2938.6500000000001,2952.8200000000002,519.69200000000001,1137.8800000000001,-1448.23,1204.3299999999999
3911.0,5514.3000000000002,-1660.25,2718.73,1826.8199999999999,909.33000000000004,-1738.29,965.49699999999996
3912.0,5036.9099999999999,-503.03500000000003,2570.3600000000001,3003.6100000000001,705.17700000000002,-1938.45,739.56500000000005
3913.0,4888.6899999999996,492.20999999999998,2388.02,4004.2199999999998,520.101,-2084.3699999999999,511.14299999999997
3914.0,4988.6800000000003,1412.47,2261.5300000000002,4908.3199999999997,352.46499999999997,-2181.0999999999999,299.363
3915.0,5247.2700000000004,2200.0900000000001,2108.29,5657.5500000000002,202.83000000000001,-2243.9000000000001,92.049400000000006
3916.0,5578.5500000000002,2928.8899999999999,2000.1800000000001,6325.6700000000001,68.237200000000001,-2274.5900000000001,-99.653000000000006
3917.0,5931.9099999999999,3537.1399999999999,1863.5799999999999,6850.3599999999997,-51.0745,-2281.54,-283.09100000000001
3918.0,6267.75,4094.79,1765.8499999999999,7304.3599999999997,-156.27500000000001,-2266.1399999999999,-449.053
3919.0,6570.1899999999996,4553.9799999999996,1652.0799999999999,7641.8699999999999,-245.959,-2234.0100000000002,-604.60900000000004
3920.0,6826.3599999999997,4964.8900000000003,1569.27,7919.6199999999999,-323.226,-2186.4200000000001,-741.79300000000001
3921.0,7020.9799999999996,5304.8000000000002,1496.25,8111.6499999999996,-388.02100000000002,-2124.6199999999999,-861.57799999999997
3922.0,7156.3299999999999,5608.6499999999996,1459.99,8251.8299999999999,-440.76100000000002,-2052.5100000000002,-970.98099999999999
3923.0,7245.4899999999998,5825.71,1395.8900000000001,8297.4899999999998,-486.88499999999999,-1971.96,-1070.4300000000001
3924.0,7285.4700000000003,5989.6099999999997,1335.01,8285.9599999999991,-527.17899999999997,-1881.02,-1155.05
3925.0,7280.21,6089.79,1262.46,8207.0699999999997,-557.39200000000005,-1782.5799999999999,-1228.79
3926.0,7233.3400000000001,6150.6700000000001,1197.1900000000001,8088.5799999999999,-580.52800000000002,-1679.22,-1285.6900000000001
3927.0,7145.3900000000003,6164.2200000000003,1130.2,7919.2600000000002,-596.678,-1572.28,-1331.1500000000001
3928.0,7021.6199999999999,6148.1499999999996,1074.1500000000001,7721.2299999999996,-608.42700000000002,-1462.52,-1363.0599999999999
3929.0,6866.8900000000003,6094.5699999999997,1017.2,7486.5100000000002,-615.053,-1351.22,-1385.3199999999999
3930.0,6685.4700000000003,6017.1899999999996,968.03300000000002,7231.0100000000002,-617.88300000000004,-1239.0799999999999,-1396.2
3931.0,6482.04,5909.2700000000004,915.79999999999995,6948.0100000000002,-616.82899999999995,-1127.0,-1398.1300000000001
3932.0,6259.5699999999997,5781.5200000000004,868.52099999999996,6650.2600000000002,-613.00599999999997,-1015.45,-1390.5799999999999
3933.0,6022.21,5639.9700000000003,829.04100000000005,6344.1000000000004,-606.52700000000004,-905.52099999999996,-1375.3900000000001
3934.0,5773.0900000000001,5476.1099999999997,785.56899999999996,6021.8100000000004,-598.22199999999998,-797.67100000000005,-1352.48
3935.0,5515.4399999999996,5302.1700000000001,747.53599999999994,5695.5500000000002,-588.10900000000004,-692.34699999999998,-1323.28
3936.0,5252.4499999999998,5112.2700000000004,706.11300000000006,5360.6099999999997,-576.774,-589.89499999999998,-1287.9200000000001
3937.0,4986.3500000000004,4921.1499999999996,674.22199999999998,5031.4399999999996,-564.18600000000004,-490.69400000000002,-1247.5999999999999
3938.0,4720.1599999999999,4718.1300000000001,638.44100000000003,4698.3599999999997,-551.04100000000005,-395.15800000000002,-1202.3499999999999
3939.0,4455.5699999999997,4516.6300000000001,610.78999999999996,4373.8999999999996,-537.13099999999997,-303.41000000000003,-1153.54
3940.0,4195.46,4305.7600000000002,577.798,4048.2199999999998,-523.17600000000004,-215.70599999999999,-1101.0899999999999
3941.0,3941.02,4097.5,550.64999999999998,3732.48,-508.80599999999998,-132.01900000000001,-1046.26
3942.0,3694.77,3885.29,520.58199999999999,3421.1100000000001,-494.70699999999999,-52.702199999999998,-988.91999999999996
3943.0,3457.4200000000001,3677.0999999999999,495.15699999999998,3120.79,-480.43200000000002,22.422699999999999,-930.17999999999995
3944.0,3231.5799999999999,3465.48,464.70999999999998,2825.3400000000001,-466.70400000000001,93.007999999999996,-869.91300000000001
3945.0,3017.1900000000001,3271.0100000000002,450.13900000000001,2553.5700000000002,-452.84800000000001,159.517,-809.04499999999996
3946.0,2817.2199999999998,3065.2800000000002,420.54199999999997,2278.6199999999999,-439.85300000000001,221.37700000000001,-747.51900000000001
3947.0,2631.02,2879.5100000000002,408.37900000000002,2029.49,-426.791,279.31299999999999,-686.35400000000004
3948.0,2461.21,2681.0700000000002,378.34800000000001,1775.5699999999999,-414.87900000000002,332.685,-624.96900000000005
3949.0,2307.2800000000002,2513.6500000000001,375.52800000000002,1557.77,-402.625,382.29399999999998,-564.88
3950.0,2170.3200000000002,2324.5700000000002,345.637,1325.4200000000001,-391.67399999999998,427.93900000000002,-504.45600000000002
3951.0,2051.7399999999998,2171.1599999999999,345.33600000000001,1133.78,-380.40600000000001,469.43099999999998,-446.71899999999999
3952.0,1948.8399999999999,1984.5599999999999,309.161,914.11500000000001,-370.38499999999999,508.54599999999999,-387.80000000000001
3953.0,1866.23,1845.1600000000001,308.82999999999998,748.00300000000004,-360.15899999999999,541.64200000000005,-334.20699999999999
3954.0,1795.5,1669.6500000000001,279.31700000000001,549.29899999999998,-353.69400000000002,577.14700000000005,-269.97000000000003
3955.0,1746.4100000000001,1527.73,250.04400000000001,389.03699999999998,-338.09800000000001,594.89800000000002,-238.80799999999999
3956.0,1702.96,1438.0999999999999,310.22699999999998,316.82900000000001,-363.339,633.90099999999995,-106.2
3957.0,18714.299999999999,-20218.200000000001,-701.21400000000006,-16155.4,1926.5799999999999,-672.178,2556.6300000000001
3958.0,15956.6,-17476.799999999999,-213.755,-12639.9,1349.8699999999999,-967.42200000000003,1676.1500000000001
3959.0,12848.6,-16437.599999999999,-2169.04,-10611.200000000001,1043.5599999999999,-796.28200000000004,1355.8199999999999
3960.0,11023.0,-12669.6,-1039.25,-7288.6099999999997,1186.23,-465.14299999999997,2236.0500000000002
3961.0,9945.7900000000009,-7564.8199999999997,2549.6500000000001,-3588.1100000000001,1502.6400000000001,-654.44399999999996,2078.9200000000001
3962.0,8256.8999999999996,-4865.9700000000003,3375.2199999999998,-1440.9000000000001,1414.6500000000001,-1191.3900000000001,1471.1600000000001
3963.0,6804.4099999999999,-3372.1700000000001,2897.6199999999999,-93.824299999999994,1132.3099999999999,-1616.6300000000001,1305.0999999999999
3964.0,5822.7600000000002,-1848.96,2851.8000000000002,1253.76,914.23699999999997,-1898.4400000000001,1071.76
3965.0,5211.3999999999996,-698.798,2600.5100000000002,2330.6199999999999,707.62699999999995,-2110.8099999999999,860.625
3966.0,4941.4200000000001,430.52100000000002,2490.7600000000002,3398.9699999999998,520.18399999999997,-2263.75,656.14800000000002
3967.0,4950.8900000000003,1346.9200000000001,2299.5700000000002,4264.9200000000001,353.541,-2373.1300000000001,446.74599999999998
3968.0,5151.0299999999997,2226.3800000000001,2189.6500000000001,5089.8000000000002,203.31999999999999,-2443.5900000000001,251.59899999999999
3969.0,5456.5100000000002,2949.6399999999999,2030.8800000000001,5747.5600000000004,71.602199999999996,-2483.6100000000001,58.033099999999997
3970.0,5803.5799999999999,3627.4099999999999,1925.3399999999999,6350.25,-45.645200000000003,-2495.8400000000001,-118.83499999999999
3971.0,6149.6300000000001,4187.5,1795.6700000000001,6821.71,-146.08799999999999,-2485.98,-290.41899999999998
3972.0,6468.0299999999997,4694.7600000000002,1700.6300000000001,7231.21,-234.553,-2455.21,-444.71899999999999
3973.0,6745.5500000000002,5101.21,1586.04,7527.9899999999998,-309.51499999999999,-2407.5500000000002,-591.59799999999996
3974.0,6973.5500000000002,5459.7600000000002,1498.5899999999999,7769.0600000000004,-374.32100000000003,-2343.71,-721.05499999999995
3975.0,7146.8500000000004,5741.0500000000002,1404.6900000000001,7921.8299999999999,-426.678,-2266.3299999999999,-837.87
3976.0,7266.6899999999996,5983.6300000000001,1337.9200000000001,8026.9099999999999,-468.315,-2179.23,-939.78099999999995
3977.0,7331.6800000000003,6166.3199999999997,1278.28,8067.0699999999997,-502.89400000000001,-2084.7600000000002,-1026.21
3978.0,7338.3299999999999,6323.4099999999999,1259.1199999999999,8074.9200000000001,-529.78200000000004,-1981.74,-1101.8399999999999
3979.0,7312.7299999999996,6399.1700000000001,1202.0799999999999,7999.7200000000003,-548.72500000000002,-1874.6700000000001,-1174.73
3980.0,7251.5100000000002,6430.5699999999997,1140.25,7883.3800000000001,-566.54700000000003,-1761.8599999999999,-1228.1400000000001
3981.0,7147.9499999999998,6417.3999999999996,1079.5699999999999,7718.5200000000004,-577.71500000000003,-1643.5899999999999,-1272.4200000000001
3982.0,7013.4799999999996,6373.0799999999999,1024.78,7525.75,-583.53499999999997,-1522.8800000000001,-1305.3800000000001
3983.0,6852.1499999999996,6291.9300000000003,965.70600000000002,7298.7299999999996,-584.95699999999999,-1401.6600000000001,-1327.49
3984.0,6664.1999999999998,6187.5699999999997,914.654,7050.2299999999996,-583.54899999999998,-1280.0699999999999,-1338.8599999999999
3985.0,6455.3900000000003,6059.3500000000004,867.08399999999995,6781.5500000000002,-579.37900000000002,-1159.1600000000001,-1342.01
3986.0,6229.4300000000003,5913.1300000000001,824.39800000000002,6498.9200000000001,-572.99099999999999,-1039.75,-1336.46
3987.0,5989.9700000000003,5741.7299999999996,775.80200000000002,6195.2399999999998,-564.58500000000004,-922.197,-1323.3800000000001
3988.0,5740.0799999999999,5564.6599999999999,738.14499999999998,5891.0299999999997,-554.69899999999996,-806.98599999999999,-1303.1800000000001
3989.0,5482.5799999999999,5372.0500000000002,699.22000000000003,5576.8199999999997,-543.529,-694.673,-1276.78
3990.0,5220.4099999999999,5174.8199999999997,667.245,5263.8800000000001,-531.61500000000001,-585.84400000000005,-1244.6700000000001
3991.0,4956.1899999999996,4964.8000000000002,631.63499999999999,4943.9200000000001,-519.024,-480.709,-1207.77
3992.0,4692.1300000000001,4752.1300000000001,600.476,4627.4899999999998,-506.12200000000001,-379.44900000000001,-1166.3900000000001
3993.0,4430.6599999999999,4533.8500000000004,568.87900000000002,4311.9300000000003,-493.00099999999998,-282.39100000000002,-1121.3099999999999
3994.0,4173.25,4315.25,540.82899999999995,4002.3899999999999,-479.73099999999999,-189.71100000000001,-1073.05
3995.0,3922.0500000000002,4098.9899999999998,516.98400000000004,3701.6900000000001,-466.709,-101.63,-1021.86
3996.0,3678.8299999999999,3879.1399999999999,490.14499999999998,3403.46,-453.71499999999997,-18.1556,-968.80399999999997
3997.0,3444.73,3668.8499999999999,472.34800000000001,3121.25,-441.19999999999999,60.7744,-913.60500000000002
3998.0,3222.0700000000002,3454.6399999999999,448.54899999999998,2841.1700000000001,-428.94,134.87100000000001,-857.59500000000003
3999.0,3010.8299999999999,3245.5,427.733,2572.02,-417.24599999999998,204.566,-800.33500000000004
4000.0,2813.8699999999999,3037.2199999999998,403.50200000000001,2309.8899999999999,-406.00200000000001,269.31700000000001,-742.93399999999997
4001.0,2630.2600000000002,2843.1100000000001,390.21899999999999,2067.0,-395.06599999999997,329.94900000000001,-685.11300000000006
4002.0,2462.9099999999999,2642.29,364.39800000000002,1823.45,-384.88499999999999,385.755,-627.44200000000001
4003.0,2311.1399999999999,2459.9899999999998,352.78300000000002,1602.74,-374.85599999999999,437.55500000000001,-570.57100000000003
4004.0,2175.9000000000001,2264.5999999999999,322.47500000000002,1374.3599999999999,-365.84300000000002,485.18000000000001,-513.62099999999998
4005.0,2058.5300000000002,2102.5999999999999,318.846,1183.77,-356.88200000000001,528.33500000000004,-458.60599999999999
4006.0,1956.4200000000001,1921.77,293.54000000000002,977.82100000000003,-348.80099999999999,568.93299999999999,-402.62400000000002
4007.0,1873.8,1775.26,290.74900000000002,811.81700000000001,-340.65300000000002,603.27800000000002,-350.91000000000003
4008.0,1801.8800000000001,1612.6400000000001,279.81799999999998,632.61099999999999,-336.14100000000002,639.57000000000005,-288.66199999999998
4009.0,1749.97,1454.3299999999999,241.66300000000001,460.91800000000001,-320.63,658.87599999999998,-257.46800000000002
4010.0,1703.54,1358.52,309.23099999999999,388.29599999999999,-350.01799999999997,697.59500000000003,-129.48500000000001
4011.0,18353.599999999999,-11508.299999999999,7356.96,-7485.5,2195.5300000000002,-1209.04,2696.73
4012.0,15988.4,-9379.0100000000002,7268.1700000000001,-5086.9300000000003,2143.5,-1491.79,1921.0
4013.0,13161.5,-8264.2000000000007,5527.6199999999999,-3676.5500000000002,1689.9400000000001,-1732.54,1598.28
4014.0,10885.1,-6778.9700000000003,4564.9300000000003,-2545.6700000000001,1180.79,-1662.73,1573.24
4015.0,8824.0799999999999,-4889.9200000000001,4012.7399999999998,-1454.6900000000001,1133.5,-1640.6199999999999,1349.02
4016.0,7168.79,-3248.9099999999999,3346.3600000000001,-285.78300000000002,1076.8,-1868.47,1252.26
4017.0,6098.4799999999996,-1898.8900000000001,2954.9099999999999,819.70799999999997,882.04899999999998,-2111.0700000000002,1115.5
4018.0,5410.0100000000002,-660.12099999999998,2744.9200000000001,1894.9000000000001,689.25599999999997,-2290.4099999999999,945.62099999999998
4019.0,5052.0500000000002,429.02600000000001,2552.48,2847.2199999999998,502.06700000000001,-2437.4400000000001,757.59199999999998
4020.0,4977.1999999999998,1440.99,2411.8499999999999,3769.1900000000001,332.88900000000001,-2541.3699999999999,566.18499999999995
4021.0,5116.9700000000003,2298.6999999999998,2239.8699999999999,4541.8500000000004,185.00299999999999,-2613.5900000000001,374.56599999999997
4022.0,5389.5500000000002,3104.1500000000001,2123.9200000000001,5273.1700000000001,53.223100000000002,-2654.29,192.69399999999999
4023.0,5721.6000000000004,3769.3600000000001,1972.79,5859.4799999999996,-59.704999999999998,-2669.2199999999998,13.5847
4024.0,6068.7799999999997,4390.8199999999997,1873.0799999999999,6403.4200000000001,-159.62799999999999,-2660.1199999999999,-150.636
4025.0,6396.9200000000001,4884.0699999999997,1736.46,6810.6800000000003,-243.541,-2631.21,-310.55799999999999
4026.0,6689.4300000000003,5338.6899999999996,1645.0899999999999,7176.46,-316.55599999999998,-2583.4699999999998,-453.48599999999999
4027.0,6936.1999999999998,5691.3800000000001,1531.3299999999999,7432.6700000000001,-375.887,-2520.6999999999998,-589.66600000000005
4028.0,7131.4099999999999,5998.8299999999999,1446.6900000000001,7640.6400000000003,-426.55599999999998,-2443.4000000000001,-709.30100000000004
4029.0,7276.1800000000003,6224.71,1348.5699999999999,7760.8500000000004,-466.98700000000002,-2355.0900000000001,-821.04100000000005
4030.0,7370.9700000000003,6402.1400000000003,1264.8699999999999,7831.8599999999997,-500.565,-2256.3400000000001,-917.56700000000001
4031.0,7413.4300000000003,6530.0,1190.51,7849.2399999999998,-524.86000000000001,-2147.96,-999.45600000000002
4032.0,7400.6199999999999,6624.8999999999996,1141.3800000000001,7825.6099999999997,-540.06700000000001,-2031.79,-1066.9100000000001
4033.0,7355.2600000000002,6672.6099999999997,1091.0,7753.3900000000003,-548.44000000000005,-1915.1900000000001,-1131.1700000000001
4034.0,7272.2299999999996,6670.9300000000003,1036.9100000000001,7637.46,-557.46100000000001,-1795.23,-1177.95
4035.0,7147.7200000000003,6650.75,1009.4400000000001,7499.3800000000001,-561.34799999999996,-1670.4100000000001,-1216.8
4036.0,6996.6499999999996,6578.9399999999996,962.76900000000001,7309.79,-561.39800000000002,-1543.4300000000001,-1249.1300000000001
4037.0,6823.6800000000003,6480.2600000000002,917.43299999999999,7099.46,-560.154,-1414.96,-1270.4200000000001
4038.0,6627.8900000000003,6346.6099999999997,865.80899999999997,6856.8000000000002,-554.05999999999995,-1286.3099999999999,-1284.3199999999999
4039.0,6415.5200000000004,6197.3299999999999,820.19100000000003,6602.9700000000003,-546.197,-1159.54,-1287.24
4040.0,6185.6899999999996,6021.1300000000001,769.93200000000002,6323.6899999999996,-536.32799999999997,-1034.1700000000001,-1282.6900000000001
4041.0,5943.4099999999999,5845.1899999999996,738.55899999999997,6049.3100000000004,-525.64499999999998,-911.13999999999999,-1270.5599999999999
4042.0,5692.0500000000002,5640.3500000000004,693.76400000000001,5749.9099999999999,-513.74699999999996,-791.23199999999997,-1252.5699999999999
4043.0,5434.1599999999999,5437.1400000000003,663.00699999999995,5456.4899999999998,-501.483,-674.64999999999998,-1228.1500000000001
4044.0,5172.6300000000001,5212.5600000000004,620.96199999999999,5145.9899999999998,-488.47899999999998,-561.66899999999998,-1198.9300000000001
4045.0,4909.6099999999997,4997.75,596.69600000000003,4850.46,-475.5,-452.72199999999998,-1164.54
4046.0,4647.3199999999997,4765.6400000000003,561.39499999999998,4542.2200000000003,-462.21199999999999,-348.14600000000002,-1126.47
4047.0,4388.0100000000002,4545.5699999999997,541.90899999999999,4251.1000000000004,-449.31599999999997,-248.155,-1084.3099999999999
4048.0,4133.6099999999997,4309.8299999999999,509.17599999999999,3948.6999999999998,-436.41000000000003,-152.685,-1039.6500000000001
4049.0,3885.7600000000002,4085.98,489.10399999999998,3663.6199999999999,-424.18599999999998,-61.881300000000003,-991.827
4050.0,3646.1700000000001,3853.3200000000002,460.07600000000002,3374.3299999999999,-412.04300000000001,24.055800000000001,-942.56700000000001
4051.0,3415.8600000000001,3632.25,441.19099999999997,3101.7600000000002,-400.75400000000002,105.15300000000001,-890.99400000000003
4052.0,3196.9000000000001,3403.9499999999998,412.38999999999999,2826.4699999999998,-389.67599999999999,181.245,-838.79200000000003
4053.0,2989.5,3199.8699999999999,404.61099999999999,2580.1399999999999,-379.423,252.62100000000001,-784.97500000000002
4054.0,2795.8400000000001,2980.5500000000002,377.25200000000001,2322.9000000000001,-369.54399999999998,319.08800000000002,-731.202
4055.0,2616.1999999999998,2786.3200000000002,370.25400000000002,2095.1199999999999,-360.56999999999999,380.86099999999999,-676.78499999999997
4056.0,2451.6700000000001,2576.8099999999999,342.94900000000001,1855.9100000000001,-351.94999999999999,438.10199999999998,-622.84699999999998
4057.0,2303.2800000000002,2402.1100000000001,343.964,1655.8299999999999,-344.20999999999998,490.58499999999998,-568.82799999999997
4058.0,2170.3499999999999,2205.5900000000001,318.81200000000001,1436.7,-336.49200000000002,539.40200000000004,-515.58799999999997
4059.0,2055.4499999999998,2044.25,319.94400000000002,1257.55,-330.04399999999998,583.03700000000003,-462.84100000000001
4060.0,1955.25,1853.23,289.82400000000001,1049.97,-323.21899999999999,624.447,-410.75099999999998
4061.0,1873.74,1705.3900000000001,289.89299999999997,891.13599999999997,-317.56700000000001,659.226,-360.803
4062.0,1803.0899999999999,1525.24,266.61799999999999,702.07799999999997,-315.048,695.99699999999996,-302.45699999999999
4063.0,1751.8199999999999,1371.8399999999999,238.036,540.03800000000001,-301.21300000000002,716.673,-271.738
4064.0,1706.3399999999999,1264.1600000000001,302.435,459.923,-335.27699999999999,754.74400000000003,-149.64099999999999
4065.0,16603.099999999999,-6359.75,10026.200000000001,-3261.0,2761.52,-1399.6900000000001,2554.6999999999998
4066.0,13735.799999999999,-5249.54,8102.3500000000004,-2238.0799999999999,2550.0500000000002,-1888.0699999999999,1943.8900000000001
4067.0,11460.6,-4450.9099999999999,6214.4300000000003,-1571.49,2092.1199999999999,-2135.4499999999998,2097.9000000000001
4068.0,9891.5799999999999,-2314.3200000000002,6510.6700000000001,-50.975200000000001,1750.0799999999999,-2179.9899999999998,1946.6900000000001
4069.0,7968.3199999999997,-1747.03,5182.1000000000004,293.61500000000001,1339.0599999999999,-2258.8099999999999,1261.0999999999999
4070.0,6344.79,-1403.04,3511.4099999999999,779.29999999999995,904.02200000000005,-2334.3800000000001,1043.5899999999999
4071.0,5546.6700000000001,-494.61399999999998,2842.5100000000002,1571.3800000000001,655.79499999999996,-2465.0599999999999,954.90300000000002
4072.0,5174.8900000000003,566.11099999999999,2609.3600000000001,2426.1700000000001,461.048,-2601.3000000000002,818.00599999999997
4073.0,5035.3400000000001,1575.9100000000001,2461.1900000000001,3279.23,296.62400000000002,-2686.7399999999998,647.51499999999999
4074.0,5131.1599999999999,2489.3099999999999,2313.48,4087.7600000000002,147.34299999999999,-2752.0900000000001,474.21100000000001
4075.0,5363.2700000000004,3276.3000000000002,2158.3499999999999,4780.9399999999996,18.700099999999999,-2787.2199999999998,295.44400000000002
4076.0,5681.5799999999999,3998.04,2036.96,5425.5799999999999,-94.023700000000005,-2800.1599999999999,126.402
4077.0,6021.0699999999997,4598.29,1896.1700000000001,5949.5299999999997,-189.001,-2790.6300000000001,-39.974499999999999
4078.0,6355.6899999999996,5138.4799999999996,1784.5599999999999,6418.8599999999997,-271.572,-2761.6799999999998,-191.94499999999999
4079.0,6657.8900000000003,5585.0,1667.6700000000001,6790.8400000000001,-338.63600000000002,-2715.0500000000002,-339.45699999999999
4080.0,6919.0100000000002,5965.6599999999999,1565.53,7098.8100000000004,-396.28199999999998,-2652.3099999999999,-471.17399999999998
4081.0,7131.1999999999998,6268.4899999999998,1461.8399999999999,7324.6300000000001,-441.43900000000002,-2575.8400000000001,-596.88
4082.0,7292.4399999999996,6511.8900000000003,1369.1600000000001,7490.9799999999996,-478.98700000000002,-2486.7399999999998,-706.71299999999997
4083.0,7404.0100000000002,6696.0900000000001,1282.55,7595.5699999999997,-506.19200000000001,-2387.7199999999998,-808.755
4084.0,7465.3100000000004,6824.7799999999997,1201.6400000000001,7645.2399999999998,-527.53300000000002,-2278.9099999999999,-896.14599999999996
4085.0,7482.6999999999998,6905.54,1126.49,7644.8699999999999,-541.90800000000002,-2163.1399999999999,-975.64800000000002
4086.0,7453.8699999999999,6934.1700000000001,1051.05,7590.9799999999996,-552.19200000000001,-2040.3800000000001,-1040.74
4087.0,7390.2700000000004,6932.4200000000001,987.94100000000003,7506.3199999999997,-555.37699999999995,-1914.51,-1098.03
4088.0,7289.1800000000003,6886.9799999999996,923.56700000000001,7379.6800000000003,-554.74699999999996,-1785.29,-1140.75
4089.0,7152.6300000000001,6830.2700000000004,888.56100000000004,7241.8800000000001,-550.97900000000004,-1654.1900000000001,-1172.0999999999999
4090.0,6982.0200000000004,6740.5,861.26700000000005,7069.9099999999999,-544.01099999999997,-1521.99,-1197.3399999999999
4091.0,6790.6000000000004,6635.3000000000002,847.173,6886.5299999999997,-535.94200000000001,-1390.5699999999999,-1215.1600000000001
4092.0,6584.4399999999996,6482.6800000000003,806.92600000000004,6657.0200000000004,-524.69200000000001,-1259.72,-1229.3800000000001
4093.0,6364.1899999999996,6312.54,768.46900000000005,6416.5,-515.35699999999997,-1129.8599999999999,-1231.8499999999999
4094.0,6129.3199999999997,6119.6800000000003,727.83100000000002,6154.71,-502.29300000000001,-1001.63,-1230.1400000000001
4095.0,5885.1999999999998,5911.5100000000002,685.83100000000002,5882.25,-489.74799999999999,-876.67700000000002,-1218.5599999999999
4096.0,5632.2799999999997,5694.6800000000003,649.03899999999999,5602.1499999999996,-475.52800000000002,-754.51199999999994,-1202.24
4097.0,5374.04,5471.1999999999998,616.36000000000001,5319.7200000000003,-461.983,-635.85199999999998,-1179.0
4098.0,5113.1300000000001,5241.8999999999996,586.827,5034.1000000000004,-447.73899999999998,-521.22400000000005,-1152.1099999999999
4099.0,4851.7200000000003,5004.9799999999996,555.822,4744.7399999999998,-434.30000000000001,-410.791,-1119.8499999999999
4100.0,4592.3800000000001,4766.1999999999998,527.31600000000003,4456.4399999999996,-420.57999999999998,-304.70299999999997,-1084.6900000000001
4101.0,4336.1899999999996,4524.25,498.79199999999997,4169.2299999999996,-407.85500000000002,-203.14400000000001,-1045.3800000000001
4102.0,4085.5300000000002,4285.4799999999996,475.05799999999999,3888.75,-395.20699999999999,-106.627,-1003.96
4103.0,3841.0900000000001,4050.1900000000001,455.09899999999999,3615.3099999999999,-383.5,-15.0603,-959.47000000000003
4104.0,3605.5700000000002,3813.8699999999999,432.47199999999998,3344.1399999999999,-372.24400000000003,71.427400000000006,-913.40800000000002
4105.0,3379.3600000000001,3588.4899999999998,418.63099999999997,3087.23,-361.77199999999999,153.072,-865.41600000000005
4106.0,3164.5799999999999,3360.6999999999998,398.83199999999999,2831.3600000000001,-351.96800000000002,229.66999999999999,-816.42200000000003
4107.0,2961.8299999999999,3138.9499999999998,381.07400000000001,2584.6999999999998,-342.99200000000002,301.34399999999999,-766.495
4108.0,2772.3600000000001,2919.6599999999999,360.90699999999998,2343.6500000000001,-334.63299999999998,368.12400000000002,-716.096
4109.0,2597.04,2715.98,350.75400000000002,2121.1799999999998,-326.97899999999998,430.065,-665.26700000000005
4110.0,2436.4400000000001,2507.6700000000001,330.45499999999998,1896.8399999999999,-319.85300000000001,487.47000000000003,-614.53700000000003
4111.0,2291.8499999999999,2316.0100000000002,319.887,1691.9400000000001,-313.536,540.07799999999997,-564.02700000000004
4112.0,2162.5100000000002,2116.8000000000002,296.76600000000002,1481.6800000000001,-307.63999999999999,588.82000000000005,-513.95600000000002
4113.0,2050.46,1944.4400000000001,291.71499999999997,1301.0899999999999,-302.60000000000002,632.50099999999998,-464.52999999999997
4114.0,1953.0899999999999,1765.0,276.738,1114.8,-297.84699999999998,673.673,-415.08999999999997
4115.0,1873.5799999999999,1604.8499999999999,268.80399999999997,950.86400000000003,-293.55000000000001,708.57100000000003,-368.14499999999998
4116.0,1804.6600000000001,1447.0999999999999,271.16300000000001,792.42100000000005,-293.31400000000002,744.85599999999999,-312.36500000000001
4117.0,1753.7,1272.6800000000001,226.143,613.65499999999997,-279.935,765.95399999999995,-283.11700000000002
4118.0,1708.9200000000001,1171.27,303.97399999999999,547.39400000000001,-320.08800000000002,802.22000000000003,-165.37299999999999
4119.0,13522.9,-4536.8699999999999,7973.0200000000004,-2902.8400000000001,2611.8099999999999,-1788.3599999999999,2166.75
4120.0,10827.4,-4091.7800000000002,5488.2399999999998,-2527.3299999999999,2048.3200000000002,-2177.3400000000001,1931.1099999999999
4121.0,9007.7600000000002,-2798.7600000000002,4695.3800000000001,-1465.6600000000001,1450.4300000000001,-2301.75,1913.5899999999999
4122.0,7907.9300000000003,-987.26199999999994,5250.2200000000003,-81.938299999999998,1005.39,-2270.6599999999999,1821.76
4123.0,6760.0200000000004,503.85700000000003,5602.3400000000001,1245.4100000000001,830.654,-2388.6599999999999,1117.6099999999999
4124.0,5675.25,448.71100000000001,3778.6199999999999,1664.48,666.90800000000002,-2640.9000000000001,691.15499999999997
4125.0,5304.9200000000001,800.91200000000003,2588.8200000000002,2162.3899999999999,399.22899999999998,-2765.6199999999999,837.05100000000004
4126.0,5141.29,1886.6600000000001,2591.2199999999998,2944.0300000000002,247.71299999999999,-2824.7600000000002,693.19399999999996
4127.0,5181.3000000000002,2705.1199999999999,2344.8899999999999,3629.8699999999999,98.372799999999998,-2865.25,538.44000000000005
4128.0,5375.2399999999998,3554.6500000000001,2240.23,4372.9099999999999,-31.843499999999999,-2885.5,382.55000000000001
4129.0,5671.2799999999997,4237.6300000000001,2065.6500000000001,4978.1300000000001,-140.66999999999999,-2892.2600000000002,211.696
4130.0,6003.1000000000004,4891.46,1962.4000000000001,5563.5600000000004,-234.601,-2878.8200000000002,56.528300000000002
4131.0,6337.3599999999997,5412.9300000000003,1817.8499999999999,6022.8500000000004,-311.41899999999998,-2849.1399999999999,-98.484099999999998
4132.0,6646.7600000000002,5894.8599999999997,1721.9100000000001,6448.5799999999999,-377.12,-2801.9200000000001,-237.90600000000001
4133.0,6918.2399999999998,6260.8199999999997,1592.4100000000001,6758.4899999999998,-428.51799999999997,-2740.23,-373.99599999999998
4134.0,7143.0900000000001,6589.3100000000004,1502.9400000000001,7034.5900000000001,-471.40100000000001,-2663.9400000000001,-494.32299999999998
4135.0,7319.5,6829.5600000000004,1397.1800000000001,7221.4799999999996,-502.63900000000001,-2576.2399999999998,-608.98000000000002
4136.0,7444.8000000000002,7021.1199999999999,1310.97,7362.5100000000002,-527.43499999999995,-2477.2600000000002,-709.06899999999996
4137.0,7522.6400000000003,7147.9700000000003,1221.3099999999999,7437.8500000000004,-543.56500000000005,-2369.6300000000001,-802.24699999999996
4138.0,7552.9499999999998,7222.6899999999996,1137.0799999999999,7462.1999999999998,-554.846,-2253.9400000000001,-881.88400000000001
4139.0,7541.9399999999996,7258.1000000000004,1064.6099999999999,7447.3400000000001,-559.46600000000001,-2132.96,-953.24300000000005
4140.0,7490.3800000000001,7242.2399999999998,988.72299999999996,7382.3699999999999,-560.16499999999996,-2006.95,-1013.0
4141.0,7404.8000000000002,7203.4200000000001,931.19000000000005,7295.6300000000001,-558.404,-1877.3599999999999,-1063.7
4142.0,7283.7200000000003,7112.5100000000002,862.90499999999997,7157.6400000000003,-554.03899999999999,-1743.6900000000001,-1105.8499999999999
4143.0,7134.1499999999996,7015.1400000000003,822.81600000000003,7017.8400000000001,-546.71600000000001,-1608.3399999999999,-1136.8800000000001
4144.0,6954.0699999999997,6881.8199999999997,780.51199999999994,6841.3699999999999,-533.45699999999999,-1471.5899999999999,-1158.71
4145.0,6758.6199999999999,6742.9099999999999,753.20699999999999,6657.5699999999997,-516.59500000000003,-1338.3399999999999,-1173.6199999999999
4146.0,6542.96,6570.7700000000004,718.32500000000005,6442.3000000000002,-503.04300000000001,-1207.0999999999999,-1178.1600000000001
4147.0,6305.29,6399.4099999999999,711.86099999999999,6228.8999999999996,-488.07600000000002,-1075.0599999999999,-1178.5899999999999
4148.0,6065.4200000000001,6186.4700000000003,674.26900000000001,5977.9099999999999,-470.06799999999998,-946.46699999999998,-1177.6700000000001
4149.0,5820.3900000000003,5970.3400000000001,643.69500000000005,5729.1800000000003,-455.06299999999999,-821.45299999999997,-1166.8399999999999
4150.0,5566.2299999999996,5731.3999999999996,604.58699999999999,5458.7399999999998,-439.37099999999998,-699.06500000000005,-1151.3800000000001
4151.0,5308.1999999999998,5492.7200000000003,574.96100000000001,5191.2200000000003,-424.11799999999999,-580.68499999999995,-1130.3599999999999
4152.0,5048.5799999999999,5240.96,539.005,4912.4799999999996,-408.93200000000002,-466.46300000000002,-1104.8299999999999
4153.0,4788.7200000000003,4995.6999999999998,515.20399999999995,4642.4799999999996,-394.62900000000002,-356.60899999999998,-1074.8800000000001
4154.0,4530.9799999999996,4744.3800000000001,489.19900000000001,4368.6899999999996,-380.92599999999999,-251.489,-1041.73
4155.0,4277.3199999999997,4498.2700000000004,469.91699999999997,4102.0299999999997,-367.822,-151.19300000000001,-1005.42
4156.0,4029.8400000000001,4248.54,446.51100000000002,3833.6199999999999,-355.53100000000001,-55.579099999999997,-966.28200000000004
4157.0,3789.8899999999999,4000.3000000000002,423.40600000000001,3568.9699999999998,-344.0,35.318300000000001,-925.04899999999998
4158.0,3558.54,3759.48,405.74700000000001,3314.25,-333.327,121.268,-881.88499999999999
4159.0,3337.29,3515.4699999999998,381.67000000000002,3058.5,-323.56299999999999,202.048,-837.351
4160.0,3126.9899999999998,3284.5599999999999,366.74900000000002,2817.8200000000002,-314.62099999999998,277.81700000000001,-791.61000000000001
4161.0,2928.9099999999999,3058.54,351.72699999999998,2583.9099999999999,-306.49700000000001,348.58499999999998,-744.93100000000004
4162.0,2743.98,2843.0,341.77100000000002,2362.3600000000001,-299.238,414.48500000000001,-697.70899999999995
4163.0,2573.1900000000001,2624.3000000000002,322.55099999999999,2139.21,-292.79199999999997,475.53800000000001,-650.35699999999997
4164.0,2417.0599999999999,2425.1100000000001,316.536,1937.3299999999999,-287.22899999999998,531.96199999999999,-602.83100000000002
4165.0,2276.4099999999999,2222.9499999999998,300.58800000000002,1733.6800000000001,-282.14100000000002,583.79200000000003,-555.72699999999998
4166.0,2151.0500000000002,2044.5899999999999,302.11099999999999,1555.5,-277.96600000000001,631.54700000000003,-508.41300000000001
4167.0,2042.3900000000001,1851.1700000000001,280.49400000000003,1363.26,-274.01600000000002,674.71600000000001,-462.48200000000003
4168.0,1948.22,1685.05,281.80599999999998,1199.8800000000001,-271.286,714.803,-415.637
4169.0,1871.0999999999999,1501.53,254.55000000000001,1019.71,-267.95699999999999,749.25999999999999,-372.00900000000001
4170.0,1804.6099999999999,1350.6400000000001,266.37400000000002,876.20899999999995,-270.214,784.30200000000002,-319.30500000000001
4171.0,1755.3199999999999,1160.05,208.57599999999999,685.46000000000004,-257.17399999999998,805.84299999999996,-291.88799999999998
4172.0,1712.4200000000001,1076.9200000000001,309.55200000000002,644.39599999999996,-303.63200000000001,839.88999999999999,-178.44499999999999
4173.0,10655.6,-4480.9499999999998,4501.3500000000004,-4109.6099999999997,1913.03,-2084.3299999999999,2003.8399999999999
4174.0,8819.9599999999991,-3270.5999999999999,3705.8099999999999,-2757.4000000000001,1256.02,-2410.48,1850.6199999999999
4175.0,7978.3900000000003,-1292.03,4640.54,-842.22400000000005,758.36400000000003,-2502.9499999999998,1862.4300000000001
4176.0,7444.8299999999999,1430.55,6783.9799999999996,1635.1600000000001,599.85000000000002,-2490.5799999999999,1646.3399999999999
4177.0,6448.5200000000004,2684.0500000000002,6788.0299999999997,2728.8800000000001,690.63999999999999,-2635.0100000000002,941.95799999999997
4178.0,5561.7200000000003,2148.6399999999999,4159.6400000000003,2439.7399999999998,512.07600000000002,-2931.5100000000002,523.24099999999999
4179.0,5344.6499999999996,2150.9499999999998,2528.71,2579.6599999999999,173.84299999999999,-2992.1799999999998,695.37800000000004
4180.0,5254.7600000000002,3083.8499999999999,2454.3200000000002,3295.0300000000002,43.408700000000003,-2943.1300000000001,590.75900000000001
4181.0,5415.5799999999999,3820.1100000000001,2240.9499999999998,3927.1700000000001,-88.652100000000004,-2947.29,436.32299999999998
4182.0,5678.6599999999999,4572.8400000000001,2145.8200000000002,4611.2299999999996,-199.75899999999999,-2938.02,286.59899999999999
4183.0,6007.4099999999999,5171.71,1976.6500000000001,5152.4700000000003,-288.27699999999999,-2923.6700000000001,127.767
4184.0,6337.3699999999999,5742.1099999999997,1875.75,5675.04,-363.63,-2890.8299999999999,-16.358899999999998
4185.0,6652.4300000000003,6187.5500000000002,1733.6600000000001,6077.5,-422.87799999999999,-2845.0900000000001,-158.815
4186.0,6930.5200000000004,6590.1400000000003,1632.9400000000001,6444.3100000000004,-472.38900000000001,-2783.5300000000002,-286.53100000000001
4187.0,7166.5500000000002,6901.1099999999997,1517.4000000000001,6721.7299999999996,-508.72399999999999,-2709.6999999999998,-410.26799999999997
4188.0,7353.1199999999999,7159.04,1423.5899999999999,6951.3999999999996,-537.68299999999999,-2623.1500000000001,-519.85799999999995
4189.0,7492.3500000000004,7338.21,1318.1300000000001,7103.8500000000004,-556.60400000000004,-2526.75,-623.73000000000002
4190.0,7581.8699999999999,7477.8699999999999,1237.29,7220.1800000000003,-569.79999999999995,-2420.5100000000002,-714.38599999999997
4191.0,7626.7200000000003,7548.9499999999998,1145.1800000000001,7269.1700000000001,-575.39700000000005,-2307.1999999999998,-797.76199999999994
4192.0,7627.21,7590.8800000000001,1078.29,7292.0500000000002,-576.66800000000001,-2187.23,-869.41899999999998
4193.0,7588.2600000000002,7567.3000000000002,994.24000000000001,7250.8699999999999,-572.96600000000001,-2062.3400000000001,-933.06899999999996
4194.0,7514.9099999999999,7525.3100000000004,934.30799999999999,7193.0900000000001,-565.79200000000003,-1934.45,-987.44100000000003
4195.0,7405.3699999999999,7430.54,864.13900000000001,7085.04,-557.33100000000002,-1803.8299999999999,-1029.24
4196.0,7257.6099999999997,7346.8100000000004,848.54700000000003,6988.7799999999997,-545.27300000000002,-1669.55,-1062.98
4197.0,7087.3299999999999,7200.3500000000004,799.06299999999999,6830.2299999999996,-528.07000000000005,-1534.2,-1093.6500000000001
4198.0,6903.6400000000003,7048.7799999999997,763.19100000000003,6669.0,-511.72199999999998,-1399.8099999999999,-1115.1400000000001
4199.0,6704.96,6839.1999999999998,690.29100000000005,6450.0,-493.822,-1267.0,-1131.6199999999999
4200.0,6487.6700000000001,6650.0500000000002,659.20699999999999,6255.3800000000001,-478.72000000000003,-1135.79,-1132.95
4201.0,6243.8400000000001,6443.2299999999996,638.548,6037.4899999999998,-460.66800000000001,-1003.74,-1128.8
4202.0,5991.3999999999996,6238.5500000000002,636.904,5822.6800000000003,-442.04399999999998,-875.09900000000005,-1124.1900000000001
4203.0,5741.3999999999996,5987.9700000000003,596.02200000000005,5567.8699999999999,-422.65699999999998,-752.03899999999999,-1117.53
4204.0,5489.3800000000001,5747.46,570.97199999999998,5326.1000000000004,-405.05900000000003,-633.447,-1102.25
4205.0,5232.7200000000003,5487.1300000000001,533.99599999999998,5063.2200000000003,-388.33999999999997,-517.89099999999996,-1081.78
4206.0,4972.5299999999997,5237.1400000000003,515.65300000000002,4812.2600000000002,-373.21100000000001,-405.17700000000002,-1056.54
4207.0,4715.3100000000004,4970.7299999999996,483.96899999999999,4546.3100000000004,-357.11500000000001,-296.89800000000002,-1029.5999999999999
4208.0,4462.54,4711.8100000000004,459.84199999999998,4289.6199999999999,-342.57900000000001,-193.62700000000001,-997.89800000000002
4209.0,4213.7399999999998,4446.2399999999998,430.51499999999999,4026.8699999999999,-329.12599999999998,-94.728099999999998,-963.64999999999998
4210.0,3970.4099999999999,4190.8299999999999,412.03699999999998,3776.04,-316.93400000000003,-0.76274600000000004,-927.16600000000005
4211.0,3734.8299999999999,3938.8800000000001,395.18700000000001,3529.71,-305.68799999999999,87.782499999999999,-888.87699999999995
4212.0,3508.0100000000002,3688.4899999999998,376.76799999999997,3285.3800000000001,-295.62099999999998,171.262,-848.71400000000006
4213.0,3291.46,3450.5700000000002,366.56599999999997,3054.1599999999999,-286.40600000000001,249.84,-807.19299999999998
4214.0,3086.1599999999999,3211.7600000000002,350.64299999999997,2822.8299999999999,-278.28500000000003,323.54899999999998,-764.52700000000004
4215.0,2893.3200000000002,2978.9099999999999,335.03300000000002,2598.1500000000001,-271.13099999999997,392.303,-721.26300000000003
4216.0,2713.4499999999998,2751.7399999999998,319.09100000000001,2379.6700000000001,-264.90800000000002,456.30500000000001,-677.37900000000002
4217.0,2547.6700000000001,2539.3800000000001,311.10700000000003,2176.6199999999999,-259.48700000000002,515.52700000000004,-633.20399999999995
4218.0,2396.0999999999999,2326.8800000000001,296.48099999999999,1973.8099999999999,-254.864,570.351,-588.84699999999998
4219.0,2260.1199999999999,2126.6700000000001,286.31900000000002,1783.78,-251.01499999999999,620.48099999999999,-544.88800000000003
4220.0,2138.7199999999998,1926.3299999999999,270.072,1593.8099999999999,-247.904,666.80399999999997,-500.952
4221.0,2033.79,1745.0899999999999,263.55000000000001,1423.26,-245.477,708.29700000000003,-457.803
4222.0,1943.01,1569.0999999999999,258.27699999999999,1258.0599999999999,-243.78399999999999,747.20799999999997,-414.23000000000002
4223.0,1868.7,1397.3900000000001,245.12299999999999,1097.3900000000001,-242.15700000000001,780.37900000000002,-372.88099999999997
4224.0,1804.8,1247.1600000000001,260.48599999999999,961.36000000000001,-245.66399999999999,814.16300000000001,-323.74700000000001
4225.0,1756.5899999999999,1060.71,208.59299999999999,779.73400000000004,-233.85900000000001,834.82000000000005,-297.27800000000002
4226.0,1715.52,960.56399999999996,298.44499999999999,726.18299999999999,-283.70100000000002,866.72199999999998,-191.279
4227.0,8668.7099999999991,-3893.1500000000001,2693.0100000000002,-4212.3999999999996,1115.9200000000001,-2220.9499999999998,1917.54
4228.0,7706.96,-2087.5300000000002,3235.5999999999999,-2174.6900000000001,804.68399999999997,-2511.8899999999999,1799.8699999999999
4229.0,7298.0299999999997,757.93600000000004,5353.3699999999999,630.20500000000004,611.87599999999998,-2459.8200000000002,2021.9400000000001
4230.0,6588.5100000000002,3172.3800000000001,6901.5,2536.27,763.76999999999998,-2444.0300000000002,1533.5699999999999
4231.0,5700.4399999999996,3555.02,5468.8900000000003,2755.1100000000001,744.31399999999996,-2722.6199999999999,959.37699999999995
4232.0,5412.0600000000004,3396.8899999999999,3576.0999999999999,2707.3000000000002,364.072,-2976.3400000000001,749.59299999999996
4233.0,5401.9799999999996,3566.0700000000002,2575.6500000000001,2959.1399999999999,23.895900000000001,-3017.8499999999999,608.072
4234.0,5474.8599999999997,4178.6000000000004,2290.0100000000002,3575.02,-155.977,-2965.6700000000001,491.34300000000002
4235.0,5700.21,4884.4099999999999,2174.5100000000002,4215.5100000000002,-261.35199999999998,-2942.2399999999998,336.029
4236.0,6020.79,5507.54,2032.74,4803.7399999999998,-351.0,-2923.9899999999998,189.08199999999999
4237.0,6349.4300000000003,6047.3699999999999,1897.03,5306.7399999999998,-420.86700000000002,-2891.23,45.512099999999997
4238.0,6667.9200000000001,6526.3999999999996,1782.78,5760.8199999999997,-478.34500000000003,-2845.7199999999998,-89.196399999999997
4239.0,6952.2399999999998,6910.0200000000004,1656.6500000000001,6123.3500000000004,-521.99199999999996,-2786.27,-217.84399999999999
4240.0,7196.1899999999996,7244.6700000000001,1559.4300000000001,6445.3900000000003,-556.13800000000003,-2714.3499999999999,-335.358
4241.0,7393.4300000000003,7482.3299999999999,1439.1400000000001,6674.4700000000003,-579.33000000000004,-2631.04,-446.50999999999999
4242.0,7542.2700000000004,7685.6000000000004,1353.73,6875.0900000000001,-595.33399999999995,-2537.0599999999999,-546.21400000000006
4243.0,7644.1499999999996,7810.21,1253.27,7000.5100000000002,-602.87800000000004,-2434.4299999999998,-638.59299999999996
4244.0,7699.3299999999999,7894.9399999999996,1173.0999999999999,7090.4700000000003,-605.03800000000001,-2323.9499999999998,-720.28599999999994
4245.0,7711.7399999999998,7917.8199999999997,1085.1300000000001,7121.5200000000004,-601.24699999999996,-2207.2199999999998,-794.178
4246.0,7683.5299999999997,7903.4899999999998,1009.89,7118.5200000000004,-593.67700000000002,-2085.1300000000001,-858.17999999999995
4247.0,7618.7399999999998,7846.9899999999998,937.28499999999997,7075.4899999999998,-582.03499999999997,-1959.1800000000001,-913.86300000000006
4248.0,7522.3400000000001,7756.0299999999997,870.03399999999999,7001.6400000000003,-567.44299999999998,-1830.77,-961.46400000000006
4249.0,7393.8299999999999,7637.6499999999996,813.303,6903.8800000000001,-551.50099999999998,-1699.4000000000001,-998.28499999999997
4250.0,7231.3999999999996,7495.3199999999997,769.48900000000003,6780.9700000000003,-532.40700000000004,-1564.4200000000001,-1025.99
4251.0,7050.9499999999998,7332.8400000000001,729.91800000000001,6634.25,-508.84800000000001,-1431.1500000000001,-1052.0999999999999
4252.0,6856.1400000000003,7131.7799999999997,673.63900000000001,6453.2299999999996,-489.07299999999998,-1300.99,-1068.5599999999999
4253.0,6642.0100000000002,6928.2200000000003,640.28899999999999,6272.1700000000001,-468.56099999999998,-1170.99,-1080.25
4254.0,6420.4399999999996,6688.0600000000004,583.65700000000004,6056.2299999999996,-446.86200000000002,-1043.8,-1087.5799999999999
4255.0,6179.9799999999996,6456.79,556.32500000000005,5852.2700000000004,-431.09300000000002,-917.41399999999999,-1079.47
4256.0,5915.4300000000003,6230.0600000000004,559.81399999999996,5646.5600000000004,-409.19999999999999,-789.75599999999997,-1070.0899999999999
4257.0,5661.0600000000004,5992.3900000000003,550.08900000000006,5428.4799999999996,-383.60000000000002,-669.72500000000002,-1063.47
4258.0,5414.4300000000003,5713.6499999999996,496.81999999999999,5173.1499999999996,-364.31799999999998,-556.42200000000003,-1049.02
4259.0,5159.1400000000003,5448.1300000000001,468.56900000000002,4931.7200000000003,-348.803,-445.00200000000001,-1027.3599999999999
4260.0,4898.9700000000003,5179.6700000000001,446.52999999999997,4685.7299999999996,-332.92399999999998,-335.87099999999998,-1003.37
4261.0,4642.46,4920.3999999999996,435.64499999999998,4449.2299999999996,-318.41199999999998,-230.928,-977.46299999999997
4262.0,4389.9700000000003,4649.4399999999996,415.65699999999998,4203.5,-305.68000000000001,-130.32499999999999,-949.53399999999999
4263.0,4144.1599999999999,4389.2299999999996,405.596,3969.6700000000001,-292.16399999999999,-35.169899999999998,-920.19200000000001
4264.0,3906.9499999999998,4123.1300000000001,384.79899999999998,3729.6900000000001,-280.01299999999998,54.107300000000002,-887.15300000000002
4265.0,3676.5300000000002,3861.23,365.56099999999998,3492.5799999999999,-268.99000000000001,139.15100000000001,-851.42499999999995
4266.0,3455.3099999999999,3607.4400000000001,350.63499999999999,3263.4400000000001,-258.90800000000002,219.44399999999999,-814.20799999999997
4267.0,3244.0799999999999,3352.79,330.37700000000001,3033.1500000000001,-250.27500000000001,294.75700000000001,-775.55100000000004
4268.0,3044.0500000000002,3111.4099999999999,317.88999999999999,2815.3400000000001,-242.619,365.20299999999997,-736.02999999999997
4269.0,2856.0799999999999,2879.4299999999998,308.69600000000003,2606.4499999999998,-236.10400000000001,430.95999999999998,-695.53599999999994
4270.0,2681.2199999999998,2654.8400000000001,300.16199999999998,2404.3099999999999,-230.58799999999999,492.08100000000002,-654.63400000000001
4271.0,2520.2600000000002,2432.6900000000001,286.93799999999999,2204.0599999999999,-226.14400000000001,548.61800000000005,-613.56899999999996
4272.0,2373.5500000000002,2224.29,280.25,2016.8399999999999,-222.59899999999999,600.86000000000001,-572.41200000000003
4273.0,2241.9899999999998,2022.3,271.86000000000001,1835.4400000000001,-219.84200000000001,648.69000000000005,-531.43200000000002
4274.0,2125.0300000000002,1834.9100000000001,271.34699999999998,1667.96,-217.82900000000001,692.89700000000005,-490.41399999999999
4275.0,2024.0899999999999,1644.4000000000001,258.43400000000003,1496.95,-216.48699999999999,732.54600000000005,-450.26100000000002
4276.0,1936.76,1467.9000000000001,255.25200000000001,1339.3800000000001,-215.96899999999999,769.50300000000004,-409.68700000000001
4277.0,1865.21,1291.55,239.809,1180.8599999999999,-215.52099999999999,800.89800000000002,-371.19499999999999
4278.0,1803.9200000000001,1127.6400000000001,243.93600000000001,1037.6300000000001,-220.501,832.87199999999996,-325.43700000000001
4279.0,1757.4300000000001,948.56500000000005,200.19499999999999,867.976,-209.708,852.38999999999999,-300.37200000000001
4280.0,1718.3800000000001,847.56600000000003,294.34300000000002,817.73000000000002,-262.33699999999999,882.00999999999999,-201.74299999999999
4281.0,7247.0900000000001,-3016.73,1831.6400000000001,-3694.4899999999998,586.92100000000005,-2249.2600000000002,1737.5599999999999
4282.0,6440.5,-699.81600000000003,3004.3099999999999,-1339.49,454.31200000000001,-2343.3299999999999,1621.54
4283.0,5916.6099999999997,1645.4200000000001,4395.9399999999996,805.01900000000001,377.16800000000001,-2289.6399999999999,1660.22
4284.0,5346.2600000000002,3396.8099999999999,4895.5699999999997,1968.5999999999999,447.97199999999998,-2424.8499999999999,1142.23
4285.0,5124.3800000000001,3513.1700000000001,3320.9200000000001,1982.99,231.41300000000001,-2733.9899999999998,728.05899999999997
4286.0,5300.79,3894.5599999999999,2485.0300000000002,2466.9699999999998,-81.959199999999996,-2862.4699999999998,703.45399999999995
4287.0,5467.6099999999997,4617.8400000000001,2392.3899999999999,3202.48,-210.82599999999999,-2895.0799999999999,519.91700000000003
4288.0,5736.4399999999996,5207.71,2188.1999999999998,3845.1500000000001,-334.334,-2902.8400000000001,379.56200000000001
4289.0,6028.8900000000003,5832.6099999999997,2078.5500000000002,4457.3699999999999,-416.60500000000002,-2877.48,235.035
4290.0,6367.6499999999996,6370.6599999999999,1932.8800000000001,4978.6400000000003,-484.49400000000003,-2849.6300000000001,95.663700000000006
4291.0,6685.9099999999999,6846.7299999999996,1815.4400000000001,5442.6099999999997,-537.40499999999997,-2805.3699999999999,-34.960000000000001
4292.0,6978.29,7234.8800000000001,1687.73,5826.3599999999997,-577.38400000000001,-2749.5100000000002,-158.72999999999999
4293.0,7229.3699999999999,7563.6800000000003,1580.1600000000001,6158.8999999999996,-606.88999999999999,-2681.0300000000002,-273.69499999999999
4294.0,7435.1000000000004,7808.3299999999999,1462.2,6413.6999999999998,-626.24699999999996,-2601.3099999999999,-381.15300000000002
4295.0,7594.1999999999998,8013.5900000000001,1374.1400000000001,6636.8500000000004,-637.94399999999996,-2511.6500000000001,-479.15899999999999
4296.0,7705.5600000000004,8133.7700000000004,1266.47,6779.9899999999998,-641.505,-2413.2199999999998,-569.904
4297.0,7771.4799999999996,8218.4599999999991,1183.3599999999999,6893.6499999999996,-639.721,-2307.1599999999999,-651.06299999999999
4298.0,7794.3699999999999,8239.2999999999993,1091.5,6947.6099999999997,-632.11300000000006,-2194.73,-724.82100000000003
4299.0,7776.6599999999999,8229.3799999999992,1019.67,6975.04,-620.63,-2076.9899999999998,-789.36500000000001
4300.0,7722.0799999999999,8167.4700000000003,941.82000000000005,6953.8500000000004,-605.16499999999996,-1955.23,-846.43700000000001
4301.0,7633.5200000000004,8076.1400000000003,876.44799999999998,6906.5500000000002,-587.12400000000002,-1830.27,-895.173
4302.0,7514.9099999999999,7944.0799999999999,807.47699999999998,6821.0500000000002,-566.56899999999996,-1702.99,-936.76999999999998
4303.0,7369.1199999999999,7790.8500000000004,750.53999999999996,6716.4499999999998,-544.971,-1574.04,-970.20399999999995
4304.0,7198.3100000000004,7609.4499999999998,695.37800000000004,6583.3299999999999,-521.66899999999998,-1444.01,-996.84299999999996
4305.0,7009.4799999999996,7408.0900000000001,644.22699999999998,6430.7799999999997,-497.387,-1315.1700000000001,-1017.67
4306.0,6803.46,7186.8599999999997,595.66099999999994,6259.96,-473.43299999999999,-1187.7,-1031.03
4307.0,6580.0,6953.1599999999999,556.05200000000002,6076.5900000000001,-449.21199999999999,-1061.2,-1037.4300000000001
4308.0,6349.3400000000001,6702.7600000000002,513.72799999999995,5876.7200000000003,-424.03399999999999,-938.447,-1042.2
4309.0,6107.2299999999996,6445.8400000000001,480.22500000000002,5674.8800000000001,-403.03500000000003,-817.38699999999994,-1036.49
4310.0,5850.3800000000001,6187.75,461.52100000000002,5467.2299999999996,-379.08300000000003,-695.49400000000003,-1026.5999999999999
4311.0,5598.3999999999996,5909.0500000000002,422.59800000000001,5233.1599999999999,-354.08199999999999,-579.80799999999999,-1017.78
4312.0,5351.1000000000004,5629.4899999999998,384.15800000000002,5000.8800000000001,-335.173,-471.334,-1003.22
4313.0,5096.9899999999998,5351.4799999999996,357.61700000000002,4771.5699999999997,-318.75999999999999,-365.16000000000003,-982.41499999999996
4314.0,4840.5100000000002,5084.54,347.94299999999998,4550.8800000000001,-302.72000000000003,-262.12200000000001,-958.654
4315.0,4579.3100000000004,4822.7200000000003,352.61500000000001,4336.3299999999999,-290.68099999999998,-162.292,-929.75699999999995
4316.0,4317.6199999999999,4575.3900000000003,378.678,4135.4300000000003,-274.76999999999998,-65.139799999999994,-902.42499999999995
4317.0,4074.5999999999999,4307.5699999999997,371.11799999999999,3912.1199999999999,-256.351,24.457000000000001,-877.13199999999995
4318.0,3844.1900000000001,4036.3099999999999,350.30099999999999,3685.7399999999998,-244.16499999999999,107.434,-845.96699999999998
4319.0,3617.6700000000001,3776.3899999999999,341.41800000000001,3468.5999999999999,-233.035,187.35499999999999,-812.98599999999999
4320.0,3401.04,3513.71,324.18900000000002,3246.54,-223.46199999999999,262.49000000000001,-778.51800000000003
4321.0,3194.4499999999998,3269.6199999999999,320.26299999999998,3041.5999999999999,-215.21799999999999,333.54500000000002,-742.42700000000002
4322.0,2999.77,3020.9899999999998,305.21100000000001,2830.6300000000001,-208.05699999999999,400.15499999999997,-705.61400000000003
4323.0,2817.3299999999999,2782.54,293.827,2628.6399999999999,-202.34700000000001,462.31099999999998,-668.06399999999996
4324.0,2648.0,2547.3600000000001,278.55099999999999,2428.23,-197.45400000000001,520.09799999999996,-630.35299999999995
4325.0,2492.3200000000002,2332.3000000000002,275.75099999999998,2246.8200000000002,-193.79400000000001,573.47500000000002,-592.02300000000002
4326.0,2350.6399999999999,2113.5900000000001,261.88499999999999,2059.9400000000001,-190.76900000000001,622.78999999999996,-553.88800000000003
4327.0,2223.7600000000002,1912.8499999999999,257.52600000000001,1889.8099999999999,-188.982,667.72299999999996,-515.721
4328.0,2110.8800000000001,1705.75,240.34100000000001,1711.4200000000001,-187.63300000000001,709.24000000000001,-477.97899999999998
4329.0,2013.6600000000001,1527.71,241.74299999999999,1560.6600000000001,-187.58699999999999,746.14099999999996,-440.41199999999998
4330.0,1929.9200000000001,1343.72,233.506,1402.4300000000001,-187.65299999999999,781.14800000000002,-402.97399999999999
4331.0,1861.6400000000001,1178.27,229.77099999999999,1261.3099999999999,-188.69999999999999,810.38400000000001,-366.68799999999999
4332.0,1803.0799999999999,1017.54,240.16800000000001,1127.6500000000001,-194.58799999999999,840.649,-324.24200000000002
4333.0,1758.0699999999999,843.16099999999994,200.02000000000001,966.66499999999996,-184.905,858.08100000000002,-300.55900000000003
4334.0,1720.95,723.90499999999997,283.596,903.08100000000002,-239.18799999999999,885.64099999999996,-209.828
4335.0,6200.3699999999999,-1448.9000000000001,1913.3099999999999,-2595.5799999999999,186.00899999999999,-2251.4699999999998,1489.8199999999999
4336.0,5538.2299999999996,713.54999999999995,3047.8099999999999,-613.66899999999998,118.538,-2253.9099999999999,1301.4400000000001
4337.0,5057.5500000000002,2319.21,3342.8899999999999,686.26700000000005,115.551,-2331.0599999999999,1133.04
4338.0,4959.2600000000002,3353.9699999999998,3015.73,1391.8800000000001,41.590800000000002,-2504.3899999999999,907.846
4339.0,5171.1599999999999,4127.9300000000003,2618.3200000000002,2087.25,-149.191,-2704.23,676.49699999999996
4340.0,5421.8000000000002,4777.0600000000004,2363.9299999999998,2799.1300000000001,-327.11399999999998,-2782.2800000000002,544.45799999999997
4341.0,5677.6099999999997,5476.5100000000002,2251.3699999999999,3495.8800000000001,-411.11599999999999,-2786.9299999999998,404.45499999999998
4342.0,6020.2200000000003,6113.1599999999999,2112.3299999999999,4111.5,-484.62099999999998,-2787.6399999999999,271.25599999999997
4343.0,6365.8900000000003,6666.6999999999998,1980.1800000000001,4660.6599999999999,-547.36500000000001,-2767.7399999999998,139.43199999999999
4344.0,6694.8900000000003,7133.2200000000003,1842.8699999999999,5125.9399999999996,-596.053,-2729.9200000000001,12.8477
4345.0,6996.0699999999997,7542.1000000000004,1728.02,5543.1400000000003,-633.47900000000004,-2678.9400000000001,-106.161
4346.0,7255.4099999999999,7861.6899999999996,1604.1500000000001,5878.8400000000001,-659.25999999999999,-2614.8800000000001,-218.82499999999999
4347.0,7472.6400000000003,8128.1999999999998,1499.9200000000001,6172.0799999999999,-676.67200000000003,-2540.3699999999999,-322.21499999999997
4348.0,7641.0100000000002,8321.0599999999995,1394.05,6398.8299999999999,-683.81899999999996,-2455.6399999999999,-419.76400000000001
4349.0,7763.7299999999996,8452.2700000000004,1291.52,6572.6999999999998,-685.23000000000002,-2362.5900000000001,-507.084
4350.0,7840.5900000000001,8535.6599999999999,1202.1800000000001,6704.8599999999997,-678.90800000000002,-2261.8499999999999,-588.43100000000004
4351.0,7874.0500000000002,8564.4300000000003,1114.77,6789.0500000000002,-668.38499999999999,-2154.8400000000001,-660.03399999999999
4352.0,7867.0500000000002,8549.6399999999994,1035.24,6834.2600000000002,-652.25,-2042.71,-725.149
4353.0,7822.3199999999997,8486.5400000000009,954.80799999999999,6836.1000000000004,-633.37699999999995,-1926.3399999999999,-781.57000000000005
4354.0,7743.6800000000003,8391.9899999999998,885.18700000000001,6809.7700000000004,-611.04300000000001,-1806.75,-831.33000000000004
4355.0,7633.8199999999997,8258.8799999999992,815.69000000000005,6748.0900000000001,-587.11599999999999,-1684.7,-873.29600000000005
4356.0,7496.8900000000003,8103.7399999999998,758.02599999999995,6666.2600000000002,-561.29399999999998,-1561.3199999999999,-908.94000000000005
4357.0,7335.1599999999999,7913.5699999999997,696.22400000000005,6550.9700000000003,-534.74300000000005,-1437.2,-937.66399999999999
4358.0,7153.2299999999996,7707.9899999999998,645.25699999999995,6421.5,-507.42000000000002,-1313.6199999999999,-960.62599999999998
4359.0,6952.3100000000004,7474.8699999999999,590.98900000000003,6265.6199999999999,-480.00700000000001,-1190.49,-977.39700000000005
4360.0,6737.3500000000004,7234.3500000000004,548.41499999999996,6102.6899999999996,-453.012,-1068.8499999999999,-988.73199999999997
4361.0,6509.1300000000001,6970.1099999999997,499.87,5915.9300000000003,-426.36099999999999,-948.69799999999998,-994.80899999999997
4362.0,6271.1999999999998,6709.2700000000004,468.52499999999998,5732.5,-400.50299999999999,-830.84000000000003,-995.09500000000003
4363.0,6025.46,6426.0799999999999,426.62099999999998,5524.3999999999996,-375.06,-715.31899999999996,-991.99599999999998
4364.0,5775.5699999999997,6144.2600000000002,394.471,5316.4799999999996,-352.15100000000001,-603.57799999999997,-984.30200000000002
4365.0,5522.2399999999998,5860.1899999999996,367.57600000000002,5104.46,-329.31,-495.59100000000001,-973.64300000000003
4366.0,5270.1099999999997,5570.1199999999999,337.21899999999999,4885.5500000000002,-308.81200000000001,-392.589,-958.46699999999998
4367.0,5016.79,5281.3299999999999,312.88200000000001,4667.1000000000004,-290.92599999999999,-293.32999999999998,-938.99000000000001
4368.0,4759.8500000000004,5002.2700000000004,305.88799999999998,4458.9799999999996,-275.56200000000001,-197.04400000000001,-915.10599999999999
4369.0,4499.5900000000001,4744.9899999999998,326.86500000000001,4271.3599999999997,-259.81099999999998,-102.476,-887.07799999999997
4370.0,4243.1999999999998,4488.0,347.21899999999999,4078.1300000000001,-241.90700000000001,-10.263299999999999,-858.67200000000003
4371.0,4003.79,4225.4499999999998,350.05700000000002,3873.48,-223.49799999999999,75.099000000000004,-833.673
4372.0,3778.2600000000002,3951.0999999999999,331.56200000000001,3657.96,-210.57599999999999,153.45400000000001,-805.322
4373.0,3558.8000000000002,3679.8600000000001,314.197,3444.7199999999998,-199.07599999999999,228.65899999999999,-774.11300000000006
4374.0,3348.3800000000001,3416.2199999999998,299.82999999999998,3236.9899999999998,-189.12200000000001,299.78500000000003,-741.45399999999995
4375.0,3147.8499999999999,3156.1599999999999,284.20999999999998,3031.0,-181.12,366.36000000000001,-707.94200000000001
4376.0,2958.21,2904.3600000000001,270.935,2830.8200000000002,-174.49100000000001,428.40499999999997,-673.90099999999995
4377.0,2780.54,2673.6100000000001,271.57400000000001,2649.1500000000001,-168.935,486.05000000000001,-639.11800000000005
4378.0,2615.7800000000002,2437.1500000000001,258.60199999999998,2458.8499999999999,-164.64099999999999,539.41499999999996,-603.94899999999996
4379.0,2464.4699999999998,2221.4099999999999,258.50799999999998,2286.73,-161.755,588.76300000000003,-568.54300000000001
4380.0,2327.1799999999998,1996.9000000000001,241.73500000000001,2103.1799999999998,-159.458,634.41999999999996,-533.41499999999996
4381.0,2204.6799999999998,1808.55,251.76400000000001,1953.5999999999999,-158.70099999999999,676.02300000000002,-497.85700000000003
4382.0,2096.1700000000001,1599.72,235.06100000000001,1781.3299999999999,-157.81200000000001,714.90300000000002,-462.904
4383.0,2003.2,1430.6900000000001,246.607,1646.97,-158.93899999999999,748.995,-427.83800000000002
4384.0,1922.6800000000001,1224.8099999999999,219.40899999999999,1473.9000000000001,-159.328,781.60400000000004,-393.49299999999999
4385.0,1857.0899999999999,1080.9200000000001,237.76300000000001,1359.6199999999999,-161.85400000000001,807.97799999999995,-359.69
4386.0,1801.1500000000001,878.51900000000001,209.691,1189.79,-168.49600000000001,836.33399999999995,-320.51299999999998
4387.0,1758.1099999999999,740.57799999999997,203.208,1067.99,-159.66900000000001,851.495,-298.56900000000002
4388.0,1725.0,597.40899999999999,270.35899999999998,985.38699999999994,-216.34200000000001,878.053,-214.40799999999999
4389.0,5613.0299999999997,389.23200000000003,2548.8600000000001,-1370.28,-51.396599999999999,-2261.3499999999999,1237.9200000000001
4390.0,5130.3599999999997,2035.47,3078.1799999999998,32.028300000000002,-19.939499999999999,-2295.3099999999999,1052.6099999999999
4391.0,4955.0799999999999,3075.2399999999998,2786.4699999999998,811.65999999999997,-125.404,-2437.23,842.96799999999996
4392.0,5074.8400000000001,3994.29,2534.25,1598.71,-287.31,-2564.96,682.24000000000001
4393.0,5310.29,4853.9200000000001,2409.6399999999999,2392.8600000000001,-389.15800000000002,-2629.6500000000001,572.673
4394.0,5614.04,5653.6400000000003,2326.48,3137.5999999999999,-459.154,-2662.0,446.11200000000002
4395.0,5968.5600000000004,6296.8999999999996,2164.7600000000002,3760.3899999999999,-538.82000000000005,-2673.0900000000001,310.505
4396.0,6324.4200000000001,6871.75,2025.9400000000001,4320.8000000000002,-604.51300000000003,-2656.8499999999999,180.28399999999999
4397.0,6671.4700000000003,7366.4200000000001,1891.22,4810.9499999999998,-653.08199999999999,-2626.9499999999998,56.930199999999999
4398.0,6985.7399999999998,7785.2799999999997,1768.9100000000001,5241.1199999999999,-688.98099999999999,-2582.21,-58.595799999999997
4399.0,7260.7399999999998,8122.5799999999999,1644.98,5602.3699999999999,-713.23900000000003,-2524.71,-167.25399999999999
4400.0,7491.1700000000001,8395.8999999999996,1533.5899999999999,5911.8400000000001,-727.63699999999994,-2456.1399999999999,-268.34100000000001
4401.0,7673.8999999999996,8598.5,1423.99,6160.9300000000003,-732.69600000000003,-2377.54,-362.01799999999997
4402.0,7811.0699999999997,8740.0200000000004,1319.53,6359.3299999999999,-730.98099999999999,-2290.71,-448.084
4403.0,7901.4499999999998,8833.5499999999993,1230.3299999999999,6517.9300000000003,-722.09000000000003,-2196.21,-527.16300000000001
4404.0,7948.7200000000003,8862.5400000000009,1134.0999999999999,6619.9499999999998,-708.17399999999998,-2095.8299999999999,-598.28499999999997
4405.0,7954.5600000000004,8850.7600000000002,1050.4000000000001,6687.5299999999997,-689.34299999999996,-1990.03,-662.74599999999998
4406.0,7922.6700000000001,8791.2299999999996,967.24400000000003,6713.2200000000003,-667.34000000000003,-1880.0899999999999,-719.71900000000005
4407.0,7855.9099999999999,8700.2099999999991,896.58799999999997,6711.8500000000004,-642.12099999999998,-1766.8900000000001,-770.06799999999998
4408.0,7757.3800000000001,8568.2199999999993,824.87099999999998,6673.3599999999997,-614.899,-1651.3099999999999,-813.38999999999999
4409.0,7630.5,8409.1299999999992,761.63499999999999,6610.6300000000001,-585.82100000000003,-1534.1900000000001,-850.303
4410.0,7478.2600000000002,8217.7099999999991,697.88199999999995,6517.8100000000004,-555.66600000000005,-1416.1900000000001,-880.70299999999997
4411.0,7304.25,8009.1999999999998,644.80999999999995,6409.5100000000002,-524.84199999999998,-1298.1500000000001,-905.09500000000003
4412.0,7110.8999999999996,7776.7299999999996,592.43499999999995,6278.21,-493.88999999999999,-1180.4300000000001,-923.59100000000001
4413.0,6901.8400000000001,7531.1599999999999,547.79100000000005,6133.9899999999998,-463.274,-1063.9000000000001,-936.88300000000004
4414.0,6678.8100000000004,7265.5,501.62,5969.4700000000003,-432.976,-948.88199999999995,-945.04999999999995
4415.0,6445.25,6995.2299999999996,465.90899999999999,5799.9099999999999,-403.70600000000002,-836.02999999999997,-948.55499999999995
4416.0,6203.3000000000002,6704.54,422.255,5608.3800000000001,-375.51100000000002,-725.45699999999999,-948.11199999999997
4417.0,5955.0100000000002,6418.0799999999999,392.92599999999999,5419.7399999999998,-348.62299999999999,-617.98099999999999,-943.00999999999999
4418.0,5702.4899999999998,6122.4499999999998,362.32299999999998,5220.4099999999999,-322.61500000000001,-513.87300000000005,-934.00800000000004
4419.0,5447.8100000000004,5818.8000000000002,329.63900000000001,5011.8699999999999,-298.55900000000003,-413.08499999999998,-921.34299999999996
4420.0,5194.5600000000004,5521.1999999999998,305.178,4806.79,-275.39600000000002,-316.32900000000001,-906.43899999999996
4421.0,4941.3999999999996,5226.8900000000003,287.22500000000002,4604.6999999999998,-256.512,-223.751,-886.15700000000004
4422.0,4684.8299999999999,4948.3000000000002,291.48899999999998,4416.6999999999998,-237.94200000000001,-132.67699999999999,-862.55600000000004
4423.0,4434.9300000000003,4662.0799999999999,284.09500000000003,4214.8699999999999,-218.488,-44.920499999999997,-838.74599999999998
4424.0,4189.1400000000003,4387.2299999999996,286.91899999999998,4021.2800000000002,-205.06299999999999,38.664700000000003,-810.82299999999998
4425.0,3949.1500000000001,4116.1099999999997,292.19400000000002,3825.5300000000002,-187.679,118.869,-785.74099999999999
4426.0,3725.9200000000001,3844.1700000000001,282.52999999999997,3624.7199999999998,-174.80600000000001,191.53200000000001,-759.154
4427.0,3506.1100000000001,3581.6500000000001,284.46600000000001,3433.7399999999998,-167.42699999999999,261.46899999999999,-729.83799999999997
4428.0,3295.8400000000001,3316.23,280.35899999999998,3237.71,-156.946,327.79599999999999,-702.86099999999999
4429.0,3100.6199999999999,3066.6300000000001,278.911,3054.1399999999999,-148.78100000000001,387.91000000000003,-673.13300000000004
4430.0,2916.3000000000002,2814.25,266.93700000000001,2863.48,-142.041,444.58600000000001,-641.52800000000002
4431.0,2743.6700000000001,2569.9899999999998,256.233,2677.9400000000001,-137.625,497.89100000000002,-608.90700000000004
4432.0,2583.6399999999999,2330.8000000000002,243.99700000000001,2494.9899999999998,-133.36600000000001,547.83600000000001,-576.51199999999994
4433.0,2437.7199999999998,2111.8699999999999,242.31899999999999,2329.2199999999998,-130.81,593.48699999999997,-543.33900000000006
4434.0,2305.0,1891.04,231.803,2158.6799999999998,-128.90600000000001,635.78599999999994,-510.464
4435.0,2186.8499999999999,1687.78,229.25,2002.4200000000001,-128.488,673.97699999999998,-477.78399999999999
4436.0,2081.8499999999999,1478.8,214.91999999999999,1837.75,-128.60400000000001,709.23900000000003,-445.536
4437.0,1991.9000000000001,1300.6600000000001,219.703,1700.0699999999999,-130.18700000000001,740.30399999999997,-413.49000000000001
4438.0,1914.8299999999999,1114.51,213.16900000000001,1552.73,-131.62899999999999,769.98299999999995,-381.464
4439.0,1852.3199999999999,949.59900000000005,212.191,1422.3499999999999,-134.511,794.33399999999995,-350.25900000000001
4440.0,1799.0599999999999,786.43499999999995,224.43700000000001,1297.47,-142.48699999999999,819.87699999999995,-313.54500000000002
4441.0,1757.3599999999999,615.20299999999997,186.99600000000001,1145.6800000000001,-133.483,833.54999999999995,-293.55799999999999
4442.0,1725.9100000000001,492.084,277.45299999999997,1086.1700000000001,-195.70099999999999,856.25900000000001,-214.334
4443.0,5298.2399999999998,1903.53,3047.54,-424.91300000000001,-110.721,-2281.25,1004.67
4444.0,5042.0299999999997,2913.3099999999999,2844.27,340.09100000000001,-170.929,-2350.0799999999999,878.88400000000001
4445.0,5066.7700000000004,3959.96,2734.5500000000002,1197.3,-295.46100000000001,-2442.4299999999998,767.08799999999997
4446.0,5230.7799999999997,4861.3199999999997,2600.3099999999999,1997.9300000000001,-393.23700000000002,-2506.8299999999999,634.45500000000004
4447.0,5500.4899999999998,5638.9399999999996,2424.0,2707.3299999999999,-494.42399999999998,-2535.79,491.99599999999998
4448.0,5845.3400000000001,6323.9899999999998,2242.71,3335.8299999999999,-583.27999999999997,-2541.6399999999999,354.52100000000002
4449.0,6219.9300000000003,6951.71,2102.3899999999999,3923.3499999999999,-649.45000000000005,-2533.8299999999999,230.81299999999999
4450.0,6583.1700000000001,7486.4200000000001,1968.46,4445.1599999999999,-697.89700000000005,-2511.54,112.42
4451.0,6916.8999999999996,7931.2600000000002,1834.6800000000001,4897.6599999999999,-735.02099999999996,-2472.9400000000001,0.26564399999999999
4452.0,7214.4099999999999,8303.5,1710.8599999999999,5293.1700000000001,-760.28200000000004,-2422.1799999999998,-106.14700000000001
4453.0,7466.5799999999999,8597.6499999999996,1590.3399999999999,5626.1999999999998,-775.053,-2360.1399999999999,-205.643
4454.0,7673.3400000000001,8828.3400000000001,1480.0799999999999,5909.5600000000004,-780.82500000000005,-2288.8000000000002,-298.35399999999998
4455.0,7831.4700000000003,8986.6100000000006,1368.6800000000001,6133.0100000000002,-778.08000000000004,-2208.6500000000001,-384.65600000000001
4456.0,7944.3500000000004,9098.7900000000009,1275.2,6321.0699999999997,-768.71799999999996,-2121.6599999999999,-462.97300000000001
4457.0,8011.1300000000001,9136.3799999999992,1168.78,6444.5600000000004,-752.64599999999996,-2028.0699999999999,-534.88300000000004
4458.0,8037.1099999999997,9145.6100000000006,1088.28,6547.9300000000003,-732.74400000000003,-1929.53,-599.154
4459.0,8022.5200000000004,9095.9599999999991,1000.71,6599.4700000000003,-707.56100000000004,-1826.46,-657.06200000000001
4460.0,7972.3299999999999,9015.1800000000003,927.87,6626.0100000000002,-680.05899999999997,-1720.3199999999999,-707.42999999999995
4461.0,7888.6000000000004,8886.9400000000005,849.82500000000005,6609.8999999999996,-649.14400000000001,-1611.47,-751.88199999999995
4462.0,7775.3299999999999,8733.9799999999996,784.654,6573.2299999999996,-617.18700000000001,-1500.99,-789.50400000000002
4463.0,7635.5200000000004,8548.0,720.10000000000002,6506.3699999999999,-583.58299999999997,-1389.46,-821.61599999999999
4464.0,7472.0500000000002,8340.2000000000007,663.96699999999998,6419.9700000000003,-549.72799999999995,-1277.5799999999999,-847.84699999999998
4465.0,7288.4499999999998,8106.1099999999997,607.57500000000005,6308.5299999999997,-515.49599999999998,-1166.04,-868.97400000000005
4466.0,7087.0500000000002,7853.5799999999999,555.93100000000004,6179.29,-481.60500000000002,-1055.28,-884.90899999999999
4467.0,6871.0900000000001,7584.96,507.65899999999999,6034.1000000000004,-448.13099999999997,-945.91399999999999,-895.85599999999999
4468.0,6642.6599999999999,7305.75,465.77800000000002,5877.79,-415.53199999999998,-838.13499999999999,-902.29999999999995
4469.0,6404.96,7012.0500000000002,422.76299999999998,5705.6899999999996,-384.11599999999999,-732.63199999999995,-904.30700000000002
4470.0,6159.2600000000002,6719.25,392.51100000000002,5533.1499999999996,-353.64499999999998,-629.67200000000003,-902.13
4471.0,5908.71,6411.5,356.14299999999997,5344.1700000000001,-325.041,-529.59699999999998,-896.48299999999995
4472.0,5654.9799999999996,6101.4200000000001,324.18400000000003,5150.4799999999996,-297.91899999999998,-432.32100000000003,-887.86800000000005
4473.0,5400.04,5798.3999999999996,303.642,4961.1099999999997,-272.84500000000003,-338.49700000000001,-875.71699999999998
4474.0,5145.5,5484.1300000000001,274.91199999999998,4758.0699999999997,-248.959,-248.25899999999999,-861.096
4475.0,4892.8500000000004,5175.4200000000001,252.989,4558.5,-228.03,-161.41499999999999,-842.93700000000001
4476.0,4642.7200000000003,4864.0500000000002,228.38399999999999,4351.6599999999999,-207.78800000000001,-77.246700000000004,-822.74300000000005
4477.0,4399.1700000000001,4569.25,216.262,4156.0500000000002,-190.095,2.2134,-800.78200000000004
4478.0,4155.4899999999998,4280.9700000000003,214.30000000000001,3966.4400000000001,-177.46100000000001,78.700800000000001,-774.03300000000002
4479.0,3918.5,4004.5799999999999,221.25399999999999,3782.25,-158.91200000000001,152.64699999999999,-749.92700000000002
4480.0,3694.8400000000001,3723.9499999999998,212.40100000000001,3589.8099999999999,-148.41999999999999,218.72399999999999,-722.101
4481.0,3469.5999999999999,3463.79,230.298,3416.5799999999999,-137.55600000000001,283.13999999999999,-691.81899999999996
4482.0,3259.79,3210.9000000000001,242.298,3242.0599999999999,-122.901,343.36500000000001,-663.62300000000005
4483.0,3067.0900000000001,2944.0300000000002,225.601,3048.5300000000002,-114.74299999999999,398.38200000000001,-634.18200000000002
4484.0,2886.6399999999999,2687.79,212.51900000000001,2862.3899999999999,-107.765,450.39400000000001,-605.43200000000002
4485.0,2718.3099999999999,2451.7600000000002,211.096,2693.1599999999999,-105.255,498.541,-574.62400000000002
4486.0,2559.2399999999998,2223.2399999999998,215.81399999999999,2529.4699999999998,-104.14700000000001,545.03800000000001,-543.97299999999996
4487.0,2413.9899999999998,2001.21,220.84399999999999,2370.46,-103.018,588.03399999999999,-514.68799999999999
4488.0,2284.5799999999999,1784.0899999999999,219.751,2212.4200000000001,-100.30800000000001,626.73000000000002,-486.51100000000002
4489.0,2170.4400000000001,1582.78,220.87899999999999,2065.6599999999999,-100.172,660.42499999999995,-457.04199999999997
4490.0,2068.9299999999998,1384.8099999999999,218.88300000000001,1918.52,-100.119,692.03200000000004,-427.06900000000002
4491.0,1981.9300000000001,1197.52,215.886,1777.5999999999999,-102.0,719.86500000000001,-396.93799999999999
4492.0,1906.98,1009.46,209.505,1633.6800000000001,-104.521,746.28200000000004,-366.99400000000003
4493.0,1846.02,842.39499999999998,209.47399999999999,1505.22,-107.65600000000001,768.11500000000001,-338.41800000000001
4494.0,1794.9100000000001,663.78700000000003,206.93600000000001,1368.3199999999999,-116.65000000000001,790.63499999999999,-304.75400000000002
4495.0,1755.3299999999999,497.61599999999999,177.56200000000001,1224.7,-108.182,803.78599999999994,-285.22199999999998
4496.0,1726.6400000000001,378.76299999999998,271.68000000000001,1171.74,-172.50999999999999,822.95299999999997,-212.19200000000001
4497.0,5212.7200000000003,2773.4400000000001,3019.1399999999999,-59.177700000000002,-172.654,-2295.6100000000001,911.66700000000003
4498.0,5086.1400000000003,3596.6199999999999,2817.6500000000001,581.55799999999999,-301.334,-2332.8699999999999,800.18100000000004
4499.0,5115.8500000000004,4499.1700000000001,2677.7600000000002,1346.75,-416.23099999999999,-2364.5500000000002,674.66999999999996
4500.0,5324.6000000000004,5332.1000000000004,2485.21,2049.5599999999999,-517.43499999999995,-2390.0900000000001,540.27700000000004
4501.0,5649.46,6137.3100000000004,2360.21,2758.3299999999999,-605.822,-2406.21,418.178
4502.0,6021.8699999999999,6829.8599999999997,2219.3899999999999,3389.5700000000002,-673.87900000000002,-2408.6100000000001,297.58600000000001
4503.0,6397.0699999999997,7424.4899999999998,2079.7399999999998,3956.8899999999999,-731.70600000000002,-2391.7399999999998,180.63
4504.0,6757.2700000000004,7922.6999999999998,1933.0799999999999,4447.2700000000004,-774.673,-2360.0,67.795599999999993
4505.0,7085.1800000000003,8349.0,1805.78,4887.6999999999998,-805.20600000000002,-2316.9099999999999,-37.523499999999999
4506.0,7370.8900000000003,8688.5300000000007,1676.3299999999999,5260.71,-822.98599999999999,-2262.5799999999999,-136.55000000000001
4507.0,7610.79,8960.8999999999996,1559.3699999999999,5584.7700000000004,-831.03899999999999,-2198.73,-228.447
4508.0,7802.4499999999998,9159.5100000000002,1443.1500000000001,5850.2200000000003,-829.24699999999996,-2126.2199999999998,-313.51499999999999
4509.0,7946.8599999999997,9303.3099999999995,1341.5599999999999,6075.1700000000001,-820.08799999999997,-2046.6800000000001,-391.38400000000001
4510.0,8044.3699999999999,9376.0,1233.71,6240.9899999999998,-803.84000000000003,-1960.53,-463.14499999999998
4511.0,8098.4200000000001,9412.7399999999998,1149.3,6381.8199999999997,-782.78899999999999,-1869.48,-527.95399999999995
4512.0,8110.1499999999996,9381.8199999999997,1052.4000000000001,6463.7200000000003,-756.12,-1773.79,-586.52099999999996
4513.0,8083.8800000000001,9316.4300000000003,971.09100000000001,6519.5500000000002,-726.67200000000003,-1674.8499999999999,-638.53300000000002
4514.0,8022.1199999999999,9203.7600000000002,887.91499999999996,6534.1800000000003,-693.803,-1573.03,-684.827
4515.0,7928.3299999999999,9063.1599999999999,818.15599999999995,6526.54,-659.31799999999998,-1469.46,-724.89200000000005
4516.0,7805.6800000000003,8884.6100000000006,747.22799999999995,6484.7399999999998,-623.01300000000003,-1364.5899999999999,-759.40899999999999
4517.0,7657.3000000000002,8680.6700000000001,683.88099999999997,6420.9099999999999,-585.95399999999995,-1259.1900000000001,-788.06299999999999
4518.0,7486.2600000000002,8450.0200000000004,622.83199999999999,6332.4899999999998,-548.15999999999997,-1153.71,-811.38800000000003
4519.0,7295.8500000000004,8202.4599999999991,570.12599999999998,6228.5600000000004,-510.678,-1048.8399999999999,-829.34199999999998
4520.0,7088.46,7937.21,522.00400000000002,6107.4899999999998,-473.42700000000002,-944.92499999999995,-842.58799999999997
4521.0,6867.1700000000001,7656.8000000000002,477.61900000000003,5970.9700000000003,-437.25400000000002,-842.54999999999995,-851.47900000000004
4522.0,6634.3800000000001,7361.3599999999997,434.05700000000002,5818.3599999999997,-401.90600000000001,-742.01599999999996,-856.18600000000004
4523.0,6392.4499999999998,7061.8599999999997,399.93099999999998,5660.6000000000004,-368.07600000000002,-643.85299999999995,-857.04399999999998
4524.0,6143.7200000000003,6743.5500000000002,357.54599999999999,5481.8000000000002,-335.74599999999998,-547.92899999999997,-854.57899999999995
4525.0,5890.2799999999997,6431.8699999999999,329.93000000000001,5307.25,-305.15300000000002,-454.90499999999997,-848.35900000000004
4526.0,5633.6499999999996,6113.5900000000001,302.12200000000001,5123.0900000000001,-276.11599999999999,-364.87599999999998,-839.01099999999997
4527.0,5376.3100000000004,5786.21,269.238,4926.96,-249.143,-278.08600000000001,-826.97199999999998
4528.0,5119.4799999999996,5468.8900000000003,248.93700000000001,4737.4499999999998,-224.13999999999999,-194.36199999999999,-812.447
4529.0,4865.29,5150.9499999999998,228.13,4543.0600000000004,-201.39599999999999,-114.22499999999999,-795.63400000000001
4530.0,4615.5299999999997,4840.9799999999996,213.68799999999999,4352.2399999999998,-180.34899999999999,-38.170999999999999,-777.18100000000004
4531.0,4370.2299999999996,4527.3199999999997,193.91399999999999,4154.5900000000001,-162.73400000000001,33.931800000000003,-755.83000000000004
4532.0,4126.5,4230.6899999999996,192.57499999999999,3970.6700000000001,-147.38800000000001,103.798,-731.77800000000002
4533.0,3890.5700000000002,3934.1100000000001,186.685,3780.9299999999998,-130.65100000000001,170.16499999999999,-708.46900000000005
4534.0,3664.4299999999998,3651.5799999999999,187.83699999999999,3602.1900000000001,-118.381,232.28700000000001,-681.971
4535.0,3449.02,3371.71,184.68299999999999,3420.8299999999999,-103.18000000000001,292.84100000000001,-655.85500000000002
4536.0,3251.5999999999999,3080.0100000000002,152.256,3218.23,-91.971800000000002,348.00799999999998,-629.45899999999995
4537.0,3060.29,2821.27,150.32900000000001,3045.4699999999998,-86.966099999999997,399.041,-600.53399999999999
4538.0,2878.6199999999999,2563.9099999999999,144.792,2868.8299999999999,-79.822199999999995,446.524,-573.41999999999996
4539.0,2711.29,2313.8800000000001,133.77000000000001,2693.8000000000002,-76.736999999999995,488.601,-545.19799999999998
4540.0,2549.6700000000001,2086.9299999999998,146.405,2540.2399999999998,-78.759900000000002,528.91300000000001,-513.87400000000002
4541.0,2395.6300000000001,1891.02,194.334,2417.0700000000002,-79.016499999999994,568.83100000000002,-483.58600000000001
4542.0,2264.5300000000002,1681.3099999999999,208.59899999999999,2270.7199999999998,-70.529799999999994,604.44500000000005,-459.27499999999998
4543.0,2154.1900000000001,1474.71,200.65199999999999,2120.4099999999999,-71.168300000000002,633.15800000000002,-432.00400000000002
4544.0,2054.75,1265.49,190.834,1966.51,-73.321299999999994,662.14400000000001,-404.52199999999999
4545.0,1970.47,1081.3900000000001,195.761,1834.3499999999999,-75.948400000000007,687.68299999999999,-377.98000000000002
4546.0,1898.55,896.92200000000003,196.48099999999999,1700.3399999999999,-79.009100000000004,711.37,-350.60399999999998
4547.0,1840.1900000000001,726.13300000000004,195.47900000000001,1573.3900000000001,-81.994799999999998,730.78599999999994,-324.01100000000002
4548.0,1791.0699999999999,563.50300000000004,211.37299999999999,1457.3,-91.601100000000002,750.03300000000002,-292.97500000000002
4549.0,1751.7,390.28100000000001,177.173,1309.1099999999999,-84.386099999999999,760.58299999999997,-274.55799999999999
4550.0,1723.75,261.99799999999999,265.84399999999999,1246.95,-148.48500000000001,775.83799999999997,-210.595
4551.0,1721.1800000000001,140.42400000000001,251.172,1309.78,-121.012,718.20799999999997,-200.75
4552.0,1732.6099999999999,4.6483800000000004,205.04900000000001,1346.7,-96.878399999999999,656.03599999999994,-191.744
4553.0,1736.5899999999999,-137.06299999999999,143.34700000000001,1351.95,-81.855400000000003,581.09400000000005,-186.529
4554.0,1733.75,-220.047,132.642,1398.1400000000001,-64.905199999999994,493.34100000000001,-174.05600000000001
4555.0,1736.9100000000001,-275.02600000000001,135.30199999999999,1455.29,-49.805700000000002,399.96300000000002,-160.352
4556.0,1741.5699999999999,-308.202,145.334,1511.3499999999999,-36.750100000000003,302.53399999999999,-145.16300000000001
4557.0,1746.9300000000001,-353.23200000000003,129.37700000000001,1533.02,-22.9636,199.708,-129.101
4558.0,1752.9100000000001,-358.02300000000002,138.54300000000001,1570.5699999999999,-12.0755,94.079599999999999,-111.541
4559.0,1758.5999999999999,-376.67200000000003,118.691,1568.78,-0.88388,-13.692600000000001,-92.454999999999998
4560.0,1764.5799999999999,-365.37099999999998,113.908,1571.6500000000001,7.3964299999999996,-121.833,-72.322199999999995
4561.0,1769.78,-336.26799999999997,112.37,1565.8299999999999,9.6910799999999995,-229.48699999999999,-51.515999999999998
4562.0,1776.77,-293.04700000000003,114.896,1552.1700000000001,8.2503499999999992,-334.40199999999999,-30.3352
4563.0,1784.6700000000001,-245.90899999999999,113.518,1521.3499999999999,1.13828,-434.959,-9.3678600000000003
4564.0,1747.49,279.62299999999999,173.76900000000001,1380.5899999999999,-59.770499999999998,707.58299999999997,-258.916
4565.0,1751.7,133.75800000000001,120.063,1405.8199999999999,-35.347200000000001,647.029,-240.167
4566.0,1759.25,8.7676700000000007,67.868200000000002,1431.45,-15.5105,575.25699999999995,-229.52600000000001
4567.0,1755.3099999999999,-72.054500000000004,52.2714,1475.8599999999999,3.6271100000000001,491.24900000000002,-214.50800000000001
4568.0,1756.1500000000001,-135.00899999999999,44.285800000000002,1523.77,22.7638,401.57600000000002,-193.58699999999999
4569.0,1762.04,-196.126,23.5776,1553.9100000000001,39.356099999999998,307.49200000000002,-173.285
4570.0,1766.99,-212.101,31.768799999999999,1604.48,53.4602,207.58000000000001,-150.50999999999999
4571.0,1773.6400000000001,-237.77199999999999,14.491,1621.5799999999999,65.389099999999999,104.92400000000001,-126.715
4572.0,1780.1099999999999,-218.554,25.871099999999998,1657.73,74.065100000000001,-0.22837099999999999,-101.24299999999999
4573.0,1786.8099999999999,-197.405,24.7788,1670.52,79.882999999999996,-105.258,-74.8553
4574.0,1793.73,-166.90799999999999,20.369299999999999,1667.75,83.173000000000002,-210.255,-47.057099999999998
4575.0,1799.1199999999999,-128.011,19.0824,1650.71,82.398799999999994,-311.71300000000002,-19.214099999999998
4576.0,1801.8699999999999,-86.359200000000001,20.6083,1614.3099999999999,75.451099999999997,-411.34100000000001,9.2141500000000001
4577.0,1785.6199999999999,436.92399999999998,186.01599999999999,1507.49,-66.174300000000002,699.04100000000005,-277.88299999999998
4578.0,1786.25,337.339,170.91200000000001,1575.21,-41.042200000000001,637.72699999999998,-257.88299999999998
4579.0,1795.3299999999999,168.053,71.488200000000006,1558.0899999999999,-21.7727,566.976,-246.054
4580.0,1791.3299999999999,106.48999999999999,73.074399999999997,1619.4100000000001,-2.0827300000000002,485.976,-230.74799999999999
4581.0,1791.6700000000001,44.980899999999998,58.941299999999998,1664.8499999999999,17.620000000000001,398.86799999999999,-208.41900000000001
4582.0,1797.75,36.624200000000002,83.964799999999997,1745.6700000000001,33.604900000000001,305.99299999999999,-187.494
4583.0,1803.26,-18.957999999999998,48.042200000000001,1755.4400000000001,48.125599999999999,208.64400000000001,-163.40700000000001
4584.0,1810.78,2.8178899999999998,74.414599999999993,1819.6500000000001,59.342799999999997,107.96899999999999,-138.398
4585.0,1818.99,-29.164400000000001,32.850999999999999,1805.8199999999999,68.637299999999996,5.2646199999999999,-111.496
4586.0,1826.9400000000001,8.6431000000000004,47.540799999999997,1836.5,74.589100000000002,-97.673699999999997,-83.558599999999998
4587.0,1835.98,15.5055,20.159400000000002,1813.3099999999999,76.950599999999994,-200.46000000000001,-53.9636
4588.0,1839.78,73.058199999999999,43.227600000000002,1817.5,75.796300000000002,-299.82600000000002,-24.949200000000001
4589.0,1841.5699999999999,62.051299999999998,4.94238,1735.0799999999999,69.227400000000003,-399.59899999999999,6.3634199999999996
4590.0,1832.74,632.63999999999999,201.85300000000001,1653.75,-58.177700000000002,683.52200000000005,-304.98599999999999
4591.0,1833.48,485.31599999999997,135.625,1673.4400000000001,-33.707799999999999,624.00199999999995,-283.25
4592.0,1841.73,373.56599999999997,83.818100000000001,1707.55,-11.0258,554.21699999999998,-270.892
4593.0,1838.49,295.41699999999997,60.000999999999998,1747.04,9.8150200000000005,477.06099999999998,-253.40700000000001
4594.0,1839.8900000000001,255.97399999999999,64.322400000000002,1813.45,28.848800000000001,393.61799999999999,-228.71600000000001
4595.0,1846.5699999999999,193.49299999999999,30.369,1838.3199999999999,45.837800000000001,303.67200000000003,-205.34200000000001
4596.0,1853.49,198.45500000000001,49.197200000000002,1907.0599999999999,59.957500000000003,209.751,-178.88900000000001
4597.0,1862.8399999999999,169.56800000000001,19.5364,1919.6800000000001,71.963099999999997,112.28700000000001,-151.44399999999999
4598.0,1873.1400000000001,207.20400000000001,41.175199999999997,1974.4400000000001,80.487899999999996,13.2432,-121.93000000000001
4599.0,1883.4300000000001,223.416,28.728999999999999,1983.26,86.134500000000003,-86.295599999999993,-91.5321
4600.0,1894.77,268.10599999999999,35.049199999999999,1998.8699999999999,89.016300000000001,-185.09399999999999,-58.886600000000001
4601.0,1898.3499999999999,293.87799999999999,25.398299999999999,1972.45,88.025300000000001,-281.62299999999999,-27.036100000000001
4602.0,1898.99,329.471,37.849400000000003,1941.9100000000001,80.784300000000002,-379.11200000000002,7.6907199999999998
4603.0,1890.6900000000001,789.41999999999996,175.49299999999999,1760.8499999999999,-56.927399999999999,664.95000000000005,-327.38200000000001
4604.0,1894.8699999999999,659.06799999999998,115.226,1793.47,-34.572699999999998,606.70799999999997,-307.18299999999999
4605.0,1898.9400000000001,544.85900000000004,66.337599999999995,1821.6600000000001,-8.0075299999999991,540.43100000000004,-294.06799999999998
4606.0,1897.6800000000001,479.81,54.008000000000003,1874.26,16.099299999999999,468.26600000000002,-272.64299999999997
4607.0,1901.3099999999999,443.68900000000002,53.677599999999998,1940.77,34.174100000000003,387.495,-247.529
4608.0,1908.6600000000001,424.03899999999999,56.5137,2005.3699999999999,50.984000000000002,300.48000000000002,-221.70699999999999
4609.0,1918.1900000000001,400.31,41.0749,2044.1700000000001,65.286199999999994,209.989,-193.66300000000001
4610.0,1929.51,408.83800000000002,43.135899999999999,2092.54,76.783199999999994,115.80500000000001,-164.06899999999999
4611.0,1942.8,411.67500000000001,25.386500000000002,2112.3600000000001,85.678100000000001,20.359999999999999,-132.529
4612.0,1955.98,434.54700000000003,15.4023,2128.1100000000001,91.567599999999999,-75.696600000000004,-99.747699999999995
4613.0,1969.6500000000001,472.94999999999999,12.050000000000001,2138.3299999999999,92.478800000000007,-170.971,-64.998500000000007
4614.0,1974.3099999999999,507.25299999999999,9.7776499999999995,2122.6700000000001,90.459000000000003,-264.41399999999999,-31.104299999999999
4615.0,1973.9100000000001,513.41099999999994,-4.6841299999999997,2067.7800000000002,82.073899999999995,-358.786,6.5174099999999999
4616.0,1964.25,980.03899999999999,174.041,1897.24,-49.003599999999999,644.20299999999997,-353.99900000000002
4617.0,1971.99,819.94200000000001,76.412999999999997,1894.3900000000001,-23.846699999999998,589.57500000000005,-335.69799999999998
4618.0,1971.45,757.56299999999999,76.3596,1968.05,-2.26146,525.59299999999996,-318.29399999999998
4619.0,1971.74,692.404,59.468899999999998,2020.3900000000001,19.404699999999998,456.50099999999998,-292.55099999999999
4620.0,1978.3699999999999,663.24900000000002,59.798999999999999,2090.75,38.683100000000003,379.63999999999999,-266.92000000000002
4621.0,1987.3,616.32899999999995,29.2181,2124.75,55.980899999999998,296.29399999999998,-238.70699999999999
4622.0,1999.99,629.51700000000005,44.209000000000003,2198.5599999999999,69.891400000000004,209.31200000000001,-208.971
4623.0,2014.1800000000001,612.61699999999996,15.2475,2219.8400000000001,81.6464,119.18600000000001,-177.18799999999999
4624.0,2031.1099999999999,657.303,33.2485,2280.52,89.442499999999995,27.5519,-143.63200000000001
4625.0,2047.99,681.65999999999997,19.276499999999999,2297.4200000000001,94.3643,-64.205100000000002,-108.786
4626.0,2065.2199999999998,732.73099999999999,24.764299999999999,2321.3499999999999,96.333500000000001,-155.309,-71.418000000000006
4627.0,2072.1300000000001,761.00800000000004,14.1708,2302.0,94.559200000000004,-244.90799999999999,-35.013500000000001
4628.0,2071.6799999999998,795.33799999999997,27.468,2279.3899999999999,86.340299999999999,-335.56099999999998,5.3797800000000002
4629.0,2050.73,1153.7,153.75399999999999,2017.02,-48.433599999999998,621.697,-378.79199999999997
4630.0,2057.6500000000001,1022.14,83.574100000000001,2037.51,-22.570399999999999,570.98500000000001,-360.29399999999998
4631.0,2057.21,951.64800000000002,67.027799999999999,2095.3099999999999,1.6048899999999999,510.55200000000002,-340.54399999999998
4632.0,2060.5999999999999,893.05100000000004,47.266100000000002,2150.0799999999999,23.521000000000001,443.863,-313.44600000000003
4633.0,2069.9400000000001,875.17399999999998,52.6325,2228.79,42.258299999999998,370.47000000000003,-285.947
4634.0,2081.8699999999999,855.16099999999994,41.7209,2285.98,59.020000000000003,291.18299999999999,-255.96899999999999
4635.0,2097.8600000000001,855.68499999999995,37.6111,2344.6300000000001,73.080399999999997,208.00999999999999,-224.29300000000001
4636.0,2116.0700000000002,862.74900000000002,25.724699999999999,2387.73,84.235799999999998,122.21599999999999,-190.65600000000001
4637.0,2137.1700000000001,891.18899999999996,21.676400000000001,2431.0799999999999,92.3459,34.902500000000003,-154.90899999999999
4638.0,2158.54,912.673,-0.51557399999999998,2444.9299999999998,97.355900000000005,-52.345300000000002,-117.884
4639.0,2179.9699999999998,972.94600000000003,8.5023499999999999,2478.1700000000001,97.154899999999998,-139.0,-78.474599999999995
4640.0,2189.9400000000001,1000.17,-6.2999099999999997,2460.0700000000002,94.1357,-224.22499999999999,-39.953200000000002
4641.0,2189.8200000000002,1018.26,-9.6202799999999993,2425.77,84.765000000000001,-310.56700000000001,2.9944600000000001
4642.0,2154.04,1349.3299999999999,141.03899999999999,2150.6399999999999,-44.164200000000001,596.678,-406.47300000000001
4643.0,2159.6799999999998,1226.95,75.484899999999996,2173.3499999999999,-20.629999999999999,549.01499999999999,-386.17000000000002
4644.0,2159.0599999999999,1173.5,71.492199999999997,2243.8699999999999,2.8210099999999998,492.05399999999997,-363.089
4645.0,2165.73,1130.47,59.266800000000003,2309.2800000000002,25.109400000000001,429.33800000000002,-334.512
4646.0,2178.4099999999999,1107.6400000000001,52.203099999999999,2378.8299999999999,44.124400000000001,359.733,-305.42099999999999
4647.0,2194.2199999999998,1085.1199999999999,31.493300000000001,2429.8899999999999,61.064700000000002,284.76799999999997,-273.67700000000002
4648.0,2214.3400000000001,1100.0799999999999,34.146900000000002,2499.5,74.697900000000004,205.976,-240.136
4649.0,2237.0100000000002,1107.1800000000001,15.902799999999999,2540.6500000000001,85.616100000000003,124.76600000000001,-204.52600000000001
4650.0,2263.0700000000002,1150.24,19.579799999999999,2596.8800000000001,92.749799999999993,42.315899999999999,-166.845
4651.0,2289.52,1195.6700000000001,15.331300000000001,2634.0999999999999,96.598600000000005,-39.947899999999997,-127.79900000000001
4652.0,2315.6799999999998,1243.5999999999999,8.1002899999999993,2656.3000000000002,97.213700000000003,-121.506,-85.945899999999995
4653.0,2329.4099999999999,1289.29,8.4994899999999998,2659.1100000000001,94.151399999999995,-201.816,-45.035800000000002
4654.0,2330.9299999999998,1313.47,9.2468800000000009,2634.9699999999998,84.954700000000003,-283.27199999999999,0.53948700000000005
4655.0,2264.4299999999998,1554.48,145.32900000000001,2296.0799999999999,-41.659199999999998,571.47000000000003,-432.815
4656.0,2273.79,1449.3099999999999,82.266000000000005,2324.8200000000002,-18.140699999999999,525.73400000000004,-411.41300000000001
4657.0,2276.5599999999999,1389.75,60.075000000000003,2380.3600000000001,4.2500400000000003,471.90899999999999,-386.45999999999998
4658.0,2286.3400000000001,1361.27,55.430399999999999,2456.1599999999999,26.070699999999999,413.03399999999999,-355.78500000000003
4659.0,2303.0999999999999,1340.8800000000001,42.4679,2523.1900000000001,44.830300000000001,347.47800000000001,-325.13299999999998
4660.0,2323.1999999999998,1348.04,43.489400000000003,2599.54,61.011699999999998,277.06099999999998,-291.589
4661.0,2348.1900000000001,1349.47,25.002099999999999,2652.1399999999999,74.551000000000002,203.113,-256.28500000000003
4662.0,2376.1100000000001,1383.0699999999999,25.4193,2716.6999999999998,84.741100000000003,126.965,-218.768
4663.0,2407.8499999999999,1412.0799999999999,8.3005800000000001,2757.3200000000002,91.8065,49.874600000000001,-179.15799999999999
4664.0,2439.9200000000001,1460.75,0.92129899999999998,2796.8600000000001,95.224000000000004,-26.919899999999998,-137.93000000000001
4665.0,2472.3099999999999,1516.6300000000001,-5.1355599999999999,2827.1100000000001,94.105000000000004,-102.857,-94.276200000000003
4666.0,2490.2800000000002,1566.3599999999999,-4.60337,2836.1399999999999,89.576499999999996,-177.53999999999999,-51.075499999999998
4667.0,2493.9200000000001,1571.6800000000001,-24.066299999999998,2798.1100000000001,79.373000000000005,-253.697,-3.57578
4668.0,2394.5799999999999,1770.75,134.73099999999999,2443.3099999999999,-51.6111,537.98199999999997,-457.72300000000001
4669.0,2402.8800000000001,1676.3900000000001,79.685000000000002,2473.8000000000002,-21.183900000000001,497.79000000000002,-436.10300000000001
4670.0,2409.4000000000001,1636.75,69.298699999999997,2542.0700000000002,3.8833099999999998,449.77699999999999,-409.35599999999999
4671.0,2423.27,1612.8099999999999,60.115200000000002,2616.3400000000001,24.7988,394.46899999999999,-377.47800000000001
4672.0,2444.6100000000001,1602.45,48.437899999999999,2687.79,43.5931,333.548,-345.01999999999998
4673.0,2469.8699999999999,1601.8,33.079099999999997,2751.4000000000001,59.627499999999998,268.06999999999999,-309.91800000000001
4674.0,2500.4499999999998,1625.8599999999999,28.586500000000001,2822.3699999999999,72.511099999999999,199.28999999999999,-272.79399999999998
4675.0,2533.98,1653.6600000000001,15.673299999999999,2878.0500000000002,82.133099999999999,128.68899999999999,-233.43700000000001
4676.0,2572.0599999999999,1703.54,11.670199999999999,2937.2399999999998,88.173500000000004,57.371899999999997,-192.01400000000001
4677.0,2610.23,1765.4200000000001,11.0783,2989.0900000000001,90.415400000000005,-13.3621,-148.797
4678.0,2648.4299999999998,1819.0799999999999,-1.87432,3018.2800000000002,89.269800000000004,-83.192599999999999,-103.07599999999999
4679.0,2671.3800000000001,1877.2,2.98055,3038.04,84.536600000000007,-151.65000000000001,-57.485399999999998
4680.0,2678.52,1898.77,-3.1089000000000002,3020.7800000000002,74.549700000000001,-221.852,-7.7255500000000001
4681.0,2546.3800000000001,1982.6800000000001,101.07599999999999,2573.0100000000002,-50.7072,502.31400000000002,-489.79500000000002
4682.0,2547.4000000000001,1918.1400000000001,79.969999999999999,2628.8400000000001,-21.7273,467.75099999999998,-462.274
4683.0,2557.3600000000001,1884.4300000000001,69.006699999999995,2698.9000000000001,1.57151,425.00799999999998,-432.221
4684.0,2575.8600000000001,1863.98,53.524999999999999,2769.0300000000002,22.578600000000002,373.92099999999999,-399.43400000000003
4685.0,2602.23,1868.96,47.997199999999999,2849.75,40.727600000000002,317.798,-365.06700000000001
4686.0,2633.1900000000001,1881.5599999999999,36.749000000000002,2921.0599999999999,56.024000000000001,257.60199999999998,-328.45100000000002
4687.0,2669.7800000000002,1910.71,28.543800000000001,2992.4400000000001,68.262600000000006,194.49799999999999,-289.56700000000001
4688.0,2709.8099999999999,1948.54,17.038699999999999,3054.3299999999999,77.226200000000006,129.94200000000001,-248.47900000000001
4689.0,2754.5799999999999,2003.95,10.8028,3116.5900000000001,82.450000000000003,64.955699999999993,-205.255
4690.0,2799.73,2057.3000000000002,-5.6465300000000003,3158.5599999999999,84.217299999999994,0.85853500000000005,-160.059
4691.0,2845.0500000000002,2133.0799999999999,-3.4402599999999999,3209.8699999999999,81.410399999999996,-62.154000000000003,-112.589
4692.0,2873.5999999999999,2183.6199999999999,-10.6136,3224.4899999999998,75.175200000000004,-123.801,-64.935000000000002
4693.0,2884.21,2201.46,-22.581900000000001,3208.5900000000001,63.792499999999997,-187.38999999999999,-13.3757
4694.0,2705.1199999999999,2221.7600000000002,97.192099999999996,2727.9899999999998,-51.494,467.02100000000002,-519.56100000000004
4695.0,2705.0900000000001,2172.3499999999999,84.583799999999997,2791.3099999999999,-25.030200000000001,435.85000000000002,-487.04000000000002
4696.0,2720.3800000000001,2147.7399999999998,73.161000000000001,2864.3699999999999,-2.3168899999999999,397.32400000000001,-455.59100000000001
4697.0,2743.6599999999999,2141.48,62.153500000000001,2940.8099999999999,18.1783,351.12900000000002,-421.19299999999998
4698.0,2775.8400000000001,2149.79,49.9011,3017.73,35.747500000000002,300.23700000000002,-385.38999999999999
4699.0,2813.04,2169.52,36.033200000000001,3090.0599999999999,50.539999999999999,245.637,-347.08499999999998
4700.0,2856.2800000000002,2208.27,27.9377,3165.6700000000001,61.918599999999998,188.67500000000001,-306.67700000000002
4701.0,2903.1599999999999,2256.3099999999999,17.7803,3233.5900000000001,69.839200000000005,130.56200000000001,-263.82400000000001
4702.0,2955.0799999999999,2317.54,9.1860099999999996,3298.8099999999999,74.058899999999994,72.4666,-218.95099999999999
4703.0,3007.29,2395.6700000000001,10.392899999999999,3364.1900000000001,74.233400000000003,15.5002,-172.023
4704.0,3059.3000000000002,2459.0999999999999,-5.3641699999999997,3403.8200000000002,70.813800000000001,-40.127400000000002,-122.67400000000001
4705.0,3094.1599999999999,2528.5500000000002,1.6116600000000001,3439.8699999999999,64.206900000000005,-94.336100000000002,-72.982699999999994
4706.0,3109.25,2550.8400000000001,-9.0101399999999998,3433.1599999999999,52.998399999999997,-150.55000000000001,-19.1556
4707.0,2873.79,2465.5700000000002,92.853899999999996,2885.02,-55.945999999999998,428.85700000000003,-546.66800000000001
4708.0,2877.1399999999999,2443.3699999999999,96.073999999999998,2965.1500000000001,-30.0321,401.27199999999999,-511.65899999999999
4709.0,2897.52,2411.1199999999999,67.061400000000006,3022.8499999999999,-7.8379500000000002,367.05500000000001,-479.05000000000001
4710.0,2926.1900000000001,2428.1100000000001,68.942099999999996,3114.2199999999998,11.926,325.97699999999998,-442.83199999999999
4711.0,2964.54,2433.23,43.240099999999998,3180.27,28.9099,280.68099999999998,-405.82400000000001
4712.0,3008.4299999999998,2483.02,49.027700000000003,3275.77,42.512099999999997,232.06299999999999,-365.755
4713.0,3058.71,2512.6199999999999,21.994199999999999,3336.3299999999999,53.116799999999998,181.72300000000001,-324.00200000000001
4714.0,3112.96,2586.7199999999998,28.504300000000001,3425.6399999999999,59.854599999999998,130.577,-279.399
4715.0,3172.5300000000002,2640.0799999999999,3.3146499999999999,3479.5799999999999,63.093299999999999,79.978700000000003,-233.06999999999999
4716.0,3232.5599999999999,2729.2399999999998,7.61653,3554.21,62.297800000000002,30.776599999999998,-184.30199999999999
4717.0,3292.1999999999998,2796.1100000000001,-11.5526,3597.3099999999999,57.535499999999999,-16.7941,-133.40600000000001
4718.0,3333.6500000000001,2878.1500000000001,3.0925600000000002,3648.4699999999998,48.948700000000002,-62.868299999999998,-81.968000000000004
4719.0,3353.6100000000001,2881.3499999999999,-29.522500000000001,3627.8699999999999,36.279699999999998,-111.175,-26.7058
4720.0,3056.6599999999999,2732.5300000000002,99.715199999999996,3059.0999999999999,-62.7515,386.37299999999999,-573.10199999999998
4721.0,3062.5900000000001,2717.6599999999999,101.621,3136.75,-36.802100000000003,363.89699999999999,-536.17899999999997
4722.0,3088.0,2696.8000000000002,73.468800000000002,3196.8800000000001,-15.365399999999999,333.97199999999998,-502.19600000000003
4723.0,3122.6100000000001,2725.6199999999999,76.236500000000007,3290.8200000000002,3.7110799999999999,298.51100000000002,-464.46899999999999
4724.0,3167.6999999999998,2739.5300000000002,48.290199999999999,3357.3299999999999,19.648700000000002,259.05700000000002,-426.11900000000003
4725.0,3218.6100000000001,2796.9400000000001,50.913800000000002,3452.7600000000002,32.293100000000003,216.90100000000001,-384.512
4726.0,3276.5,2837.9099999999999,24.810700000000001,3518.25,41.722700000000003,173.542,-341.387
4727.0,3338.4099999999999,2922.73,32.290399999999998,3612.98,47.064100000000003,129.90799999999999,-295.25299999999999
4728.0,3405.7600000000002,2983.02,5.3423699999999998,3670.3000000000002,49.018500000000003,87.257900000000006,-247.48500000000001
4729.0,3473.5300000000002,3093.4200000000001,23.1905,3764.2199999999998,46.239899999999999,46.3994,-197.261
4730.0,3540.8699999999999,3153.9099999999999,-8.9002599999999994,3801.21,40.445,7.5188300000000003,-144.881
4731.0,3589.1700000000001,3249.3299999999999,14.1579,3868.1700000000001,31.2804,-29.742699999999999,-91.563800000000001
4732.0,3614.7600000000002,3259.7399999999998,-14.379,3860.4200000000001,18.6999,-69.500100000000003,-34.730499999999999
4733.0,3251.5500000000002,3015.6300000000001,113.95699999999999,3243.54,-69.3215,341.19499999999999,-598.86500000000001
4734.0,3261.0900000000001,2993.7800000000002,99.638499999999993,3304.4699999999998,-45.858699999999999,323.21499999999997,-560.73199999999997
4735.0,3291.0999999999999,2998.71,86.496799999999993,3379.9499999999998,-24.813700000000001,298.08800000000002,-524.82799999999997
4736.0,3332.4499999999998,3020.96,71.102999999999994,3457.54,-6.8966900000000004,268.60500000000002,-485.97899999999998
4737.0,3384.1399999999999,3064.4499999999998,61.660400000000003,3544.6199999999999,8.0089600000000001,235.17699999999999,-446.12700000000001
4738.0,3442.79,3117.2800000000002,48.187800000000003,3627.04,19.465399999999999,200.072,-403.27600000000001
4739.0,3508.2800000000002,3187.1100000000001,40.392099999999999,3714.3800000000001,27.386700000000001,164.03100000000001,-358.73099999999999
4740.0,3578.3099999999999,3261.0100000000002,26.822199999999999,3792.4200000000001,31.581099999999999,128.53100000000001,-311.28899999999999
4741.0,3653.9499999999998,3352.9099999999999,22.036200000000001,3877.0599999999999,31.801600000000001,94.412700000000001,-262.18299999999999
4742.0,3730.0,3438.8800000000001,7.3109900000000003,3944.3800000000001,28.305099999999999,62.578699999999998,-210.471
4743.0,3805.04,3538.3000000000002,7.5504300000000004,4020.2199999999998,20.457599999999999,33.002499999999998,-156.821
4744.0,3860.9499999999998,3612.1100000000001,3.5412499999999998,4068.1300000000001,9.3939199999999996,5.1868699999999999,-102.2
4745.0,3892.6900000000001,3642.79,-8.3332899999999999,4085.98,-4.8582599999999996,-25.1739,-44.060699999999997
4746.0,3455.0100000000002,3298.25,123.081,3424.8099999999999,-78.311800000000005,292.892,-622.30999999999995
4747.0,3472.25,3291.9099999999999,110.217,3487.8600000000001,-57.059100000000001,279.274,-585.30899999999997
4748.0,3505.5700000000002,3299.9200000000001,90.275999999999996,3555.1399999999999,-36.271999999999998,259.38200000000001,-546.83900000000006
4749.0,3554.6900000000001,3345.0799999999999,85.498800000000003,3645.77,-19.587700000000002,236.21299999999999,-507.23000000000002
4750.0,3612.9299999999998,3386.3699999999999,62.182000000000002,3720.0500000000002,-6.0541400000000003,209.15600000000001,-465.875
4751.0,3679.9099999999999,3464.6799999999998,62.328600000000002,3819.5100000000002,3.8900100000000002,181.41800000000001,-421.81599999999997
4752.0,3753.1300000000001,3528.3899999999999,37.331000000000003,3892.4499999999998,10.3772,153.227,-376.04700000000003
4753.0,3831.7399999999998,3633.5,44.5227,3995.8000000000002,12.741,126.31100000000001,-327.39400000000001
4754.0,3914.9899999999998,3712.3400000000001,17.981300000000001,4062.7800000000002,11.3088,101.19799999999999,-277.05700000000002
4755.0,3999.8600000000001,3838.8899999999999,35.2744,4168.3100000000004,5.3790500000000003,79.000200000000007,-224.399
4756.0,4082.6799999999998,3914.52,4.9772400000000001,4219.8800000000001,-3.6729500000000002,59.411200000000001,-169.429
4757.0,4146.3599999999997,4019.0599999999999,26.539200000000001,4301.5,-15.5113,41.715800000000002,-113.55200000000001
4758.0,4184.0,4036.9099999999999,-1.13639,4312.1400000000003,-30.2822,21.481200000000001,-53.996899999999997
4759.0,3669.3800000000001,3596.21,139.49700000000001,3616.4000000000001,-90.791399999999996,239.61799999999999,-645.05499999999995
4760.0,3693.5500000000002,3590.75,114.518,3666.3299999999999,-69.370199999999997,232.41399999999999,-609.149
4761.0,3731.46,3618.48,102.616,3740.3800000000001,-50.244500000000002,217.89500000000001,-568.33600000000001
4762.0,3788.0300000000002,3667.1199999999999,89.225200000000001,3824.2600000000002,-35.061599999999999,200.97499999999999,-527.91200000000003
4763.0,3853.3299999999999,3729.6399999999999,74.915300000000002,3908.3699999999999,-22.797799999999999,180.959,-485.17099999999999
4764.0,3928.6100000000001,3811.4400000000001,66.525800000000004,4002.0900000000001,-14.4825,160.828,-440.11200000000002
4765.0,4009.6999999999998,3897.8600000000001,53.113900000000001,4089.1399999999999,-9.8167200000000001,141.054,-393.12200000000001
4766.0,4097.0,3999.8600000000001,46.457000000000001,4182.6899999999996,-9.1880600000000001,123.14400000000001,-343.512
4767.0,4188.8800000000001,4103.7299999999996,35.077100000000002,4269.3999999999996,-12.3253,107.839,-292.06799999999998
4768.0,4281.8699999999999,4214.8699999999999,29.181000000000001,4357.04,-19.639299999999999,95.7333,-238.37799999999999
4769.0,4372.5900000000001,4320.4300000000003,22.298999999999999,4438.25,-30.904800000000002,86.790700000000001,-182.483
4770.0,4444.3299999999999,4413.2600000000002,26.6341,4510.6800000000003,-45.0227,79.909700000000001,-125.818
4771.0,4489.0900000000001,4445.8100000000004,9.6998599999999993,4541.5299999999997,-61.212899999999998,70.410600000000002,-65.617800000000003
4772.0,3895.4699999999998,3901.54,153.99000000000001,3807.3800000000001,-105.706,182.01300000000001,-668.73800000000006
4773.0,3923.46,3901.23,124.273,3851.0300000000002,-84.286199999999994,181.87299999999999,-631.04600000000005
4774.0,3967.8000000000002,3944.8800000000001,115.33499999999999,3926.8800000000001,-66.555800000000005,173.78800000000001,-589.56700000000001
4775.0,4031.0900000000001,4002.1799999999998,98.405600000000007,4007.8099999999999,-52.444200000000002,162.97900000000001,-547.80700000000002
4776.0,4104.25,4080.3000000000002,86.992199999999997,4095.9400000000001,-42.312800000000003,150.59200000000001,-504.06200000000001
4777.0,4187.5699999999997,4172.4899999999998,76.761600000000001,4189.6499999999996,-35.826300000000003,138.23400000000001,-457.88900000000001
4778.0,4277.29,4270.1899999999996,62.764800000000001,4278.8500000000004,-33.005200000000002,127.47199999999999,-409.99700000000001
4779.0,4372.7399999999998,4386.3299999999999,59.963099999999997,4379.3299999999999,-34.5655,118.998,-359.43000000000001
4780.0,4472.7799999999997,4496.54,45.8461,4467.1899999999996,-40.137700000000002,113.89,-307.22500000000002
4781.0,4574.6300000000001,4628.04,51.5944,4571.8599999999997,-49.743699999999997,112.63500000000001,-252.90700000000001
4782.0,4673.3800000000001,4730.4899999999998,35.0122,4649.4499999999998,-62.597900000000003,114.995,-196.19800000000001
4783.0,4752.8199999999997,4833.04,44.189599999999999,4734.4300000000003,-77.745099999999994,119.556,-138.72300000000001
4784.0,4804.2399999999998,4870.8000000000002,29.492000000000001,4776.6400000000003,-94.7607,121.616,-77.683999999999997
4785.0,4131.8699999999999,4200.3900000000003,154.12899999999999,3984.4499999999998,-122.193,121.45399999999999,-692.399
4786.0,4162.3500000000004,4230.0299999999997,145.238,4046.9299999999998,-101.256,127.67100000000001,-651.755
4787.0,4213.3599999999997,4268.2600000000002,118.575,4104.0900000000001,-85.203900000000004,126.65900000000001,-610.15999999999997
4788.0,4283.1400000000003,4356.3400000000001,119.651,4202.4499999999998,-73.186300000000003,122.3,-566.61800000000005
4789.0,4364.4499999999998,4430.7299999999996,91.745000000000005,4275.0699999999997,-64.596500000000006,117.70999999999999,-522.399
4790.0,4455.6899999999996,4550.54,96.765000000000001,4385.0799999999999,-60.180900000000001,113.77500000000001,-475.00900000000001
4791.0,4553.5900000000001,4648.4799999999996,71.782899999999998,4465.2200000000003,-59.738399999999999,112.235,-426.48700000000002
4792.0,4657.8500000000004,4785.5799999999999,78.704599999999999,4578.4300000000003,-63.300800000000002,113.86499999999999,-375.11200000000002
4793.0,4766.3500000000004,4895.79,55.0916,4660.4799999999996,-70.562399999999997,119.60299999999999,-322.255
4794.0,4876.0200000000004,5038.6000000000004,64.763499999999993,4773.3999999999996,-82.483500000000006,129.64500000000001,-267.34399999999999
4795.0,4982.5900000000001,5144.7299999999996,45.678899999999999,4854.0900000000001,-97.718199999999996,143.898,-210.27000000000001
4796.0,5070.2600000000002,5262.2600000000002,64.599500000000006,4956.6300000000001,-115.313,160.61500000000001,-152.511
4797.0,5129.29,5290.8599999999997,36.845300000000002,4995.2799999999997,-133.77600000000001,174.869,-91.450900000000004
4798.0,4375.0100000000002,4518.8400000000001,170.06399999999999,4176.2600000000002,-139.91399999999999,58.168500000000002,-714.70600000000002
4799.0,4408.8000000000002,4554.46,156.64400000000001,4231.9300000000003,-120.506,70.530500000000004,-671.48800000000006
4800.0,4466.3400000000001,4612.25,137.31399999999999,4295.5299999999997,-106.38800000000001,76.234800000000007,-629.48599999999999
4801.0,4542.96,4704.5299999999997,129.46700000000001,4383.7399999999998,-95.844499999999996,79.159300000000002,-584.72500000000002
4802.0,4632.2399999999998,4800.8000000000002,110.53,4465.6899999999996,-89.777600000000007,82.381100000000004,-539.75300000000004
4803.0,4731.5600000000004,4927.7200000000003,110.17700000000001,4570.8699999999999,-87.831000000000003,87.2911,-491.50999999999999
4804.0,4838.0900000000001,5040.6199999999999,88.093400000000003,4655.5699999999997,-89.230400000000003,95.462599999999995,-442.38200000000001
4805.0,4950.1199999999999,5188.29,95.765900000000002,4771.2799999999997,-95.875600000000006,107.56100000000001,-390.42700000000002
4806.0,5066.7700000000004,5311.0900000000001,75.634500000000003,4859.7299999999996,-105.97199999999999,124.557,-337.30700000000002
4807.0,5184.8599999999997,5466.21,89.506200000000007,4981.1499999999996,-120.16800000000001,146.63300000000001,-282.113
4808.0,5299.1400000000003,5576.0799999999999,68.166700000000006,5064.8299999999999,-137.12299999999999,173.41999999999999,-224.83500000000001
4809.0,5394.2200000000003,5695.3100000000004,84.613699999999994,5171.9399999999996,-156.291,202.91300000000001,-166.77600000000001
4810.0,5460.25,5734.8199999999997,65.052599999999998,5227.9200000000001,-175.792,230.01300000000001,-105.873
4811.0,4623.1700000000001,4834.21,180.685,4360.8800000000001,-159.90700000000001,-8.1792800000000003,-734.86400000000003
4812.0,4661.8400000000001,4893.8199999999997,178.999,4426.1199999999999,-142.23400000000001,10.2806,-690.07899999999995
4813.0,4725.96,4951.8400000000001,147.01300000000001,4475.5900000000001,-129.93899999999999,22.726299999999998,-647.46799999999996
4814.0,4809.4099999999999,5071.8299999999999,154.03399999999999,4577.0600000000004,-122.152,33.137700000000002,-601.65099999999995
4815.0,4906.5299999999997,5168.8500000000004,122.73999999999999,4646.1300000000001,-117.917,44.605200000000004,-556.05700000000002
4816.0,5013.71,5317.6199999999999,131.994,4760.8000000000002,-118.379,58.748600000000003,-507.15100000000001
4817.0,5128.1099999999997,5438.5500000000002,106.788,4842.8199999999997,-123.0,76.936000000000007,-457.56200000000001
4818.0,5248.6599999999999,5599.8199999999997,117.126,4962.9700000000003,-131.44900000000001,100.13200000000001,-405.25700000000001
4819.0,5373.1000000000004,5726.8800000000001,92.494600000000005,5049.1099999999997,-143.703,128.99799999999999,-351.87799999999999
4820.0,5498.5699999999997,5890.6800000000003,108.29000000000001,5175.6099999999997,-160.80500000000001,163.495,-296.65800000000002
4821.0,5620.1199999999999,6007.0600000000004,88.181700000000006,5264.9700000000003,-180.54900000000001,203.381,-239.685
4822.0,5722.9899999999998,6138.04,111.991,5386.4099999999999,-202.10300000000001,246.29300000000001,-181.84899999999999
4823.0,5796.8400000000001,6172.3699999999999,83.772499999999994,5443.1400000000003,-223.035,286.89400000000001,-121.622
4824.0,4876.8299999999999,5168.0100000000002,206.78800000000001,4559.2799999999997,-182.506,-78.030799999999999,-753.00099999999998
4825.0,4920.2399999999998,5224.79,190.11799999999999,4606.25,-166.374,-53.182899999999997,-707.30499999999995
4826.0,4990.4099999999999,5312.5699999999997,175.30600000000001,4670.5699999999997,-156.31700000000001,-33.771500000000003,-663.80700000000002
4827.0,5080.8100000000004,5426.6000000000004,163.286,4750.8299999999999,-150.15899999999999,-15.516299999999999,-617.50300000000004
4828.0,5185.4499999999998,5555.3900000000003,150.922,4837.4799999999996,-149.166,4.3997000000000002,-571.06600000000003
4829.0,5300.5100000000002,5704.4099999999999,148.11199999999999,4939.2799999999997,-152.39099999999999,28.056699999999999,-521.81600000000003
4830.0,5422.8599999999997,5845.2799999999997,131.358,5029.6999999999998,-159.124,56.809199999999997,-471.81200000000001
4831.0,5550.6199999999999,6011.9200000000001,137.90600000000001,5146.2299999999996,-171.381,91.338300000000004,-419.476
4832.0,5682.5200000000004,6159.8100000000004,125.809,5246.1800000000003,-186.96799999999999,132.45099999999999,-366.274
4833.0,5815.4799999999996,6324.0600000000004,135.11199999999999,5368.9899999999998,-206.14500000000001,180.08000000000001,-311.27300000000002
4834.0,5943.8500000000004,6453.5200000000004,123.26900000000001,5470.3599999999997,-228.001,233.626,-254.733
4835.0,6053.7299999999996,6574.9399999999996,134.178,5585.1499999999996,-251.351,290.56299999999999,-197.27500000000001
4836.0,6134.4799999999996,6629.9899999999998,124.642,5669.1199999999999,-273.80500000000001,345.28100000000001,-138.13499999999999
4837.0,5134.3000000000002,5497.1300000000001,227.18100000000001,4748.71,-207.011,-151.20500000000001,-769.30100000000004
4838.0,5182.3500000000004,5567.0900000000001,211.36000000000001,4792.3199999999997,-192.70400000000001,-119.762,-722.87199999999996
4839.0,5258.8100000000004,5666.8999999999996,195.52500000000001,4852.9300000000003,-184.94999999999999,-93.220100000000002,-678.58000000000004
4840.0,5355.8800000000001,5798.0799999999999,187.86799999999999,4934.5299999999997,-182.077,-67.081299999999999,-631.678
4841.0,5467.8100000000004,5939.9300000000003,175.863,5019.4300000000003,-183.37,-38.276699999999998,-584.71199999999999
4842.0,5590.0600000000004,6095.2799999999997,167.72999999999999,5113.9099999999999,-189.274,-4.7221900000000003,-535.21900000000005
4843.0,5719.6599999999999,6262.2700000000004,166.62200000000001,5218.7200000000003,-200.101,34.744100000000003,-485.077
4844.0,5854.9899999999998,6422.9899999999998,157.22300000000001,5319.1499999999996,-213.84800000000001,81.325000000000003,-432.83300000000003
4845.0,5993.6400000000003,6589.5200000000004,156.23699999999999,5430.6000000000004,-232.06700000000001,135.18000000000001,-379.83100000000002
4846.0,6133.04,6749.3100000000004,155.52799999999999,5544.7700000000004,-254.53100000000001,196.32300000000001,-325.44099999999997
4847.0,6267.5299999999997,6897.9300000000003,159.155,5664.3199999999997,-279.57799999999997,263.96699999999998,-269.86599999999999
4848.0,6384.2200000000003,7017.1599999999999,164.93700000000001,5779.6199999999999,-305.23200000000003,335.483,-213.32900000000001
4849.0,6472.1599999999999,7079.29,160.21100000000001,5876.8000000000002,-329.08199999999999,404.90600000000001,-155.61000000000001
4850.0,5394.3100000000004,5834.2600000000002,255.75,4941.7799999999997,-233.88200000000001,-227.86000000000001,-783.39499999999998
4851.0,5446.9499999999998,5906.9700000000003,230.28899999999999,4970.9499999999998,-221.68600000000001,-189.46600000000001,-736.38300000000004
4852.0,5529.0699999999997,6031.25,226.446,5039.6899999999996,-216.59899999999999,-155.63300000000001,-691.41099999999994
4853.0,5632.5100000000002,6162.1800000000003,205.90700000000001,5104.6400000000003,-215.56100000000001,-121.175,-644.23500000000001
4854.0,5751.3699999999999,6328.0,205.56999999999999,5198.0600000000004,-220.613,-83.417000000000002,-596.779
4855.0,5880.75,6494.7399999999998,197.20400000000001,5289.6000000000004,-229.703,-39.713200000000001,-547.20500000000004
4856.0,6017.1499999999996,6665.7200000000003,189.77699999999999,5385.9300000000003,-242.649,11.075699999999999,-497.06299999999999
4857.0,6158.6099999999997,6848.0100000000002,194.113,5498.0900000000001,-261.20999999999998,69.724800000000002,-445.25700000000001
4858.0,6303.3599999999997,7021.1199999999999,193.06200000000001,5608.5500000000002,-283.036,136.70400000000001,-393.005
4859.0,6448.71,7190.6599999999999,196.96100000000001,5727.96,-307.62900000000002,211.90299999999999,-339.39999999999998
4860.0,6588.6599999999999,7338.5900000000001,196.821,5845.5299999999997,-334.76499999999999,294.24400000000003,-284.904
4861.0,6711.1999999999998,7459.0200000000004,202.12700000000001,5965.0799999999999,-362.48599999999999,380.80000000000001,-229.52699999999999
4862.0,6805.46,7529.0200000000004,204.346,6076.5100000000002,-388.09199999999998,465.56200000000001,-173.899
4863.0,5654.8800000000001,6158.7799999999997,273.92500000000001,5117.9799999999996,-262.56799999999998,-307.745,-795.17999999999995
4864.0,5712.1800000000003,6260.3900000000003,264.92099999999999,5158.5699999999997,-252.85300000000001,-262.13499999999999,-747.73599999999999
4865.0,5799.8800000000001,6380.1700000000001,243.958,5205.4700000000003,-250.06200000000001,-220.82599999999999,-702.35500000000002
4866.0,5909.6599999999999,6545.4499999999998,245.28999999999999,5287.8999999999996,-253.15700000000001,-178.17500000000001,-654.68399999999997
4867.0,6034.6599999999999,6707.8199999999997,229.85300000000001,5361.8400000000001,-260.48500000000001,-130.934,-607.09000000000003
4868.0,6169.9499999999998,6892.9899999999998,229.691,5457.3699999999999,-272.97699999999998,-76.840699999999998,-557.49900000000002
4869.0,6312.5200000000004,7080.2200000000003,229.25999999999999,5557.1300000000001,-290.37900000000002,-14.651199999999999,-507.73399999999998
4870.0,6459.9200000000001,7262.8999999999996,225.71799999999999,5658.8599999999997,-310.43299999999999,56.774999999999999,-456.34699999999998
4871.0,6609.8699999999999,7441.4200000000001,224.31899999999999,5767.0100000000002,-334.78399999999999,137.358,-404.87299999999999
4872.0,6759.7799999999997,7619.8699999999999,233.929,5890.8599999999997,-363.44400000000002,226.83699999999999,-352.512
4873.0,6904.0799999999999,7771.8299999999999,236.411,6011.4899999999998,-393.74200000000002,324.15499999999997,-299.75799999999998
4874.0,7031.6899999999996,7902.5299999999997,251.339,6144.0500000000002,-424.08300000000003,426.25900000000001,-246.06
4875.0,7132.1499999999996,7964.0600000000004,244.34299999999999,6253.3299999999999,-450.78100000000001,526.65700000000004,-192.85599999999999
4876.0,5914.71,6493.1599999999999,305.524,5299.9799999999996,-293.476,-390.73200000000003,-804.11500000000001
4877.0,5976.6000000000004,6602.3599999999997,291.93400000000003,5330.4499999999998,-286.45999999999998,-337.82600000000002,-756.79300000000001
4878.0,6069.3199999999997,6742.5900000000001,279.23099999999999,5379.9399999999996,-286.74900000000002,-288.86200000000002,-710.67100000000005
4879.0,6184.1800000000003,6910.6800000000003,272.16199999999998,5448.0299999999997,-292.07600000000002,-237.53999999999999,-663.18799999999999
4880.0,6315.0699999999997,7091.21,263.67200000000003,5523.6300000000001,-303.54899999999998,-180.899,-615.24400000000003
4881.0,6456.21,7294.75,271.64299999999997,5622.1000000000004,-319.45699999999999,-116.157,-566.09400000000005
4882.0,6603.6300000000001,7472.6800000000003,253.71600000000001,5699.5799999999999,-339.036,-42.0107,-516.52200000000005
4883.0,6755.4200000000001,7688.8900000000003,278.029,5824.2299999999996,-364.76299999999998,42.014600000000002,-466.28300000000002
4884.0,6909.75,7864.0100000000002,268.72399999999999,5921.0200000000004,-393.03800000000001,136.49199999999999,-416.05900000000003
4885.0,7063.29,8054.9899999999998,288.399,6052.5799999999999,-423.66399999999999,240.76599999999999,-365.15300000000002
4886.0,7211.1000000000004,8197.7099999999991,281.024,6162.79,-456.005,353.589,-314.12299999999999
4887.0,7342.4499999999998,8333.2800000000007,301.69999999999999,6303.0699999999997,-488.38999999999999,471.55099999999999,-262.45100000000002
4888.0,7447.9200000000001,8396.2299999999996,297.21600000000001,6420.6499999999996,-517.04700000000003,588.07600000000002,-212.31800000000001
4889.0,6171.7799999999997,6826.0100000000002,341.64600000000002,5477.1800000000003,-326.53199999999998,-476.447,-810.33799999999997
4890.0,6237.8100000000004,6939.3100000000004,320.21899999999999,5493.46,-321.99000000000001,-416.31099999999998,-763.03300000000002
4891.0,6335.21,7100.2799999999997,316.52600000000001,5545.46,-325.089,-359.40899999999999,-716.71199999999999
4892.0,6455.5699999999997,7274.8699999999999,304.32400000000001,5601.9099999999999,-334.58699999999999,-299.66500000000002,-669.15599999999995
4893.0,6591.0100000000002,7480.8900000000003,311.43799999999999,5686.3199999999997,-348.911,-233.125,-621.21699999999998
4894.0,6736.0100000000002,7667.29,294.39999999999998,5752.5500000000002,-368.55200000000002,-157.56999999999999,-572.49099999999999
4895.0,6888.0699999999997,7899.4799999999996,323.33999999999997,5870.6499999999996,-393.32299999999998,-71.570700000000002,-523.69000000000005
4896.0,7043.1599999999999,8071.1400000000003,297.714,5939.6499999999996,-419.81799999999998,25.9251,-474.30399999999997
4897.0,7199.9399999999996,8287.7700000000004,327.41399999999999,6070.0500000000002,-451.06299999999999,134.43199999999999,-425.33999999999997
4898.0,7355.8000000000002,8449.6100000000006,317.52800000000002,6167.8299999999999,-485.75099999999998,253.67599999999999,-376.47199999999998
4899.0,7505.29,8632.5699999999997,352.31,6317.2799999999997,-521.78099999999995,382.04300000000001,-327.95299999999997
4900.0,7639.4499999999998,8737.4699999999993,344.50099999999998,6429.9300000000003,-556.42600000000004,516.23500000000001,-278.88799999999998
4901.0,7749.1400000000003,8828.2800000000007,369.57999999999998,6581.6099999999997,-586.00699999999995,649.21400000000006,-231.887
4902.0,6424.2700000000004,7143.0200000000004,370.15499999999997,5635.7600000000002,-361.435,-564.92100000000005,-813.79700000000003
4903.0,6494.3100000000004,7284.2200000000003,364.50599999999997,5661.0200000000004,-359.68299999999999,-497.44499999999999,-766.03300000000002
4904.0,6596.0600000000004,7442.54,347.05099999999999,5691.5900000000001,-366.41500000000002,-432.64999999999998,-720.11699999999996
4905.0,6719.7399999999998,7644.6000000000004,352.83699999999999,5757.9099999999999,-378.57799999999997,-363.95400000000001,-672.17999999999995
4906.0,6859.2200000000003,7837.4099999999999,337.80200000000002,5811.6400000000003,-397.32600000000002,-287.71199999999999,-624.92200000000003
4907.0,7008.3299999999999,8075.0500000000002,363.64699999999999,5913.25,-420.351,-201.05799999999999,-576.41600000000005
4908.0,7162.0200000000004,8253.9099999999999,334.791,5964.6499999999996,-447.37,-102.755,-528.59799999999996
4909.0,7319.9799999999996,8503.9099999999999,383.94099999999997,6100.8999999999996,-480.45499999999998,7.7456199999999997,-480.755
4910.0,7478.2600000000002,8670.5599999999995,362.44799999999998,6172.8699999999999,-515.28399999999999,130.733,-433.75299999999999
4911.0,7634.7600000000002,8884.1800000000003,405.48899999999998,6317.96,-551.98599999999999,265.21600000000001,-386.89699999999999
4912.0,7784.2200000000003,9008.3600000000006,384.91199999999998,6407.5,-589.452,409.62400000000002,-340.73899999999998
4913.0,7919.3500000000004,9161.6100000000006,429.81299999999999,6571.8699999999999,-626.31899999999996,560.03200000000004,-294.69299999999998
4914.0,8031.5200000000004,9205.2999999999993,411.99000000000001,6683.1199999999999,-657.93299999999999,709.75099999999998,-251.73599999999999
4915.0,6670.0200000000004,7464.0100000000002,413.00599999999997,5795.8599999999997,-397.98899999999998,-655.99000000000001,-813.59500000000003
4916.0,6743.6300000000001,7609.1700000000001,399.89600000000002,5805.9499999999998,-399.30500000000001,-580.88400000000001,-766.06899999999996
4917.0,6848.5100000000002,7787.3199999999997,392.32299999999998,5837.5500000000002,-408.95400000000001,-508.17099999999999,-720.32600000000002
4918.0,6976.3800000000001,7992.9899999999998,391.60500000000002,5888.5900000000001,-425.447,-430.63400000000001,-672.62400000000002
4919.0,7117.8599999999997,8212.2299999999996,396.024,5951.6999999999998,-447.125,-344.34899999999999,-625.60699999999997
4920.0,7268.5100000000002,8425.3299999999999,392.38499999999999,6013.3199999999997,-474.78500000000003,-246.65199999999999,-577.94100000000003
4921.0,7424.54,8666.9699999999993,421.58199999999999,6113.25,-506.57900000000001,-136.04499999999999,-531.31399999999996
4922.0,7581.5100000000002,8852.9899999999998,406.31400000000002,6174.9899999999998,-540.47299999999996,-11.8812,-484.65300000000002
4923.0,7738.7700000000004,9070.9400000000005,437.774,6290.4499999999998,-578.30799999999999,125.474,-439.584
4924.0,7894.3000000000002,9240.5699999999997,440.459,6386.9700000000003,-619.29700000000003,275.13400000000001,-395.47899999999998
4925.0,8042.4099999999999,9417.4099999999999,478.20600000000002,6528.29,-660.35299999999995,435.50200000000001,-352.70299999999997
4926.0,8177.0,9520.5699999999997,479.166,6645.7399999999998,-699.26800000000003,602.423,-310.12900000000002
4927.0,8290.4400000000005,9605.3899999999994,507.64800000000002,6804.71,-731.24599999999998,768.89700000000005,-271.26400000000001
4928.0,6906.7200000000003,7771.4099999999999,455.38799999999998,5940.6000000000004,-436.12599999999998,-749.16700000000003,-809.65300000000002
4929.0,6983.6800000000003,7929.5,444.13299999999998,5944.1199999999999,-440.48200000000003,-666.654,-762.72900000000004
4930.0,7091.5699999999997,8119.7799999999997,438.99000000000001,5968.5799999999999,-453.983,-585.85900000000004,-717.19299999999998
4931.0,7220.3699999999999,8334.3700000000008,440.69299999999998,6010.6400000000003,-473.69499999999999,-499.37400000000002,-669.69899999999996
4932.0,7363.9099999999999,8556.25,441.20999999999998,6058.5799999999999,-500.01499999999999,-403.07100000000003,-623.45100000000002
4933.0,7515.0299999999997,8798.2700000000004,462.28199999999998,6133.1999999999998,-530.41700000000003,-294.11099999999999,-576.43600000000004
4934.0,7669.4499999999998,8999.0300000000007,450.20999999999998,6179.1599999999999,-565.32299999999998,-171.07900000000001,-531.18399999999997
4935.0,7826.75,9248.4899999999998,497.81900000000002,6292.5,-605.25099999999998,-33.566499999999998,-486.66000000000003
4936.0,7981.9099999999999,9427.2900000000009,493.32400000000001,6360.75,-646.59400000000005,118.43000000000001,-444.07299999999998
4937.0,8133.5200000000004,9627.5,532.971,6483.8299999999999,-689.00900000000001,283.50999999999999,-402.46600000000001
4938.0,8277.2399999999998,9754.4400000000005,529.46299999999997,6574.8199999999997,-731.40800000000002,459.88499999999999,-362.916
4939.0,8408.7800000000007,9889.5300000000007,571.40300000000002,6727.8500000000004,-772.16399999999999,643.13900000000001,-324.13
4940.0,8521.3500000000004,9936.2700000000004,570.07799999999997,6855.7700000000004,-806.10000000000002,826.35900000000004,-290.37900000000002
4941.0,7132.1700000000001,8067.4300000000003,502.14299999999997,6072.79,-475.39600000000002,-844.28399999999999,-801.91200000000003
4942.0,7211.6899999999996,8237.0,492.21300000000002,6068.25,-483.15800000000002,-754.274,-755.56500000000005
4943.0,7321.04,8435.8099999999995,487.75400000000002,6082.2200000000003,-499.99200000000002,-665.45100000000002,-710.53099999999995
4944.0,7451.5100000000002,8661.8099999999995,493.654,6116.6599999999999,-523.56899999999996,-569.94200000000001,-663.51300000000003
4945.0,7593.9300000000003,8894.1000000000004,501.49200000000002,6158.0600000000004,-553.29600000000005,-463.64600000000002,-617.84500000000003
4946.0,7743.8400000000001,9124.9599999999991,509.92599999999999,6205.9499999999998,-588.64800000000002,-343.464,-571.99800000000005
4947.0,7896.4200000000001,9369.3400000000001,541.68200000000002,6281.6499999999996,-627.64800000000002,-208.09299999999999,-528.32100000000003
4948.0,8047.8599999999997,9562.8299999999999,538.85299999999995,6329.4399999999996,-668.98099999999999,-56.9771,-485.36099999999999
4949.0,8197.7199999999993,9774.1200000000008,573.71699999999998,6422.71,-713.30200000000002,109.313,-445.505
4950.0,8344.3099999999995,9943.0400000000009,590.63099999999997,6510.3000000000002,-759.70500000000004,289.59100000000001,-407.26400000000001
4951.0,8482.3899999999994,10103.6,631.51400000000001,6634.3599999999997,-804.96100000000001,481.79599999999999,-371.94099999999997
4952.0,8608.8700000000008,10197.9,643.97299999999996,6750.3199999999997,-847.13699999999994,681.46500000000003,-337.29199999999997
4953.0,8718.8500000000004,10267.4,674.96600000000001,6907.6000000000004,-881.02700000000004,881.23099999999999,-308.74099999999999
4954.0,7343.5,8352.4500000000007,556.94200000000001,6193.8299999999999,-515.79499999999996,-940.96600000000001,-789.64999999999998
4955.0,7425.3299999999999,8524.0,539.31899999999996,6171.2200000000003,-526.74800000000005,-843.548,-744.73900000000003
4956.0,7535.5299999999997,8744.1499999999996,549.11400000000003,6187.5699999999997,-547.46500000000003,-746.66999999999996,-699.77099999999996
4957.0,7664.46,8964.5400000000009,546.25400000000002,6198.3299999999999,-575.01099999999997,-642.28700000000003,-653.63699999999994
4958.0,7805.6000000000004,9211.8799999999992,566.53599999999994,6237.46,-608.87199999999996,-525.90800000000002,-608.62
4959.0,7951.6000000000004,9446.3600000000006,579.74000000000001,6273.4499999999998,-646.81500000000005,-394.51499999999999,-564.07799999999997
4960.0,8099.1199999999999,9667.2800000000007,592.04899999999998,6313.0299999999997,-689.32000000000005,-246.78100000000001,-521.995
4961.0,8246.3600000000006,9899.1299999999992,632.27499999999998,6387.5699999999997,-735.20799999999997,-82.273399999999995,-481.685
4962.0,8389.1800000000003,10086.5,652.40200000000004,6449.9499999999998,-782.50599999999997,98.403099999999995,-444.65199999999999
4963.0,8526.1599999999999,10257.799999999999,684.74099999999999,6536.6099999999997,-829.94600000000003,293.81900000000002,-409.51100000000002
4964.0,8654.5400000000009,10383.299999999999,705.64200000000005,6626.3199999999997,-876.476,501.48500000000001,-378.25
4965.0,8772.6000000000004,10485.200000000001,741.06799999999998,6754.0200000000004,-919.97000000000003,717.09400000000005,-348.23899999999998
4966.0,8877.1299999999992,10531.299999999999,762.24199999999996,6895.6499999999996,-955.30999999999995,932.96699999999998,-325.75299999999999
4967.0,7538.1599999999999,8615.4200000000001,611.77999999999997,6293.1300000000001,-556.54399999999998,-1038.77,-773.08299999999997
4968.0,7621.3599999999997,8797.8799999999992,596.75199999999995,6261.8699999999999,-571.40200000000004,-934.101,-729.44799999999998
4969.0,7731.0100000000002,9024.6000000000004,607.774,6265.9799999999996,-595.59000000000003,-829.21799999999996,-684.92899999999997
4970.0,7858.0500000000002,9251.1700000000001,608.274,6264.3100000000004,-626.38300000000004,-715.904,-639.91600000000005
4971.0,7994.5299999999997,9503.7099999999991,635.221,6292.3800000000001,-664.06700000000001,-589.59199999999998,-595.44299999999998
4972.0,8135.0100000000002,9728.5499999999993,642.70299999999997,6303.75,-706.55399999999997,-447.14100000000002,-552.63
4973.0,8275.2099999999991,9980.8600000000006,693.33199999999999,6362.2299999999996,-752.74900000000002,-287.32999999999998,-512.18100000000004
4974.0,8411.7700000000004,10157.5,690.14099999999996,6372.75,-800.673,-109.627,-474.33300000000003
4975.0,8544.2000000000007,10367.700000000001,746.32500000000005,6451.4200000000001,-850.79300000000001,84.953299999999999,-440.37200000000001
4976.0,8670.6200000000008,10506.9,761.73800000000006,6502.7200000000003,-900.89200000000005,295.10500000000002,-409.42399999999998
4977.0,8787.5900000000001,10656.4,824.04600000000005,6616.71,-949.24199999999996,518.00900000000001,-382.74299999999999
4978.0,8894.8700000000008,10713.299999999999,832.23900000000003,6703.8400000000001,-992.91200000000003,749.23000000000002,-357.79500000000002
4979.0,8991.4799999999996,10774.1,883.654,6867.1400000000003,-1027.54,980.99400000000003,-341.113
4980.0,7713.1999999999998,8856.8899999999994,670.96600000000001,6372.4499999999998,-597.89200000000005,-1137.4100000000001,-751.80700000000002
4981.0,7797.4099999999999,9049.4699999999993,658.04499999999996,6331.5699999999997,-615.88099999999997,-1025.51,-709.63300000000004
4982.0,7905.1700000000001,9283.2199999999993,672.66200000000003,6324.1499999999996,-643.89700000000005,-912.73900000000003,-665.83500000000004
4983.0,8027.5,9514.3099999999995,678.78300000000002,6309.8000000000002,-679.14300000000003,-790.73599999999999,-621.67499999999995
4984.0,8158.0,9765.75,707.85599999999999,6320.3900000000003,-720.23800000000006,-654.56299999999999,-578.24900000000002
4985.0,8290.0599999999995,9994.8700000000008,726.52200000000005,6321.6499999999996,-765.14800000000002,-501.13299999999998,-537.01499999999999
4986.0,8420.3299999999999,10213.6,753.625,6334.6499999999996,-814.16399999999999,-329.27699999999999,-498.44600000000003
4987.0,8546.2900000000009,10425.4,797.98199999999997,6370.5299999999997,-865.12199999999996,-138.66399999999999,-463.51900000000001
4988.0,8665.1599999999999,10598.200000000001,833.73299999999995,6406.2200000000003,-917.11500000000001,69.659499999999994,-432.63799999999998
4989.0,8775.9200000000001,10738.799999999999,871.21299999999997,6457.0200000000004,-968.14999999999998,294.07900000000001,-405.62400000000002
4990.0,8876.8199999999997,10840.4,908.44799999999998,6524.9799999999996,-1017.17,531.50300000000004,-383.46699999999998
4991.0,8969.25,10906.0,948.31200000000001,6626.1000000000004,-1061.5699999999999,777.46900000000005,-364.29199999999997
4992.0,9054.1399999999994,10931.6,985.154,6762.25,-1096.75,1024.1800000000001,-354.30500000000001
4993.0,7865.9200000000001,9072.1399999999994,732.88900000000001,6427.5500000000002,-638.61099999999999,-1236.3,-725.91899999999998
4994.0,7949.7700000000004,9278.7199999999993,727.94200000000001,6382.04,-660.73500000000001,-1117.3699999999999,-684.572
4995.0,8054.0500000000002,9511.2399999999998,740.06100000000004,6355.0500000000002,-692.14200000000005,-996.89400000000001,-642.29700000000003
4996.0,8170.4799999999996,9746.8999999999996,752.85299999999995,6328.1000000000004,-729.92200000000003,-866.11800000000005,-598.822
4997.0,8291.6700000000001,9991.4500000000007,782.67700000000002,6316.5699999999997,-774.64300000000003,-720.31700000000001,-556.75900000000001
4998.0,8412.5,10218.200000000001,810.22799999999995,6302.5100000000002,-823.87300000000005,-556.34699999999998,-516.97199999999998
4999.0,8529.1700000000001,10445.299999999999,860.70600000000002,6313.0900000000001,-875.93899999999996,-372.96899999999999,-480.79599999999999
5000.0,8639.2999999999993,10614.6,881.25099999999998,6298.96,-929.23599999999999,-169.923,-448.642
5001.0,8741.2800000000007,10787.1,938.09799999999996,6329.4399999999996,-982.91700000000003,51.505899999999997,-421.43000000000001
5002.0,8834.2099999999991,10903.9,975.67200000000003,6354.9700000000003,-1035.1900000000001,289.53199999999998,-398.95699999999999
5003.0,8916.6100000000006,11004.799999999999,1038.03,6424.1400000000003,-1084.1300000000001,540.94100000000003,-381.77499999999998
5004.0,8991.2399999999998,11032.799999999999,1066.1500000000001,6493.0200000000004,-1127.4000000000001,801.14999999999998,-368.33600000000001
5005.0,9061.6100000000006,11048.6,1115.97,6627.04,-1160.5,1062.0999999999999,-364.64800000000002
5006.0,7992.6800000000003,9260.1100000000006,801.23599999999999,6459.1199999999999,-679.16999999999996,-1334.99,-694.66499999999996
5007.0,8075.6099999999997,9476.7000000000007,800.69200000000001,6404.9300000000003,-703.94200000000001,-1209.05,-654.54300000000001
5008.0,8174.5900000000001,9706.7600000000002,811.798,6357.9700000000003,-739.14700000000005,-1081.1500000000001,-613.97199999999998
5009.0,8282.1900000000005,9951.5900000000001,840.41700000000003,6324.8199999999997,-781.49599999999998,-941.98599999999999,-570.86599999999999
5010.0,8391.8999999999996,10181.200000000001,865.71400000000006,6283.4300000000003,-828.85199999999998,-786.86500000000001,-530.64599999999996
5011.0,8499.0900000000001,10407.6,906.529,6256.6400000000003,-879.54999999999995,-612.30700000000002,-492.202
5012.0,8599.3799999999992,10593.0,933.51400000000001,6215.21,-933.22900000000004,-417.69,-458.41000000000003
5013.0,8691.3299999999999,10787.0,1000.65,6218.8900000000003,-988.07399999999996,-202.673,-429.08300000000003
5014.0,8772.3500000000004,10911.1,1035.3499999999999,6197.2799999999997,-1042.3499999999999,31.344999999999999,-405.464
5015.0,8843.0,11024.5,1098.8499999999999,6219.46,-1094.8699999999999,282.23500000000001,-387.37900000000002
5016.0,8901.9400000000005,11066.9,1134.6600000000001,6233.6499999999996,-1143.3299999999999,546.63199999999995,-375.24900000000002
5017.0,8954.25,11100.799999999999,1200.8,6315.0699999999997,-1186.22,819.63800000000003,-368.42599999999999
5018.0,9005.5499999999993,11071.5,1234.6199999999999,6413.1400000000003,-1218.73,1093.6099999999999,-371.74599999999998
5019.0,8090.6800000000003,9417.6100000000006,875.96400000000006,6464.6099999999997,-717.65300000000002,-1432.73,-658.14599999999996
5020.0,8171.3999999999996,9640.0900000000001,878.154,6398.7799999999997,-746.74699999999996,-1300.28,-618.91999999999996
5021.0,8263.25,9872.6399999999994,895.654,6337.5900000000001,-785.13,-1165.1500000000001,-580.40099999999995
5022.0,8360.1299999999992,10104.299999999999,919.34799999999996,6276.04,-828.84500000000003,-1017.51,-537.96600000000001
5023.0,8454.8500000000004,10329.200000000001,955.41800000000001,6216.9200000000001,-879.34799999999996,-853.41300000000001,-499.43599999999998
5024.0,8544.2199999999993,10543.299999999999,1004.21,6167.8000000000002,-934.00699999999995,-669.12800000000004,-462.51400000000001
5025.0,8623.9799999999996,10729.799999999999,1056.54,6119.0500000000002,-989.76099999999997,-463.92599999999999,-431.55900000000003
5026.0,8693.7000000000007,10875.700000000001,1103.01,6069.5200000000004,-1046.05,-237.63399999999999,-405.315
5027.0,8750.3199999999997,10992.6,1161.5999999999999,6037.8999999999996,-1100.5599999999999,8.0936599999999999,-385.68799999999999
5028.0,8794.7999999999993,11069.700000000001,1223.3,6025.1899999999996,-1152.46,270.82799999999997,-372.42700000000002
5029.0,8826.9799999999996,11103.5,1286.6099999999999,6034.75,-1198.8499999999999,547.25300000000004,-365.52300000000002
5030.0,8853.6499999999996,11085.0,1335.5799999999999,6070.79,-1238.49,832.25099999999998,-364.88600000000002
5031.0,8882.2099999999991,11039.799999999999,1385.6300000000001,6161.5799999999999,-1267.0699999999999,1118.1800000000001,-374.5
5032.0,8156.5100000000002,9536.6700000000001,954.09000000000003,6438.0100000000002,-755.029,-1529.0999999999999,-615.39499999999998
5033.0,8233.6499999999996,9767.7399999999998,963.03999999999996,6363.2799999999997,-786.23000000000002,-1390.1800000000001,-578.15499999999997
5034.0,8316.4500000000007,9988.5200000000004,975.52700000000004,6275.0299999999997,-827.91800000000001,-1248.1300000000001,-541.35599999999999
5035.0,8399.3400000000001,10231.4,1024.6800000000001,6211.6999999999998,-876.25800000000004,-1092.8,-499.60500000000002
5036.0,8476.6299999999992,10428.299999999999,1051.1400000000001,6112.4399999999996,-928.12699999999995,-919.96799999999996,-463.00700000000001
5037.0,8545.4599999999991,10631.5,1111.6199999999999,6042.6300000000001,-982.471,-725.91899999999998,-427.488
5038.0,8601.5499999999993,10769.1,1143.3099999999999,5938.0900000000001,-1038.24,-510.63999999999999,-399.01400000000001
5039.0,8644.6499999999996,10923.5,1231.3099999999999,5893.4399999999996,-1094.4300000000001,-273.84300000000002,-375.56799999999998
5040.0,8672.6900000000005,10984.0,1270.0999999999999,5804.5600000000004,-1147.8,-17.327200000000001,-359.87299999999999
5041.0,8687.5699999999997,11047.700000000001,1357.73,5780.7600000000002,-1198.3199999999999,256.411,-351.11599999999999
5042.0,8688.5499999999993,11015.0,1397.0,5729.75,-1242.5,543.50199999999995,-349.75200000000001
5043.0,8684.3799999999992,10995.6,1488.21,5773.5600000000004,-1280.1600000000001,838.61500000000001,-356.02999999999997
5044.0,8686.1599999999999,10896.700000000001,1523.21,5820.8100000000004,-1306.48,1134.6500000000001,-373.17500000000001
5045.0,8186.3800000000001,9615.9799999999996,1038.4200000000001,6378.6300000000001,-788.12400000000002,-1623.02,-567.00800000000004
5046.0,8259.2900000000009,9851.1700000000001,1052.23,6292.2200000000003,-824.154,-1478.54,-531.44500000000005
5047.0,8330.8799999999992,10071.5,1073.8099999999999,6189.1999999999998,-868.25900000000001,-1329.6800000000001,-496.44499999999999
5048.0,8396.9400000000005,10285.799999999999,1110.95,6084.9300000000003,-916.41700000000003,-1166.5699999999999,-455.84199999999998
5049.0,8452.9200000000001,10474.799999999999,1154.0,5968.3100000000004,-970.53499999999997,-985.553,-420.755
5050.0,8496.75,10659.200000000001,1226.7,5873.0,-1028.26,-783.07100000000003,-387.08699999999999
5051.0,8525.1100000000006,10785.799999999999,1282.0799999999999,5752.9499999999998,-1084.75,-558.50300000000004,-361.67599999999999
5052.0,8538.4099999999999,10888.299999999999,1356.5999999999999,5654.2399999999998,-1140.6600000000001,-312.20800000000003,-341.339
5053.0,8534.3899999999994,10928.0,1416.8599999999999,5545.5299999999997,-1192.1600000000001,-45.972299999999997,-330.03699999999998
5054.0,8514.3099999999995,10947.200000000001,1506.96,5481.6999999999998,-1239.9000000000001,237.18899999999999,-325.87299999999999
5055.0,8480.8999999999996,10890.4,1568.9300000000001,5413.3599999999997,-1279.4300000000001,533.60599999999999,-330.26400000000001
5056.0,8443.0100000000002,10808.799999999999,1644.3199999999999,5403.7799999999997,-1311.3699999999999,837.95399999999995,-342.24599999999998
5057.0,8413.2000000000007,10676.700000000001,1689.26,5428.8100000000004,-1331.1300000000001,1142.3800000000001,-365.99599999999998
5058.0,8178.0699999999997,9647.8500000000004,1125.95,6280.8500000000004,-818.952,-1714.3800000000001,-511.66800000000001
5059.0,8244.1200000000008,9890.5799999999999,1150.52,6186.9200000000001,-856.78700000000003,-1564.05,-479.23200000000003
5060.0,8302.1399999999994,10087.5,1162.0799999999999,6048.3800000000001,-903.18499999999995,-1408.97,-445.50799999999998
5061.0,8348.9899999999998,10315.0,1235.0799999999999,5947.1899999999996,-955.74000000000001,-1239.1600000000001,-406.30799999999999
5062.0,8381.0,10461.5,1263.5799999999999,5780.0600000000004,-1009.58,-1050.1900000000001,-372.767
5063.0,8396.1200000000008,10619.5,1343.9300000000001,5652.71,-1064.28,-839.17399999999998,-340.62
5064.0,8393.1800000000003,10690.799999999999,1383.6099999999999,5474.8299999999999,-1118.9400000000001,-606.20600000000002,-317.45999999999998
5065.0,8371.6599999999999,10781.700000000001,1491.9100000000001,5364.8000000000002,-1172.4000000000001,-351.47699999999998,-299.911
5066.0,8331.5799999999999,10759.799999999999,1539.24,5197.6300000000001,-1220.75,-76.988200000000006,-292.62299999999999
5067.0,8275.3700000000008,10748.0,1648.47,5107.5100000000002,-1264.3199999999999,214.69499999999999,-292.79199999999997
5068.0,8203.5499999999993,10621.299999999999,1695.0,4978.6800000000003,-1299.3800000000001,518.96199999999999,-302.93900000000002
5069.0,8127.0600000000004,10526.299999999999,1812.71,4966.9499999999998,-1326.8099999999999,829.84400000000005,-321.815
5070.0,8064.4300000000003,10336.200000000001,1848.0599999999999,4945.54,-1342.49,1140.77,-352.91000000000003
5071.0,8126.8900000000003,9640.5100000000002,1230.3199999999999,6154.0100000000002,-843.92899999999997,-1801.47,-450.53500000000003
5072.0,8186.3500000000004,9865.3999999999996,1242.1800000000001,6028.9499999999998,-885.89999999999998,-1646.75,-420.58999999999997
5073.0,8228.6200000000008,10077.1,1285.22,5894.2700000000004,-934.16700000000003,-1485.5599999999999,-388.44999999999999
5074.0,8251.6299999999992,10238.700000000001,1318.77,5719.0900000000001,-984.13999999999999,-1308.7,-350.59399999999999
5075.0,8255.4300000000003,10393.0,1390.9200000000001,5555.0500000000002,-1039.3299999999999,-1112.9300000000001,-318.36599999999999
5076.0,8239.3799999999992,10504.700000000001,1466.6900000000001,5378.8599999999997,-1095.9400000000001,-894.83600000000001,-288.589
5077.0,8201.4300000000003,10572.9,1550.46,5198.29,-1149.47,-654.58500000000004,-268.20400000000001
5078.0,8143.54,10583.700000000001,1628.8800000000001,5010.3199999999997,-1199.76,-392.61200000000002,-254.04499999999999
5079.0,8065.0299999999997,10548.6,1717.53,4834.6599999999999,-1243.98,-111.182,-250.78700000000001
5080.0,7966.6700000000001,10461.6,1812.1800000000001,4677.8199999999997,-1281.74,186.86199999999999,-255.714
5081.0,7855.3000000000002,10318.700000000001,1901.0599999999999,4542.2200000000003,-1309.4100000000001,497.17200000000003,-271.28300000000002
5082.0,7739.8599999999997,10121.5,1974.28,4440.1599999999999,-1327.47,814.39099999999996,-295.51400000000001
5083.0,7636.6800000000003,9908.7099999999991,2045.04,4411.2299999999996,-1333.73,1128.76,-332.07799999999997
5084.0,8032.2200000000003,9568.5699999999997,1330.04,5974.8000000000002,-864.56299999999999,-1884.48,-382.61700000000002
5085.0,8081.21,9796.6299999999992,1354.02,5841.1000000000004,-907.70100000000002,-1724.8900000000001,-355.73500000000001
5086.0,8104.8199999999997,9971.8500000000004,1382.29,5661.7299999999996,-957.15499999999997,-1558.53,-325.10000000000002
5087.0,8104.2600000000002,10150.6,1464.25,5497.6199999999999,-1010.48,-1375.9200000000001,-288.99799999999999
5088.0,8076.75,10239.299999999999,1510.49,5265.1499999999996,-1062.78,-1173.27,-257.87200000000001
5089.0,8023.6999999999998,10315.5,1598.73,5054.1499999999996,-1113.6800000000001,-948.40800000000002,-229.477
5090.0,7947.2700000000004,10309.1,1660.97,4802.0900000000001,-1162.6800000000001,-702.00900000000001,-211.001
5091.0,7847.8999999999996,10299.0,1778.1199999999999,4599.2200000000003,-1207.9300000000001,-434.60700000000003,-199.48400000000001
5092.0,7728.7299999999996,10185.700000000001,1849.6500000000001,4352.3100000000004,-1245.8399999999999,-148.49100000000001,-200.06200000000001
5093.0,7593.9399999999996,10060.9,1965.1800000000001,4163.2600000000002,-1276.3099999999999,155.071,-209.02000000000001
5094.0,7441.25,9830.0599999999995,2033.4300000000001,3952.75,-1296.27,470.92000000000002,-230.114
5095.0,7282.9899999999998,9624.3400000000001,2168.9200000000001,3858.5999999999999,-1306.7,790.48800000000006,-260.75
5096.0,7147.5,9327.2800000000007,2212.4400000000001,3758.77,-1306.8199999999999,1106.8900000000001,-304.13600000000002
5097.0,7888.9899999999998,9442.75,1442.4300000000001,5755.6400000000003,-876.97799999999995,-1961.5,-307.96899999999999
5098.0,7928.7700000000004,9654.0,1460.1400000000001,5594.6700000000001,-923.80700000000002,-1798.6700000000001,-284.92099999999999
5099.0,7932.0900000000001,9835.1800000000003,1518.8399999999999,5415.0200000000004,-973.21500000000003,-1627.05,-254.95599999999999
5100.0,7900.2700000000004,9930.0900000000001,1556.55,5164.7200000000003,-1022.51,-1438.71,-220.65000000000001
5101.0,7839.5,10023.6,1654.4200000000001,4938.04,-1074.3299999999999,-1230.5,-190.52199999999999
5102.0,7750.2700000000004,10040.0,1737.01,4670.0100000000002,-1124.4200000000001,-1000.4299999999999,-164.81399999999999
5103.0,7634.0,10021.6,1847.5999999999999,4413.0200000000004,-1169.3099999999999,-749.10500000000002,-148.756
5104.0,7495.4799999999996,9916.9899999999998,1932.5899999999999,4122.3999999999996,-1207.8099999999999,-477.85300000000001,-140.346
5105.0,7337.6499999999996,9779.6700000000001,2045.99,3860.0500000000002,-1238.3699999999999,-188.471,-144.57400000000001
5106.0,7159.4899999999998,9571.2399999999998,2154.1100000000001,3599.7600000000002,-1259.8099999999999,117.08499999999999,-157.87200000000001
5107.0,6976.0799999999999,9318.8600000000006,2266.4400000000001,3374.7800000000002,-1270.9000000000001,435.54599999999999,-184.80199999999999
5108.0,6783.6300000000001,8976.0200000000004,2335.6500000000001,3161.52,-1268.98,763.40499999999997,-220.506
5109.0,6594.7600000000002,8655.2399999999998,2438.7800000000002,3071.2800000000002,-1251.3499999999999,1075.1199999999999,-266.46100000000001
5110.0,7698.7200000000003,9250.3199999999997,1557.98,5485.1199999999999,-882.75,-2032.46,-226.80699999999999
5111.0,7724.6999999999998,9451.7299999999996,1581.6700000000001,5307.0200000000004,-930.21000000000004,-1866.28,-207.16200000000001
5112.0,7705.4700000000003,9594.2099999999991,1631.97,5085.1499999999996,-979.65800000000002,-1690.4400000000001,-178.58000000000001
5113.0,7645.7200000000003,9693.6499999999996,1715.4400000000001,4838.1000000000004,-1029.04,-1497.3699999999999,-146.43700000000001
5114.0,7547.6199999999999,9710.4099999999999,1790.45,4539.3400000000001,-1075.51,-1283.8299999999999,-116.515
5115.0,7415.4899999999998,9667.3500000000004,1877.6800000000001,4220.4499999999998,-1117.25,-1048.98,-92.415999999999997
5116.0,7258.4700000000003,9568.9300000000003,1975.76,3894.3099999999999,-1154.97,-795.08299999999997,-77.301000000000002
5117.0,7076.54,9417.9200000000001,2090.75,3570.25,-1184.51,-521.74400000000003,-72.143199999999993
5118.0,6883.46,9207.2900000000009,2203.5700000000002,3247.3000000000002,-1206.3599999999999,-235.24700000000001,-78.655500000000004
5119.0,6690.4799999999996,8934.1000000000004,2303.1399999999999,2916.1300000000001,-1216.1300000000001,73.481700000000004,-97.897300000000001
5120.0,6470.8800000000001,8601.7600000000002,2413.9200000000001,2631.0300000000002,-1204.53,399.52999999999997,-125.97
5121.0,6247.5699999999997,8265.3799999999992,2574.0900000000001,2439.8899999999999,-1183.3900000000001,725.52300000000002,-162.40700000000001
5122.0,6053.3500000000004,7804.96,2604.96,2237.0500000000002,-1174.3900000000001,1045.73,-213.202
5123.0,7458.1800000000003,8986.1399999999994,1679.0899999999999,5160.9499999999998,-878.476,-2095.7600000000002,-139.59299999999999
5124.0,7472.04,9173.7900000000009,1705.27,4962.6899999999996,-927.49900000000002,-1927.3499999999999,-122.77800000000001
5125.0,7428.21,9300.2099999999991,1774.8099999999999,4724.3299999999999,-975.14200000000005,-1747.6700000000001,-95.775899999999993
5126.0,7334.1099999999997,9316.9300000000003,1827.0999999999999,4398.5699999999997,-1019.48,-1550.1099999999999,-64.561000000000007
5127.0,7200.04,9312.6599999999999,1940.9300000000001,4087.1100000000001,-1062.0799999999999,-1332.3099999999999,-36.036900000000003
5128.0,7031.6300000000001,9215.4899999999998,2041.45,3723.4400000000001,-1098.71,-1094.29,-14.088900000000001
5129.0,6833.9300000000003,9067.2700000000004,2166.5900000000001,3366.5,-1127.6199999999999,-838.45299999999997,-0.78106299999999995
5130.0,6628.2299999999996,8837.2700000000004,2271.3800000000001,2969.4899999999998,-1147.5599999999999,-568.08699999999999,1.72217
5131.0,6401.71,8551.2299999999996,2388.8899999999999,2591.8299999999999,-1152.5,-277.988,-8.5178100000000008
5132.0,6193.1000000000004,8265.4500000000007,2550.29,2250.3600000000001,-1137.9200000000001,11.678900000000001,-27.771899999999999
5133.0,6051.2700000000004,7904.4700000000003,2637.8800000000001,1882.9000000000001,-1148.74,347.41000000000003,-68.102000000000004
5134.0,5862.5100000000002,7386.8800000000001,2676.54,1531.0999999999999,-1135.1700000000001,720.46699999999998,-130.70099999999999
5135.0,5572.5100000000002,6904.3999999999996,2828.48,1425.45,-1070.0,1040.6700000000001,-151.547
5136.0,7171.0100000000002,8646.5799999999999,1805.5699999999999,4780.4499999999998,-864.36099999999999,-2150.7800000000002,-45.892600000000002
5137.0,7169.7399999999998,8822.75,1841.9400000000001,4568.8599999999997,-913.19600000000003,-1980.6400000000001,-31.385100000000001
5138.0,7101.1999999999998,8897.5900000000001,1900.46,4279.7399999999998,-958.82299999999998,-1797.8,-6.8097500000000002
5139.0,6977.8500000000004,8910.5799999999999,2002.0699999999999,3957.52,-999.25999999999999,-1597.0,23.5382
5140.0,6805.2399999999998,8807.0400000000009,2087.6300000000001,3558.1100000000001,-1033.6700000000001,-1374.29,51.052199999999999
5141.0,6599.6099999999997,8641.5400000000009,2198.25,3148.2800000000002,-1059.9400000000001,-1135.95,73.008600000000001
5142.0,6368.6000000000004,8392.1800000000003,2309.2600000000002,2706.1100000000001,-1077.4300000000001,-877.51700000000005,83.611000000000004
5143.0,6129.5900000000001,8105.1999999999998,2449.29,2289.4200000000001,-1077.3800000000001,-618.46600000000001,87.504099999999994
5144.0,5926.0500000000002,7786.7600000000002,2597.4499999999998,1856.9000000000001,-1071.23,-337.60000000000002,66.553200000000004
5145.0,5802.1199999999999,7377.4300000000003,2606.4499999999998,1380.3299999999999,-1085.1199999999999,-59.525100000000002,44.9146
5146.0,5695.9899999999998,7161.7299999999996,2854.1500000000001,1060.1600000000001,-946.60599999999999,289.358,-34.284300000000002
5147.0,5504.0,6845.2600000000002,3251.6700000000001,942.39099999999996,-819.48000000000002,759.25800000000004,39.726300000000002
5148.0,5147.6199999999999,5904.0900000000001,3084.0999999999999,637.27499999999998,-882.59000000000003,1052.25,5.4150200000000002
5149.0,6840.2299999999996,8229.4099999999999,1941.53,4344.25,-837.83299999999997,-2196.3299999999999,53.925600000000003
5150.0,6824.5100000000002,8380.1499999999996,1975.9100000000001,4107.5900000000001,-885.98000000000002,-2024.79,66.430599999999998
5151.0,6732.6099999999997,8430.6000000000004,2056.77,3797.8699999999999,-927.64099999999996,-1840.5699999999999,88.790000000000006
5152.0,6578.6000000000004,8347.6200000000008,2124.4499999999998,3393.27,-961.40300000000002,-1635.1300000000001,118.852
5153.0,6378.8900000000003,8218.3299999999999,2259.6500000000001,2979.5900000000001,-986.96400000000006,-1410.75,144.91399999999999
5154.0,6142.5,7959.3400000000001,2361.7800000000002,2508.7199999999998,-1003.73,-1168.01,166.60300000000001
5155.0,5900.8400000000001,7676.6899999999996,2534.4699999999998,2048.9200000000001,-1004.17,-918.47900000000004,172.291
5156.0,5689.6400000000003,7242.46,2576.8699999999999,1515.1900000000001,-1016.21,-666.00800000000004,178.03299999999999
5157.0,5563.0100000000002,6945.6800000000003,2767.1700000000001,1052.8099999999999,-970.66499999999996,-414.19600000000003,120.172
5158.0,5349.3599999999997,6649.0100000000002,3021.7600000000002,739.18899999999996,-788.20299999999997,-107.93899999999999,153.18700000000001
5159.0,5121.2700000000004,6874.6999999999998,4258.5200000000004,1065.3900000000001,-484.32499999999999,196.88,66.335499999999996
5160.0,5181.5100000000002,7012.7399999999998,5495.75,1406.28,-340.11599999999999,587.29600000000005,281.45499999999998
5161.0,4951.4099999999999,5377.0299999999997,4392.6099999999997,377.99000000000001,-439.43200000000002,921.84699999999998,341.26499999999999
5162.0,6474.6599999999999,7719.1599999999999,2075.48,3840.3600000000001,-798.68700000000001,-2230.5,159.745
5163.0,6445.6000000000004,7862.0100000000002,2131.5599999999999,3597.3000000000002,-845.0,-2059.8400000000001,171.08199999999999
5164.0,6334.75,7841.1899999999996,2190.7800000000002,3225.6900000000001,-881.85699999999997,-1874.1099999999999,190.30600000000001
5165.0,6160.21,7751.1899999999996,2319.8400000000001,2825.1500000000001,-907.70000000000005,-1665.3699999999999,220.435
5166.0,5941.7200000000003,7488.8299999999999,2406.5300000000002,2304.9400000000001,-922.50300000000004,-1439.1300000000001,245.87799999999999
5167.0,5689.6099999999997,7171.0900000000001,2553.52,1803.1600000000001,-923.90499999999997,-1189.95,266.49099999999999
5168.0,5446.4899999999998,6724.0500000000002,2674.3499999999999,1242.3699999999999,-907.221,-952.10900000000004,274.42599999999999
5169.0,5238.5200000000004,6328.4700000000003,2855.5300000000002,779.18499999999995,-825.55499999999995,-725.09699999999998,280.86200000000002
5170.0,5082.9099999999999,6086.7399999999998,3360.4099999999999,462.52999999999997,-619.09199999999998,-515.89400000000001,228.39099999999999
5171.0,4977.0100000000002,6330.8199999999997,4706.4099999999999,828.70699999999999,-400.041,-216.21899999999999,242.214
5172.0,5121.1599999999999,6337.6599999999999,5992.5500000000002,1108.8499999999999,-389.41899999999998,58.801299999999998,187.93100000000001
5173.0,5603.5299999999997,6209.6400000000003,7000.1099999999997,1114.45,-356.77100000000002,314.44900000000001,189.53800000000001
5174.0,5773.46,5166.4499999999998,6699.2399999999998,494.88200000000001,-188.03800000000001,674.43899999999996,419.79599999999999
5175.0,6087.54,7125.1099999999997,2224.46,3281.4200000000001,-743.94799999999998,-2252.5599999999999,271.94600000000003
5176.0,6050.8100000000004,7234.2299999999996,2277.98,3007.4200000000001,-787.02700000000004,-2084.4699999999998,281.55700000000002
5177.0,5927.3599999999997,7176.1999999999998,2356.4099999999999,2610.9899999999998,-817.54999999999995,-1896.8399999999999,297.94299999999998
5178.0,5749.5799999999999,6989.5100000000002,2463.7399999999998,2129.8200000000002,-833.14300000000003,-1687.55,329.91000000000003
5179.0,5532.3599999999997,6667.21,2580.9400000000001,1578.8,-834.14599999999996,-1454.9200000000001,352.26100000000002
5180.0,5310.2600000000002,6259.8500000000004,2753.8099999999999,1016.74,-823.37199999999996,-1202.8299999999999,376.24900000000002
5181.0,5093.3500000000004,5649.25,2828.6799999999998,393.55200000000002,-799.60900000000004,-969.78399999999999,386.75599999999997
5182.0,4926.1000000000004,5197.3800000000001,3267.4699999999998,9.9688800000000004,-698.50699999999995,-791.99099999999999,315.39499999999998
5183.0,4978.0600000000004,5207.4799999999996,4486.7700000000004,125.56999999999999,-528.87300000000005,-604.45000000000005,233.274
5184.0,5398.6700000000001,5447.1400000000003,6028.9200000000001,454.75099999999998,-420.85399999999998,-318.73599999999999,218.00999999999999
5185.0,5782.8900000000003,5084.46,6580.3500000000004,254.751,-345.60199999999998,-40.288600000000002,310.99700000000001
5186.0,6403.8299999999999,4693.8100000000004,7285.8299999999999,17.208200000000001,-105.42400000000001,229.827,188.21700000000001
5187.0,7217.5200000000004,4073.96,8086.4899999999998,-131.33600000000001,3.10263,542.66399999999999,428.31799999999998
5188.0,5710.54,6439.3999999999996,2383.0900000000001,2658.6199999999999,-672.94000000000005,-2264.1999999999998,391.57999999999998
5189.0,5668.8100000000004,6510.5200000000004,2431.5,2356.8600000000001,-713.53499999999997,-2096.7199999999998,396.22399999999999
5190.0,5554.6099999999997,6402.0500000000002,2521.1999999999998,1918.27,-735.51700000000005,-1911.03,412.40199999999999
5191.0,5392.9099999999999,6149.75,2643.04,1399.4400000000001,-738.65800000000002,-1697.8199999999999,445.08499999999998
5192.0,5219.54,5732.9099999999999,2779.79,778.26199999999994,-724.58799999999997,-1459.01,463.55200000000002
5193.0,5083.9099999999999,5174.29,2910.6199999999999,117.92100000000001,-702.06299999999999,-1205.1500000000001,505.01900000000001
5194.0,4950.46,4338.0,2871.5500000000002,-639.00999999999999,-673.39099999999996,-964.35000000000002,494.72800000000001
5195.0,4955.6400000000003,3703.46,3289.1300000000001,-1095.24,-633.49000000000001,-759.76199999999994,370.48700000000002
5196.0,5364.9300000000003,3467.48,4343.4700000000003,-1213.8,-556.60699999999997,-549.06200000000001,235.28800000000001
5197.0,6137.1999999999998,3501.9400000000001,5694.1999999999998,-1159.5,-378.02499999999998,-321.30700000000002,240.017
5198.0,6807.2600000000002,3158.6700000000001,6641.71,-1165.96,-113.628,-121.84999999999999,345.72699999999998
5199.0,7987.2700000000004,3130.8800000000001,8310.1000000000004,-859.827,218.47800000000001,113.759,255.36500000000001
5200.0,9028.4200000000001,1874.04,8570.1700000000001,-1580.3399999999999,180.58600000000001,366.05200000000002,608.47799999999995
5201.0,5381.2299999999996,5672.71,2560.3000000000002,1988.6700000000001,-585.79899999999998,-2261.0,516.01800000000003
5202.0,5345.9099999999999,5666.8900000000003,2575.4299999999998,1624.2,-620.08100000000002,-2099.6100000000001,515.62400000000002
5203.0,5262.5299999999997,5537.0100000000002,2714.5300000000002,1182.25,-630.19200000000001,-1915.3,534.93200000000002
5204.0,5158.1099999999997,5149.1899999999996,2792.3000000000002,552.26900000000001,-618.08600000000001,-1698.0899999999999,564.89300000000003
5205.0,5108.21,4684.2700000000004,2985.8899999999999,-97.068100000000001,-596.12099999999998,-1455.73,590.23699999999997
5206.0,5113.5799999999999,3891.79,2982.23,-930.39200000000005,-566.59500000000003,-1192.6900000000001,638.59199999999998
5207.0,5141.4300000000003,2901.4499999999998,2907.6100000000001,-1773.9200000000001,-534.20699999999999,-926.57000000000005,609.55799999999999
5208.0,5356.5100000000002,1917.6900000000001,3003.5700000000002,-2533.3800000000001,-480.42200000000003,-681.875,510.053
5209.0,6010.0900000000001,1345.8199999999999,3759.7399999999998,-2955.0999999999999,-342.49099999999999,-475.916,357.16300000000001
5210.0,7121.0299999999997,1152.5599999999999,5209.0100000000002,-2960.4699999999998,-128.863,-303.90100000000001,329.70800000000003
5211.0,8300.4099999999999,729.94299999999998,6620.8299999999999,-2841.7399999999998,53.026299999999999,-113.741,341.43599999999998
5212.0,9942.1299999999992,94.103700000000003,8113.54,-2984.9400000000001,217.94900000000001,61.426499999999997,263.35399999999998
5213.0,11051.4,-1734.8699999999999,7828.1499999999996,-4165.04,187.411,86.828699999999998,685.15999999999997
5214.0,5160.6300000000001,4779.8000000000002,2687.1599999999999,1231.4300000000001,-484.666,-2247.8299999999999,638.92399999999998
5215.0,5158.3299999999999,4772.46,2757.75,875.56500000000005,-505.964,-2099.02,640.07100000000003
5216.0,5129.9399999999996,4521.9099999999999,2855.6599999999999,340.38799999999998,-501.69900000000001,-1910.47,662.67499999999995
5217.0,5146.0100000000002,4091.75,3005.3400000000001,-307.90600000000001,-472.78300000000002,-1694.47,692.76900000000001
5218.0,5275.6700000000001,3455.6199999999999,3141.1100000000001,-1097.5,-423.81700000000001,-1447.03,733.553
5219.0,5482.3299999999999,2501.4899999999998,3091.3299999999999,-2047.1900000000001,-365.66699999999997,-1164.1500000000001,789.02099999999996
5220.0,5744.4899999999998,1223.8,2835.6799999999998,-3129.2600000000002,-325.00400000000002,-874.74099999999999,779.50900000000001
5221.0,6194.9200000000001,-136.46100000000001,2672.5700000000002,-4178.1700000000001,-271.28699999999998,-635.58299999999997,674.53399999999999
5222.0,7129.1999999999998,-1095.5699999999999,3256.0799999999999,-4862.3000000000002,-149.96799999999999,-432.803,475.90800000000002
5223.0,8504.1100000000006,-1819.8099999999999,4449.3500000000004,-5183.29,6.9074200000000001,-206.31100000000001,404.33300000000003
5224.0,10088.4,-2814.5700000000002,5630.2700000000004,-5498.7600000000002,180.90899999999999,16.884499999999999,403.63400000000001
5225.0,11859.299999999999,-4453.9399999999996,6247.75,-6447.9399999999996,200.74299999999999,88.137,467.976
5226.0,12914.6,-7776.3000000000002,4414.04,-9031.1200000000008,-39.963900000000002,-169.79300000000001,637.61000000000001
5227.0,5108.0500000000002,3868.9400000000001,2850.5300000000002,498.51799999999997,-370.358,-2234.8600000000001,759.91899999999998
5228.0,5149.46,3763.54,2921.3600000000001,75.591300000000004,-365.31900000000002,-2091.9000000000001,771.15599999999995
5229.0,5228.0200000000004,3436.7199999999998,3073.9400000000001,-492.05599999999998,-332.74599999999998,-1909.6199999999999,799.68200000000002
5230.0,5437.79,2845.73,3178.98,-1277.9200000000001,-287.245,-1702.53,843.89599999999996
5231.0,5812.4099999999999,2124.3699999999999,3373.0799999999999,-2145.7199999999998,-209.28200000000001,-1441.1800000000001,874.95899999999995
5232.0,6289.5900000000001,984.98299999999995,3334.9099999999999,-3203.8899999999999,-122.52500000000001,-1122.23,970.11300000000006
5233.0,6807.6400000000003,-581.89599999999996,2953.3499999999999,-4458.8699999999999,-47.889299999999999,-853.846,985.72500000000002
5234.0,7498.2799999999997,-2341.9299999999998,2464.8400000000001,-5885.2700000000004,38.225200000000001,-621.61599999999999,888.48699999999997
5235.0,8627.0699999999997,-3776.3200000000002,2647.27,-7016.75,168.571,-338.81299999999999,687.68799999999999
5236.0,10256.5,-5233.04,3368.1999999999998,-7877.4499999999998,299.52699999999999,24.5091,633.64599999999996
5237.0,12066.4,-7483.4799999999996,3621.1999999999998,-9110.5499999999993,211.63200000000001,229.36500000000001,652.52499999999998
5238.0,13618.0,-11208.299999999999,1957.8499999999999,-11976.6,-108.114,66.034700000000001,670.73000000000002
5239.0,14322.700000000001,-16160.200000000001,-2055.6599999999999,-16462.0,-369.17200000000003,-359.92500000000001,593.23199999999997
5240.0,5244.7399999999998,2967.4000000000001,2906.9899999999998,-232.00899999999999,-249.602,-2234.4299999999998,874.80600000000004
5241.0,5366.9499999999998,2734.4000000000001,3058.1100000000001,-698.80600000000004,-216.28,-2099.5700000000002,901.13599999999997
5242.0,5635.0299999999997,2176.9499999999998,3139.9499999999998,-1472.8199999999999,-183.33500000000001,-1935.0599999999999,940.99000000000001
5243.0,6046.1099999999997,1499.1199999999999,3308.75,-2333.5300000000002,-100.44499999999999,-1709.9100000000001,975.38099999999997
5244.0,6705.9300000000003,655.65499999999997,3606.5599999999999,-3284.1500000000001,36.012500000000003,-1408.5,1026.01
5245.0,7475.3199999999997,-685.18600000000004,3555.79,-4463.5500000000002,102.20399999999999,-1070.6600000000001,1172.49
5246.0,8149.8699999999999,-2883.21,2618.27,-6258.4200000000001,93.989599999999996,-820.42399999999998,1175.8099999999999
5247.0,9062.6299999999992,-4938.79,1994.98,-7944.5799999999999,211.416,-593.71500000000003,997.69500000000005
5248.0,10658.799999999999,-6693.2299999999996,2232.98,-9351.0900000000001,501.36700000000002,-221.148,864.62900000000002
5249.0,12670.1,-9005.0699999999997,2486.71,-10828.5,561.84699999999998,285.60500000000002,999.69600000000003
5250.0,14147.299999999999,-13807.799999999999,-68.295900000000003,-14264.1,97.866100000000003,431.45600000000002,1198.3199999999999
5251.0,14842.299999999999,-20301.700000000001,-5408.3000000000002,-19950.599999999999,-488.06900000000002,-50.344299999999997,977.01599999999996
5252.0,15271.799999999999,-26432.0,-11182.200000000001,-26275.700000000001,-671.58699999999999,-588.87400000000002,459.673
5253.0,15211.299999999999,-38130.099999999999,-23033.200000000001,-38093.800000000003,-930.96100000000001,-664.904,169.46199999999999
5254.0,15078.1,-48418.800000000003,-33504.099999999999,-48631.699999999997,75.318700000000007,-618.42399999999998,415.39800000000002
5255.0,17334.5,-55789.900000000001,-38445.599999999999,-55230.300000000003,1472.1800000000001,-582.096,715.26400000000001
5256.0,21310.900000000001,-61514.900000000001,-39879.699999999997,-59348.0,2602.2600000000002,-475.024,1555.79
5257.0,25056.299999999999,-67961.800000000003,-42277.800000000003,-64671.099999999999,2604.6599999999999,-701.91600000000005,2582.6799999999998
5258.0,27289.700000000001,-75798.399999999994,-47916.300000000003,-72273.800000000003,2636.3299999999999,-1126.71,3082.96
5259.0,28443.200000000001,-85525.600000000006,-56319.800000000003,-81496.600000000006,2843.3000000000002,-1378.8399999999999,3028.6700000000001
5260.0,30417.299999999999,-95200.5,-63733.099999999999,-89369.100000000006,3693.0700000000002,-1337.01,3569.8000000000002
5261.0,35046.0,-104253.0,-68210.199999999997,-96244.800000000003,5082.3699999999999,-1454.9000000000001,4824.2600000000002
5262.0,40341.199999999997,-114902.0,-72418.600000000006,-104922.0,4008.8000000000002,-2335.9099999999999,5240.5200000000004
5263.0,39041.199999999997,-135709.0,-94411.0,-126874.0,1858.5799999999999,-2611.1100000000001,4989.8699999999999
5264.0,42092.5,-157558.0,-112197.0,-145162.0,2593.9200000000001,-2038.5999999999999,5482.0500000000002
5265.0,48202.300000000003,-195917.0,-144575.0,-181548.0,-3494.9499999999998,3056.0100000000002,7165.0299999999997
5266.0,15210.200000000001,-31442.099999999999,-16072.9,-30550.099999999999,-1045.23,-212.09100000000001,1243.21
5267.0,15017.1,-42266.900000000001,-27270.200000000001,-41526.199999999997,-723.16099999999994,-386.43799999999999,1746.55
5268.0,15913.0,-51147.5,-35359.699999999997,-50513.599999999999,208.16999999999999,-592.92399999999998,2032.4000000000001
5269.0,19320.5,-56223.699999999997,-37363.599999999999,-55278.5,2118.5999999999999,-635.42700000000002,2571.4099999999999
5270.0,24823.0,-59513.0,-34956.400000000001,-57578.099999999999,3192.9400000000001,-925.09799999999996,2815.0700000000002
5271.0,27983.200000000001,-66879.800000000003,-38505.199999999997,-64075.5,2838.1999999999998,-1010.35,2733.7600000000002
5272.0,28635.0,-76741.600000000006,-47544.699999999997,-73513.699999999997,2815.5100000000002,-733.31100000000004,2940.27
5273.0,30456.400000000001,-85140.699999999997,-54448.199999999997,-81167.199999999997,4022.3800000000001,-437.74000000000001,3769.02
5274.0,35933.599999999999,-90986.199999999997,-55080.099999999999,-85109.300000000003,5904.7200000000003,-943.75,4871.4200000000001
5275.0,40801.900000000001,-101790.0,-59283.0,-92924.100000000006,5033.0500000000002,-1787.1400000000001,4853.1599999999999
5276.0,41255.599999999999,-118833.0,-75452.600000000006,-109707.0,3342.46,-2117.9200000000001,5348.3100000000004
5277.0,44417.300000000003,-138457.0,-93226.899999999994,-131574.0,2887.04,-1331.99,7320.4799999999996
5278.0,55385.599999999999,-152263.0,-101813.0,-156176.0,2471.8499999999999,-1558.01,9729.1100000000006
5279.0,15917.1,-21692.299999999999,-5955.1000000000004,-21336.900000000001,-264.44600000000003,449.74000000000001,1856.9200000000001
5280.0,17089.400000000001,-30942.400000000001,-14259.1,-30513.700000000001,-408.45699999999999,246.34299999999999,2582.0700000000002
5281.0,17987.799999999999,-39841.599999999999,-22672.299999999999,-39873.0,-143.86799999999999,-141.10599999999999,3061.3099999999999
5282.0,19377.0,-47281.900000000001,-28840.700000000001,-47319.099999999999,1075.3499999999999,-618.34199999999998,3166.6599999999999
5283.0,22517.099999999999,-53525.199999999997,-31427.299999999999,-52104.800000000003,2532.3200000000002,-1135.3800000000001,2884.7600000000002
5284.0,25609.299999999999,-60814.800000000003,-34745.699999999997,-57655.800000000003,2799.5500000000002,-1306.1600000000001,2581.0300000000002
5285.0,26674.799999999999,-69660.100000000006,-42272.300000000003,-66187.800000000003,2631.8000000000002,-938.87400000000002,2650.27
5286.0,28737.400000000001,-76743.899999999994,-48126.300000000003,-73362.199999999997,4115.6199999999999,-703.298,3647.4400000000001
5287.0,35011.099999999999,-80819.199999999997,-46434.699999999997,-75950.899999999994,6053.0500000000002,-1139.26,4945.2299999999996
5288.0,39893.599999999999,-88802.600000000006,-47984.5,-81406.5,5258.54,-1118.5,5349.8900000000003
5289.0,44251.599999999999,-99968.0,-55671.300000000003,-92045.100000000006,5780.0100000000002,-1178.8099999999999,7741.6800000000003
5290.0,53857.199999999997,-111562.0,-60459.099999999999,-108551.0,5430.8199999999997,-4369.75,9800.2800000000007
5291.0,66864.600000000006,-129892.0,-70748.699999999997,-136915.0,3806.8899999999999,-9793.4699999999993,7682.7600000000002
5292.0,15283.200000000001,-13822.799999999999,655.83699999999999,-14783.9,626.36400000000003,520.91300000000001,1540.0
5293.0,17884.900000000001,-19872.0,-2736.5300000000002,-20308.599999999999,657.92700000000002,422.19799999999998,2362.25
5294.0,19619.599999999999,-27815.799999999999,-9026.6499999999996,-28288.900000000001,295.73500000000001,8.3898399999999995,2739.8299999999999
5295.0,20067.0,-36793.699999999997,-17722.400000000001,-37317.699999999997,546.18600000000004,-186.143,3038.5599999999999
5296.0,21913.299999999999,-44592.400000000001,-23603.299999999999,-43879.800000000003,1782.46,-407.09100000000001,3832.7600000000002
5297.0,25074.099999999999,-51694.400000000001,-26846.200000000001,-48957.300000000003,2339.5599999999999,-787.87,4223.4799999999996
5298.0,26591.900000000001,-60177.599999999999,-33434.599999999999,-56789.900000000001,2243.04,-769.06100000000004,4250.1599999999999
5299.0,28297.900000000001,-67036.699999999997,-39143.5,-63790.599999999999,3553.2399999999998,-668.64800000000002,4601.8299999999999
5300.0,33745.199999999997,-71462.100000000006,-38682.699999999997,-67049.399999999994,5894.7200000000003,-1354.02,5153.6999999999998
5301.0,38467.199999999997,-77941.0,-39202.699999999997,-72687.899999999994,5298.3800000000001,-1692.0999999999999,4552.1800000000003
5302.0,47391.800000000003,-81221.600000000006,-37040.0,-77239.0,9461.0699999999997,-2090.3499999999999,7581.1999999999998
5303.0,66611.100000000006,-87720.100000000006,-24641.799999999999,-83770.899999999994,8849.7199999999993,-8781.1599999999999,8667.8899999999994
5304.0,76139.899999999994,-131607.0,-61663.099999999999,-134087.0,-36.5321,-15485.5,1428.1600000000001
5305.0,13036.0,-9873.3999999999996,1805.0699999999999,-11852.4,898.64999999999998,53.383299999999998,1167.6099999999999
5306.0,16481.299999999999,-13201.299999999999,2193.02,-14245.4,1481.99,51.058300000000003,1904.9400000000001
5307.0,19140.799999999999,-19212.799999999999,-642.97400000000005,-19516.900000000001,809.47199999999998,-193.77500000000001,2138.0799999999999
5308.0,19681.700000000001,-27864.099999999999,-9011.2399999999998,-28479.599999999999,672.07100000000003,-60.316000000000003,2489.4099999999999
5309.0,21537.700000000001,-34391.599999999999,-14076.5,-34842.599999999999,1893.1199999999999,-50.908200000000001,3216.98
5310.0,25159.099999999999,-40473.400000000001,-16164.299999999999,-39601.699999999997,2667.7399999999998,-348.53899999999999,3686.2399999999998
5311.0,27205.299999999999,-48026.5,-21157.900000000001,-45917.699999999997,2726.29,-451.48200000000003,3979.4699999999998
5312.0,28729.0,-56233.699999999997,-27964.599999999999,-53701.199999999997,3342.5599999999999,-726.42499999999995,4331.7600000000002
5313.0,32202.5,-62187.599999999999,-30819.799999999999,-57960.800000000003,5433.4200000000001,-1100.8599999999999,5019.3599999999997
5314.0,37390.5,-69500.399999999994,-31941.0,-63663.300000000003,5160.1899999999996,-2748.0,4829.6300000000001
5315.0,44332.900000000001,-76345.699999999997,-33952.900000000001,-70295.199999999997,9366.6299999999992,-4588.4899999999998,4538.0200000000004
5316.0,66772.0,-89874.899999999994,-23658.299999999999,-75926.100000000006,10362.700000000001,-12464.5,2213.1500000000001
5317.0,76927.199999999997,-161347.0,-89058.399999999994,-144151.0,-6924.3000000000002,-20556.799999999999,-8716.6399999999994
5318.0,10805.9,-7773.8400000000001,1223.1400000000001,-10290.700000000001,715.01400000000001,-436.75,1256.71
5319.0,13998.799999999999,-9866.3400000000001,2776.04,-11277.299999999999,1534.3699999999999,-453.28500000000003,1695.8399999999999
5320.0,17104.5,-14132.799999999999,2352.0300000000002,-14386.299999999999,1262.4300000000001,-541.35500000000002,1907.1900000000001
5321.0,18502.5,-20688.099999999999,-2775.5900000000001,-20889.5,857.69600000000003,-459.57299999999998,2235.8099999999999
5322.0,19580.400000000001,-27933.799999999999,-9288.25,-28336.799999999999,1536.74,-386.71699999999998,2615.6300000000001
5323.0,22656.799999999999,-33437.300000000003,-11539.200000000001,-32762.900000000001,2612.5500000000002,-592.74000000000001,2977.0700000000002
5324.0,25131.700000000001,-40502.599999999999,-15644.299999999999,-38506.699999999997,2919.6799999999998,-470.49299999999999,3319.6599999999999
5325.0,27947.799999999999,-46517.699999999997,-18730.599999999999,-43324.900000000001,3474.7199999999998,-784.51099999999997,4058.29
5326.0,30306.700000000001,-54959.900000000001,-25086.5,-50930.599999999999,4666.25,-897.096,4563.5699999999997
5327.0,37070.699999999997,-59248.5,-21914.299999999999,-51690.699999999997,5829.2600000000002,-2624.5,5254.6400000000003
5328.0,40258.800000000003,-78120.300000000003,-36163.099999999999,-65909.899999999994,5859.3100000000004,-4506.3199999999997,4459.6800000000003
5329.0,57833.099999999999,-102837.0,-41082.800000000003,-73914.199999999997,7383.29,-9777.0599999999995,3178.77
5330.0,72204.600000000006,-192444.0,-120962.0,-147225.0,-11670.799999999999,-16915.200000000001,-2852.9099999999999
5331.0,9764.4699999999993,-5096.1599999999999,2307.23,-8080.3999999999996,533.91899999999998,-765.94600000000003,1518.8
5332.0,12355.700000000001,-7048.3500000000004,3386.3099999999999,-9183.8400000000001,1187.8199999999999,-764.20899999999995,1910.8699999999999
5333.0,15438.5,-9710.2000000000007,4489.8800000000001,-10628.200000000001,1447.8499999999999,-754.01499999999999,2223.5900000000001
5334.0,17542.299999999999,-14850.1,2035.1400000000001,-14912.0,1046.6300000000001,-691.72400000000005,2370.0500000000002
5335.0,18304.099999999999,-21906.799999999999,-4363.9899999999998,-21943.799999999999,1166.3099999999999,-547.25999999999999,2686.9499999999998
5336.0,20525.900000000001,-27687.200000000001,-7957.7200000000003,-26896.700000000001,2175.79,-618.58799999999997,3249.5799999999999
5337.0,23004.599999999999,-33692.599999999999,-11098.299999999999,-31803.200000000001,2671.04,-577.553,3436.21
5338.0,26284.299999999999,-38991.599999999999,-12887.200000000001,-35376.199999999997,3684.1900000000001,-535.68299999999999,4047.71
5339.0,29087.299999999999,-46373.599999999999,-17142.700000000001,-41476.699999999997,4091.48,-1071.1400000000001,4363.7200000000003
5340.0,34178.0,-54086.599999999999,-18910.0,-45414.300000000003,5520.54,-1630.52,4516.3500000000004
5341.0,39156.900000000001,-70002.800000000003,-28003.5,-55293.0,5228.4200000000001,-2219.8899999999999,4964.8599999999997
5342.0,51858.800000000003,-99648.0,-41711.099999999999,-68345.800000000003,4252.6499999999996,-1885.8099999999999,5815.1499999999996
5343.0,71222.899999999994,-170486.0,-93439.0,-117378.0,-4542.5500000000002,-5256.96,9363.3799999999992
5344.0,9037.3099999999995,-2506.9200000000001,3766.5799999999999,-5848.3800000000001,481.19299999999998,-1068.9000000000001,1421.95
5345.0,11132.299999999999,-4285.2399999999998,4499.8999999999996,-7068.46,977.45699999999999,-1124.1600000000001,1622.1099999999999
5346.0,13667.9,-6578.8900000000003,5384.6300000000001,-8387.5200000000004,1416.8800000000001,-1093.3499999999999,1748.25
5347.0,15904.1,-10479.6,4466.1099999999997,-11090.0,1388.1300000000001,-873.25300000000004,2000.27
5348.0,17374.299999999999,-16087.4,586.33199999999999,-16044.0,1323.03,-673.38900000000001,2447.0
5349.0,18884.099999999999,-21871.900000000001,-3677.1900000000001,-21247.900000000001,1914.49,-619.05700000000002,2850.6700000000001
5350.0,21251.5,-27165.5,-6433.0600000000004,-25471.799999999999,2593.9899999999998,-711.76999999999998,3282.79
5351.0,24325.299999999999,-32200.0,-8303.6399999999994,-29074.5,3572.5100000000002,-523.91200000000003,3936.6700000000001
5352.0,28321.0,-37227.599999999999,-8668.9799999999996,-31756.299999999999,4097.1000000000004,-744.24099999999999,4501.2299999999996
5353.0,31360.900000000001,-47712.099999999999,-15173.9,-39230.300000000003,4363.3900000000003,-485.50900000000001,4864.3100000000004
5354.0,37738.099999999999,-58230.199999999997,-18233.400000000001,-44673.400000000001,5654.3999999999996,-181.90000000000001,5380.54
5355.0,47271.699999999997,-81776.399999999994,-29777.400000000001,-60132.900000000001,3780.3600000000001,2874.5900000000001,6325.9099999999999
5356.0,73640.699999999997,-118131.0,-38243.5,-78312.0,5976.4200000000001,5109.29,12260.1
5357.0,8077.3199999999997,-784.93499999999995,4180.8800000000001,-4238.21,426.71300000000002,-1407.1199999999999,1294.0999999999999
5358.0,9831.2399999999998,-2596.9699999999998,4705.1899999999996,-5382.4499999999998,724.24400000000003,-1493.0999999999999,1524.3800000000001
5359.0,11577.200000000001,-5180.5500000000002,4500.54,-7182.4099999999999,975.57000000000005,-1443.3399999999999,1614.1900000000001
5360.0,13510.700000000001,-8201.9500000000007,3987.3000000000002,-9268.7700000000004,1409.78,-1134.5699999999999,1825.3900000000001
5361.0,15726.0,-11852.9,3102.21,-11806.700000000001,1553.55,-886.19000000000005,2216.9099999999999
5362.0,17251.5,-16937.900000000001,-286.28699999999998,-16166.799999999999,1712.0,-663.90499999999997,2736.6799999999998
5363.0,19815.0,-20954.400000000001,-1907.6600000000001,-19269.299999999999,2645.3499999999999,-685.22699999999998,3498.0999999999999
5364.0,22738.099999999999,-25256.599999999999,-2937.0999999999999,-22478.299999999999,3141.0700000000002,-762.69299999999998,3732.9899999999998
5365.0,26538.599999999999,-29857.5,-3497.0799999999999,-25458.299999999999,4190.5799999999999,-453.73700000000002,4192.7700000000004
5366.0,30368.200000000001,-36609.099999999999,-5570.3800000000001,-29964.200000000001,4296.0500000000002,72.837000000000003,4673.9399999999996
5367.0,35433.800000000003,-47013.300000000003,-9993.4799999999996,-36804.599999999999,5082.6599999999999,1021.49,5104.3900000000003
5368.0,42720.900000000001,-62487.599999999999,-16935.700000000001,-49665.199999999997,4844.4499999999998,2492.0799999999999,5187.5
5369.0,63266.800000000003,-87669.699999999997,-18759.599999999999,-63656.199999999997,6931.6800000000003,6662.6000000000004,4277.79
5370.0,7168.9200000000001,203.25700000000001,3878.9699999999998,-3210.9099999999999,346.59699999999998,-1734.9400000000001,1195.29
5371.0,8737.1499999999996,-1251.21,4740.1400000000003,-4042.6599999999999,562.73000000000002,-1776.48,1354.8699999999999
5372.0,10064.200000000001,-3815.9499999999998,4113.9200000000001,-6006.4399999999996,676.92200000000003,-1680.8299999999999,1459.1199999999999
5373.0,11565.700000000001,-6551.8000000000002,3321.8200000000002,-8041.8500000000004,1193.52,-1444.98,1713.3599999999999
5374.0,13754.1,-9226.9699999999993,3426.21,-9606.7099999999991,1606.49,-1124.79,2048.1100000000001
5375.0,15838.700000000001,-12202.1,2811.71,-11752.799999999999,1886.3399999999999,-781.30200000000002,2548.6300000000001
5376.0,18579.900000000001,-15193.799999999999,2542.73,-13705.700000000001,2723.8099999999999,-750.64099999999996,3207.27
5377.0,21308.099999999999,-19267.0,1705.4400000000001,-16556.900000000001,2869.77,-964.87400000000002,3472.9099999999999
5378.0,23867.599999999999,-24161.5,-479.94600000000003,-20498.700000000001,3709.1199999999999,-720.49000000000001,3621.2800000000002
5379.0,27497.0,-29964.900000000001,-1810.3800000000001,-24630.799999999999,4110.6499999999996,-248.28700000000001,3379.3499999999999
5380.0,31461.200000000001,-38727.400000000001,-6080.4499999999998,-31324.599999999999,4666.04,1044.8,3753.5700000000002
5381.0,37604.300000000003,-51804.900000000001,-11374.6,-40600.800000000003,4583.2700000000004,1291.03,3601.52
5382.0,44930.0,-85669.100000000006,-35485.400000000001,-66798.300000000003,544.13999999999999,5428.1199999999999,798.63
5383.0,6464.2799999999997,916.16899999999998,3539.79,-2296.46,199.02699999999999,-2023.4400000000001,1118.3499999999999
5384.0,7551.4099999999999,-798.58100000000002,3749.0,-3457.02,317.08199999999999,-2097.2199999999998,1109.04
5385.0,8410.4099999999999,-3236.1999999999998,2845.6599999999999,-5368.9300000000003,505.86399999999998,-1944.22,1171.73
5386.0,9792.5799999999999,-5539.4499999999998,2383.52,-7031.6199999999999,998.072,-1788.3900000000001,1470.6800000000001
5387.0,11482.9,-7845.4899999999998,2312.4899999999998,-8611.5900000000001,1351.1800000000001,-1539.7,1603.5899999999999
5388.0,13524.9,-9603.5799999999999,2894.29,-9434.3500000000004,2055.8899999999999,-1136.6300000000001,2021.27
5389.0,16634.299999999999,-11403.6,4499.6099999999997,-9778.5799999999999,2715.02,-984.32799999999997,2706.1300000000001
5390.0,19521.5,-14285.6,4971.5200000000004,-11386.299999999999,2837.79,-1120.54,3149.1700000000001
5391.0,21447.799999999999,-19635.900000000001,1951.8199999999999,-15802.1,2992.1599999999999,-1027.1099999999999,3266.9200000000001
5392.0,23480.5,-26334.700000000001,-2090.1799999999998,-21171.0,3223.6399999999999,-496.149,3170.2199999999998
5393.0,26853.799999999999,-34237.199999999997,-6351.96,-27657.900000000001,4113.5799999999999,415.822,3288.2399999999998
5394.0,32311.900000000001,-46099.099999999999,-11088.5,-35234.0,3471.2399999999998,1763.02,3424.7600000000002
5395.0,35099.900000000001,-74009.600000000006,-37354.099999999999,-62135.800000000003,-1404.46,6312.7700000000004,4364.96
5396.0,5897.3000000000002,1529.9000000000001,3354.21,-1377.6500000000001,52.844999999999999,-2181.5,1065.6300000000001
5397.0,6544.6999999999998,-372.786,2885.4899999999998,-2718.9299999999998,14.010199999999999,-2280.23,1075.3299999999999
5398.0,6983.6499999999996,-2844.6199999999999,1463.49,-4748.0600000000004,253.327,-2168.96,1166.54
5399.0,8140.1599999999999,-4778.0699999999997,1282.99,-5983.3100000000004,753.14700000000005,-2086.9899999999998,1414.1800000000001
5400.0,9306.9599999999991,-7255.4700000000003,614.87800000000004,-7788.5200000000004,888.05799999999999,-1937.21,1480.26
5401.0,10920.5,-8578.4200000000001,1035.51,-8436.2600000000002,1831.26,-1491.21,1953.1099999999999
5402.0,14514.700000000001,-8523.6200000000008,5005.5699999999997,-6953.0,2654.6900000000001,-1311.5899999999999,2589.4499999999998
5403.0,17587.5,-10472.200000000001,6800.7700000000004,-7435.6700000000001,2757.0,-1214.8900000000001,2997.9699999999998
5404.0,19725.0,-14961.200000000001,4985.0,-10898.4,2636.6500000000001,-1144.96,3212.77
5405.0,20918.099999999999,-21807.099999999999,-370.55799999999999,-17279.900000000001,2610.6300000000001,-593.49199999999996,3321.25
5406.0,23887.0,-28637.200000000001,-3932.9899999999998,-22716.200000000001,3363.4299999999998,59.400599999999997,3538.0799999999999
5407.0,27528.900000000001,-40176.599999999999,-11118.299999999999,-32760.599999999999,2881.4899999999998,1886.76,3576.02
5408.0,30799.400000000001,-51613.400000000001,-20982.099999999999,-48049.400000000001,1227.1900000000001,3771.54,4457.4300000000003
5409.0,5466.5200000000004,2090.0,3207.29,-632.23699999999997,-67.324399999999997,-2244.6500000000001,1008.88
5410.0,5826.9200000000001,599.30700000000002,2787.6100000000001,-1607.3,-114.68300000000001,-2302.3000000000002,1084.02
5411.0,6159.2700000000004,-1492.3299999999999,1572.9000000000001,-3229.3400000000001,20.430800000000001,-2276.4000000000001,1245.3
5412.0,6946.6999999999998,-3553.1300000000001,925.03800000000001,-4637.3599999999997,445.29000000000002,-2236.9699999999998,1479.27
5413.0,8031.9700000000003,-5426.9499999999998,723.62699999999995,-5889.9300000000003,645.46199999999999,-2116.7600000000002,1725.2
5414.0,9554.0200000000004,-6469.4300000000003,1267.7,-6588.0799999999999,1429.2,-1842.76,2173.2399999999998
5415.0,12694.799999999999,-5890.1700000000001,5312.1599999999999,-4988.5100000000002,2398.5799999999999,-1664.4000000000001,2541.9099999999999
5416.0,15859.200000000001,-6650.3800000000001,8500.3700000000008,-4266.71,2729.9299999999998,-1350.0899999999999,2862.0700000000002
5417.0,18468.400000000001,-9755.6000000000004,8717.9099999999999,-5967.96,2622.1900000000001,-1143.48,3208.5799999999999
5418.0,19565.0,-16458.0,3486.3299999999999,-12441.9,2304.9699999999998,-916.93600000000004,3189.5999999999999
5419.0,21387.299999999999,-23183.200000000001,-1111.4400000000001,-18565.299999999999,2660.9400000000001,-191.46299999999999,3135.9499999999998
5420.0,24052.900000000001,-32370.700000000001,-7806.46,-27822.599999999999,2971.23,757.74699999999996,3557.6300000000001
5421.0,27259.099999999999,-42359.800000000003,-14200.6,-38450.900000000001,1905.8499999999999,437.56200000000001,3338.6999999999998
5422.0,1737.9200000000001,130.14599999999999,315.767,1309.26,-21.763000000000002,743.68600000000004,-226.44200000000001
5423.0,1754.98,-60.1541,210.38,1296.8800000000001,10.4261,681.55200000000002,-214.852
5424.0,1759.04,-132.226,213.89699999999999,1375.46,19.893599999999999,603.66300000000001,-207.13
5425.0,1753.4400000000001,-206.63499999999999,210.11799999999999,1432.3699999999999,32.176499999999997,511.63299999999998,-190.79599999999999
5426.0,1757.22,-297.81599999999997,178.452,1455.9400000000001,57.194299999999998,416.58300000000003,-173.339
5427.0,1762.7,-397.49400000000003,123.191,1448.0699999999999,77.598699999999994,316.86099999999999,-154.47300000000001
5428.0,1767.4100000000001,-386.416,161.822,1526.8599999999999,91.524299999999997,211.029,-132.62799999999999
5429.0,1772.77,-443.113,117.43000000000001,1512.8,103.185,102.223,-109.56
5430.0,1776.8099999999999,-379.28399999999999,176.714,1592.21,108.16800000000001,-8.8745799999999999,-85.542100000000005
5431.0,1781.1500000000001,-353.721,183.19300000000001,1607.53,110.288,-120.14,-60.412300000000002
5432.0,1785.8900000000001,-311.04599999999999,194.20699999999999,1614.04,112.70099999999999,-230.31299999999999,-34.579099999999997
5433.0,1791.8499999999999,-271.41399999999999,192.405,1594.78,108.86499999999999,-337.99900000000002,-8.3142700000000005
5434.0,1798.3299999999999,-184.69300000000001,233.251,1601.98,98.305099999999996,-441.23700000000002,16.0396
5435.0,1762.03,206.99799999999999,171.07499999999999,1318.8599999999999,20.841799999999999,728.88099999999997,-278.19200000000001
5436.0,1772.6500000000001,121.173,167.81700000000001,1408.45,52.0777,667.53200000000004,-256.97699999999998
5437.0,1781.5,-51.501800000000003,62.082999999999998,1388.24,71.224599999999995,593.50800000000004,-244.63499999999999
5438.0,1776.6700000000001,-145.37799999999999,31.857299999999999,1420.22,90.1173,506.45400000000001,-229.255
5439.0,1776.49,-166.96000000000001,61.492199999999997,1508.6700000000001,111.616,414.303,-205.32400000000001
5440.0,1781.6099999999999,-163.93100000000001,101.31999999999999,1602.74,130.06100000000001,317.54700000000003,-180.738
5441.0,1786.5699999999999,-231.298,56.5334,1602.3099999999999,145.88900000000001,215.66200000000001,-154.08500000000001
5442.0,1792.8099999999999,-208.17599999999999,87.382400000000004,1668.4000000000001,158.97499999999999,110.681,-125.63500000000001
5443.0,1799.49,-265.43099999999998,23.054300000000001,1628.77,169.29300000000001,3.4684200000000001,-95.534700000000001
5444.0,1806.4200000000001,-265.47899999999998,1.8025899999999999,1620.6300000000001,176.77099999999999,-103.82899999999999,-64.187100000000001
5445.0,1813.24,-239.899,-6.0799200000000004,1612.8099999999999,180.053,-210.99000000000001,-31.722999999999999
5446.0,1818.6700000000001,-205.61799999999999,-10.3147,1590.78,178.608,-314.90499999999997,1.27118
5447.0,1820.5699999999999,-191.53700000000001,-32.283700000000003,1526.9200000000001,168.50800000000001,-416.84100000000001,32.993699999999997
5448.0,1807.1600000000001,429.404,255.90000000000001,1505.78,51.780700000000003,727.53899999999999,-313.26100000000002
5449.0,1813.4400000000001,205.03700000000001,109.934,1457.96,79.620400000000004,664.77999999999997,-286.19
5450.0,1824.7,183.83500000000001,149.55600000000001,1590.28,103.05500000000001,591.202,-271.79599999999999
5451.0,1821.3,51.660400000000003,76.311999999999998,1581.3900000000001,125.756,506.98500000000001,-255.36099999999999
5452.0,1820.3399999999999,41.237699999999997,112.66800000000001,1680.0999999999999,146.077,416.70400000000001,-227.14099999999999
5453.0,1825.71,-115.575,-12.128500000000001,1614.3800000000001,163.96000000000001,320.88400000000001,-199.32300000000001
5454.0,1831.3,-30.375800000000002,91.814999999999998,1766.5699999999999,180.12,220.60900000000001,-169.27199999999999
5455.0,1838.72,-149.00800000000001,-23.409700000000001,1691.01,193.97300000000001,117.03400000000001,-137.327
5456.0,1847.1900000000001,-15.9039,99.106700000000004,1842.3699999999999,205.52199999999999,11.3977,-103.82599999999999
5457.0,1855.6099999999999,-52.778199999999998,37.890300000000003,1797.8900000000001,213.76300000000001,-94.4529,-68.370199999999997
5458.0,1864.55,53.601999999999997,107.733,1872.1500000000001,217.571,-199.90000000000001,-32.018300000000004
5459.0,1868.6400000000001,22.735499999999998,38.996499999999997,1784.96,216.65600000000001,-302.13600000000002,5.1526699999999996
5460.0,1869.6300000000001,144.70500000000001,128.69,1831.3,207.643,-403.65699999999998,42.725099999999998
5461.0,1849.3800000000001,495.89699999999999,163.10499999999999,1533.02,56.238500000000002,716.36000000000001,-336.49599999999998
5462.0,1855.6300000000001,442.613,183.67599999999999,1655.5599999999999,84.3553,653.96000000000004,-309.10899999999998
5463.0,1867.2,248.202,44.438299999999998,1610.72,110.90900000000001,581.13699999999994,-294.84300000000002
5464.0,1865.0699999999999,211.81100000000001,61.232100000000003,1694.1900000000001,135.119,500.75400000000002,-275.74200000000002
5465.0,1866.1099999999999,144.114,36.463799999999999,1734.4100000000001,158.375,413.67599999999999,-246.251
5466.0,1872.8499999999999,194.15100000000001,114.01600000000001,1874.0699999999999,178.81100000000001,320.38600000000002,-216.452
5467.0,1879.6900000000001,91.993300000000005,25.228999999999999,1837.6800000000001,195.203,222.68600000000001,-184.148
5468.0,1888.52,166.952,98.711299999999994,1955.1700000000001,208.624,121.437,-149.76300000000001
5469.0,1898.02,80.526700000000005,-3.9683899999999999,1886.1700000000001,217.89099999999999,18.547000000000001,-113.949
5470.0,1907.8,135.042,21.2593,1933.0,223.958,-84.941400000000002,-76.209599999999995
5471.0,1918.3699999999999,122.447,-29.8474,1889.6900000000001,227.22999999999999,-187.55199999999999,-37.443800000000003
5472.0,1922.1900000000001,200.38,10.8583,1913.01,225.78700000000001,-287.66300000000001,2.4176700000000002
5473.0,1922.8399999999999,150.38200000000001,-65.578000000000003,1792.6800000000001,217.63,-387.767,43.510300000000001
5474.0,1904.74,708.15200000000004,199.41200000000001,1697.8499999999999,68.365899999999996,701.75300000000004,-362.77999999999997
5475.0,1911.97,560.65499999999997,117.55800000000001,1723.4200000000001,92.893199999999993,639.65300000000002,-336.005
5476.0,1922.6800000000001,479.34899999999999,96.027600000000007,1788.6900000000001,125.68000000000001,570.20899999999995,-321.81999999999999
5477.0,1923.0799999999999,429.68200000000002,97.718400000000003,1858.49,154.483,494.57100000000003,-298.23000000000002
5478.0,1925.29,363.45999999999998,67.171899999999994,1898.48,174.15100000000001,409.81099999999998,-266.48500000000001
5479.0,1931.7,298.19600000000003,24.228999999999999,1920.51,192.48599999999999,318.815,-233.77699999999999
5480.0,1941.1500000000001,312.18299999999999,45.988700000000001,1999.3900000000001,209.53700000000001,224.03999999999999,-199.285
5481.0,1951.78,282.46499999999997,10.0581,2011.0799999999999,223.30799999999999,125.786,-162.41999999999999
5482.0,1965.0899999999999,334.76499999999999,41.391100000000002,2080.8699999999999,235.44,25.947900000000001,-123.908
5483.0,1978.05,383.56599999999997,56.842599999999997,2122.1700000000001,243.488,-74.296899999999994,-83.1631
5484.0,1991.3299999999999,408.68700000000001,39.727400000000003,2117.54,246.82499999999999,-173.87299999999999,-41.258600000000001
5485.0,1995.6800000000001,460.86099999999999,53.588999999999999,2116.7600000000002,244.52199999999999,-271.47199999999998,1.54094
5486.0,1995.74,493.69,60.8887,2083.3400000000001,234.96700000000001,-369.12200000000001,45.719299999999997
5487.0,1971.1099999999999,816.41800000000001,130.93100000000001,1759.79,78.369299999999996,685.20699999999999,-388.07499999999999
5488.0,1982.77,764.62099999999998,137.524,1874.55,107.363,625.84299999999996,-365.39100000000002
5489.0,1988.3699999999999,596.72500000000002,29.872900000000001,1848.8599999999999,135.97499999999999,558.85400000000004,-347.48500000000001
5490.0,1988.6600000000001,587.67899999999997,69.452799999999996,1960.4000000000001,162.06100000000001,485.80599999999998,-318.14499999999998
5491.0,1995.3399999999999,508.65699999999998,19.625399999999999,1985.0699999999999,186.083,404.63799999999998,-285.976
5492.0,2004.04,569.27300000000002,96.852900000000005,2130.1399999999999,206.98699999999999,316.82999999999998,-251.41399999999999
5493.0,2016.1500000000001,475.529,5.1349900000000002,2100.0300000000002,223.99199999999999,224.995,-214.49799999999999
5494.0,2029.3499999999999,560.26400000000001,77.623500000000007,2224.52,237.69800000000001,129.86600000000001,-175.35400000000001
5495.0,2045.03,491.21499999999997,-17.9176,2172.3600000000001,247.15299999999999,33.124600000000001,-134.42500000000001
5496.0,2060.2399999999998,557.55999999999995,10.305899999999999,2231.0100000000002,252.68799999999999,-63.9039,-91.444199999999995
5497.0,2076.6700000000001,556.53800000000001,-37.681800000000003,2200.6500000000001,255.51599999999999,-160.06100000000001,-47.122799999999998
5498.0,2082.9400000000001,638.92999999999995,3.8388399999999998,2231.8299999999999,253.03200000000001,-254.459,-1.4900599999999999
5499.0,2083.3099999999999,582.25099999999998,-78.029899999999998,2112.9899999999998,243.87100000000001,-349.07299999999998,45.918399999999998
5500.0,2052.0799999999999,1018.71,148.316,1911.25,90.939499999999995,666.86300000000006,-416.74299999999999
5501.0,2063.5100000000002,920.61099999999999,108.139,1975.1099999999999,120.004,610.91600000000005,-394.28899999999999
5502.0,2068.23,826.05899999999997,67.609399999999994,2016.3299999999999,150.018,546.96699999999998,-373.18099999999998
5503.0,2070.96,819.93600000000004,101.825,2128.04,176.64699999999999,476.20800000000003,-340.94499999999999
5504.0,2079.54,736.80499999999995,41.997799999999998,2146.5999999999999,198.37899999999999,397.95600000000002,-306.32299999999998
5505.0,2090.0500000000002,727.26800000000003,42.392600000000002,2218.5999999999999,217.35400000000001,313.39999999999998,-269.21199999999999
5506.0,2105.52,709.24800000000005,19.723400000000002,2261.9299999999998,234.90700000000001,224.94499999999999,-230.21799999999999
5507.0,2122.0100000000002,733.16999999999996,25.9316,2324.3099999999999,248.547,133.541,-188.714
5508.0,2142.3699999999999,745.71400000000006,5.96183,2352.71,260.14800000000002,40.6511,-145.239
5509.0,2162.3800000000001,842.096,58.745600000000003,2441.1500000000001,267.572,-52.338299999999997,-99.472700000000003
5510.0,2182.1700000000001,828.69100000000003,-4.9991599999999998,2399.5900000000001,269.83100000000002,-144.77799999999999,-52.183900000000001
5511.0,2190.8899999999999,926.22500000000002,49.159799999999997,2448.1799999999998,266.476,-235.577,-3.8845200000000002
5512.0,2191.5700000000002,919.95799999999997,16.694199999999999,2383.3899999999999,256.298,-326.63200000000001,46.408799999999999
5513.0,2144.1799999999998,1193.2,132.83600000000001,2032.1800000000001,100.824,646.68499999999995,-445.16199999999998
5514.0,2155.3800000000001,1109.0999999999999,101.85299999999999,2102.8899999999999,129.571,593.572,-422.35000000000002
5515.0,2158.6599999999999,1008.9299999999999,50.2575,2133.7399999999998,157.31999999999999,532.23400000000004,-397.14299999999997
5516.0,2164.0700000000002,977.73699999999997,51.689,2216.96,183.44800000000001,464.47899999999998,-362.488
5517.0,2176.5300000000002,942.93700000000001,33.419400000000003,2280.4000000000001,207.60300000000001,389.83199999999999,-326.39100000000002
5518.0,2191.3200000000002,966.98900000000003,60.458399999999997,2382.8699999999999,228.726,309.166,-287.58999999999997
5519.0,2210.0500000000002,932.48199999999997,14.810600000000001,2407.1700000000001,245.77099999999999,224.429,-246.244
5520.0,2231.0300000000002,980.82500000000005,38.239400000000003,2491.8499999999999,259.64299999999997,136.97999999999999,-202.499
5521.0,2254.8099999999999,975.09400000000005,-5.81433,2500.8200000000002,268.90800000000002,48.059399999999997,-156.708
5522.0,2278.6999999999998,1010.35,-19.757200000000001,2527.7600000000002,274.01999999999998,-40.772300000000001,-108.738
5523.0,2303.4400000000001,1065.8,-21.068200000000001,2554.8499999999999,276.10000000000002,-128.738,-58.975099999999998
5524.0,2315.8699999999999,1110.3800000000001,-23.660900000000002,2552.4499999999998,272.70699999999999,-215.24000000000001,-7.8415100000000004
5525.0,2317.6100000000001,1098.25,-62.895099999999999,2485.8499999999999,262.28800000000001,-302.12200000000001,45.395600000000002
5526.0,2245.27,1408.8299999999999,157.37899999999999,2193.23,108.02200000000001,624.68399999999997,-473.45800000000003
5527.0,2259.1700000000001,1289.52,79.500500000000002,2218.27,138.52199999999999,573.89400000000001,-450.06700000000001
5528.0,2264.6500000000001,1254.0899999999999,83.245900000000006,2306.48,167.38800000000001,515.90200000000004,-422.512
5529.0,2273.4400000000001,1211.5699999999999,66.555400000000006,2375.0300000000002,194.50999999999999,451.68200000000002,-385.62299999999999
5530.0,2288.75,1193.79,57.606699999999996,2451.46,216.87799999999999,380.31,-347.27499999999998
5531.0,2307.2800000000002,1158.0699999999999,17.169699999999999,2490.7199999999998,236.64099999999999,303.53399999999999,-306.125
5532.0,2330.3200000000002,1192.98,33.500900000000001,2581.0700000000002,253.953,222.995,-262.73099999999999
5533.0,2355.9899999999998,1189.3399999999999,-1.7550300000000001,2611.8400000000001,267.40199999999999,139.91399999999999,-216.72800000000001
5534.0,2385.2600000000002,1250.71,14.4665,2686.0900000000001,278.00999999999999,55.7881,-168.501
5535.0,2415.21,1309.4000000000001,17.718299999999999,2736.0100000000002,284.5,-28.2547,-117.803
5536.0,2443.8000000000002,1349.53,-2.3157899999999998,2748.9899999999998,285.255,-111.574,-65.476600000000005
5537.0,2460.3299999999999,1406.21,3.4157099999999998,2760.9899999999998,281.07799999999997,-193.28700000000001,-11.680099999999999
5538.0,2464.0,1449.6300000000001,17.270399999999999,2753.3800000000001,270.00400000000002,-275.53699999999998,44.606299999999997
5539.0,2359.52,1588.6500000000001,127.535,2311.4400000000001,105.27,596.42200000000003,-501.18299999999999
5540.0,2374.0500000000002,1510.3399999999999,88.200100000000006,2368.8400000000001,143.649,550.72699999999998,-477.45800000000003
5541.0,2382.6100000000001,1449.6700000000001,58.336199999999998,2425.1700000000001,173.541,497.48000000000002,-446.971
5542.0,2395.04,1422.8399999999999,48.414000000000001,2504.73,199.23699999999999,436.37,-407.99200000000002
5543.0,2414.8000000000002,1408.4000000000001,35.000900000000001,2579.5599999999999,223.40199999999999,369.15300000000002,-368.07100000000003
5544.0,2438.7199999999998,1430.3399999999999,44.0105,2672.5,244.255,296.83800000000002,-325.12599999999998
5545.0,2466.1199999999999,1425.1300000000001,12.781700000000001,2719.0900000000001,261.04000000000002,220.79900000000001,-279.56799999999998
5546.0,2497.6799999999998,1471.27,19.223099999999999,2796.96,274.47000000000003,142.572,-231.35400000000001
5547.0,2531.4099999999999,1495.8699999999999,-7.77217,2832.5,283.10000000000002,63.331299999999999,-180.97999999999999
5548.0,2567.02,1535.27,-30.655899999999999,2862.4400000000001,287.44299999999998,-15.5061,-128.09700000000001
5549.0,2601.6799999999998,1611.4100000000001,-21.331199999999999,2911.0599999999999,288.44600000000003,-93.241900000000001,-73.318299999999994
5550.0,2623.21,1653.3399999999999,-34.738199999999999,2910.5799999999999,283.68200000000002,-169.66900000000001,-16.828800000000001
5551.0,2628.8899999999999,1658.49,-60.555399999999999,2868.9400000000001,272.07900000000001,-246.65199999999999,42.225700000000003
5552.0,2496.1500000000001,1800.0999999999999,108.819,2448.0,110.092,565.22799999999995,-535.40200000000004
5553.0,2503.3899999999999,1738.45,91.382400000000004,2517.9899999999998,148.97200000000001,525.15800000000002,-506.14800000000002
5554.0,2514.6799999999998,1687.45,65.532399999999996,2580.4699999999998,179.99299999999999,476.90600000000001,-471.73500000000001
5555.0,2532.0500000000002,1688.0999999999999,73.600200000000001,2681.3800000000001,206.221,419.63099999999997,-431.49000000000001
5556.0,2555.75,1657.6900000000001,35.749400000000001,2734.9400000000001,229.148,356.43400000000003,-389.35500000000002
5557.0,2584.75,1676.21,32.558199999999999,2819.96,248.73599999999999,288.71100000000001,-344.27800000000002
5558.0,2617.5799999999999,1685.95,7.9087800000000001,2877.1900000000001,265.62299999999999,217.625,-296.738
5559.0,2654.9299999999998,1737.96,12.3889,2958.0300000000002,278.17899999999997,144.65299999999999,-246.45500000000001
5560.0,2695.0599999999999,1770.26,-14.456799999999999,2998.8800000000001,287.61399999999998,71.084800000000001,-193.66999999999999
5561.0,2737.27,1873.48,19.941500000000001,3091.9099999999999,292.42099999999999,-2.0219800000000001,-138.46700000000001
5562.0,2776.8400000000001,1892.8299999999999,-32.121600000000001,3084.5,291.69299999999998,-73.953900000000004,-81.212699999999998
5563.0,2803.79,1986.2,1.33552,3137.7800000000002,286.11599999999999,-144.46000000000001,-22.348199999999999
5564.0,2812.8699999999999,2003.3499999999999,-15.3384,3111.9200000000001,274.58199999999999,-215.59,39.572800000000001
5565.0,2641.54,2015.6900000000001,95.895600000000002,2585.6199999999999,117.943,535.06600000000003,-569.35799999999995
5566.0,2644.5999999999999,1964.8199999999999,85.5334,2660.3499999999999,153.25700000000001,498.19400000000002,-534.24699999999996
5567.0,2659.3699999999999,1927.3,64.426500000000004,2732.0,182.626,453.46600000000001,-496.12099999999998
5568.0,2681.3099999999999,1912.96,48.378100000000003,2811.23,208.41800000000001,400.44400000000002,-454.45499999999998
5569.0,2710.4899999999998,1918.71,37.395400000000002,2894.9299999999998,232.03399999999999,341.947,-410.488
5570.0,2745.3899999999999,1944.6900000000001,32.601900000000001,2982.0,252.10499999999999,279.25999999999999,-363.79199999999997
5571.0,2784.1100000000001,1969.5599999999999,14.2948,3049.9299999999998,268.14699999999999,213.542,-314.14299999999997
5572.0,2827.75,2015.23,4.0344100000000003,3120.71,280.41699999999997,146.27799999999999,-261.87400000000002
5573.0,2874.04,2072.1599999999999,-5.9576000000000002,3183.77,287.89999999999998,78.627600000000001,-207.053
5574.0,2922.5700000000002,2114.1999999999998,-39.900599999999997,3214.2199999999998,290.91300000000001,11.834300000000001,-149.864
5575.0,2969.29,2212.0599999999999,-20.267299999999999,3285.3400000000001,290.13,-53.514600000000002,-90.187700000000007
5576.0,3001.8000000000002,2251.5,-45.2956,3286.8699999999999,283.75299999999999,-117.54000000000001,-29.0184
5577.0,3014.3200000000002,2279.1500000000001,-53.862099999999998,3276.04,270.99099999999999,-182.21899999999999,35.2042
5578.0,2794.1199999999999,2275.1500000000001,124.154,2765.1399999999999,123.14400000000001,503.10399999999998,-600.40499999999997
5579.0,2798.1599999999999,2186.27,65.942599999999999,2793.2399999999998,155.874,468.91199999999998,-561.54200000000003
5580.0,2817.2800000000002,2208.9000000000001,95.419899999999998,2918.8299999999999,184.881,427.81400000000002,-520.96299999999997
5581.0,2844.4299999999998,2162.8600000000001,38.148800000000001,2959.0900000000001,211.078,379.42099999999999,-477.87599999999998
5582.0,2879.0799999999999,2217.8899999999999,66.478300000000004,3085.5300000000002,233.30799999999999,325.70100000000002,-431.88
5583.0,2919.71,2190.8899999999999,-0.693963,3113.6599999999999,252.405,268.28899999999999,-383.30900000000003
5584.0,2965.04,2281.9299999999998,37.722799999999999,3242.7199999999998,267.82499999999999,208.36799999999999,-331.78800000000001
5585.0,3015.1599999999999,2285.4099999999999,-23.378699999999998,3267.1500000000001,279.262,147.25,-277.62900000000002
5586.0,3068.6199999999999,2397.98,14.1684,3383.1599999999999,286.58300000000003,86.217299999999994,-220.69900000000001
5587.0,3124.04,2441.8499999999999,-24.906300000000002,3413.98,289.536,26.235700000000001,-161.35599999999999
5588.0,3177.0599999999999,2548.5300000000002,-2.29318,3494.4400000000001,286.654,-32.167900000000003,-99.715599999999995
5589.0,3215.52,2574.8200000000002,-45.1053,3485.0500000000002,279.64800000000002,-88.979799999999997,-36.188400000000001
5590.0,3232.6900000000001,2666.8299999999999,7.57437,3543.0799999999999,266.62400000000002,-146.71700000000001,30.552
5591.0,2957.4299999999998,2513.5999999999999,121.31999999999999,2919.1900000000001,123.983,467.13200000000001,-629.245
5592.0,2963.3800000000001,2439.6100000000001,69.557299999999998,2953.4400000000001,155.91,436.82900000000001,-588.01400000000001
5593.0,2986.9400000000001,2464.8400000000001,91.557699999999997,3073.8000000000002,184.047,399.512,-545.52700000000004
5594.0,3019.3600000000001,2425.1500000000001,30.573,3112.6199999999999,209.53299999999999,355.90199999999999,-500.67500000000001
5595.0,3060.1999999999998,2495.1500000000001,63.763800000000003,3246.79,231.70699999999999,307.52699999999999,-453.11700000000002
5596.0,3107.4699999999998,2486.7800000000002,5.0535699999999997,3286.8200000000002,250.66800000000001,255.833,-402.904
5597.0,3159.5,2585.0500000000002,41.106099999999998,3417.5599999999999,265.01100000000002,202.11000000000001,-349.596
5598.0,3216.5900000000001,2590.6700000000001,-26.892399999999999,3439.6399999999999,275.64499999999998,147.61199999999999,-293.553
5599.0,3277.0300000000002,2722.3400000000001,21.285,3571.4099999999999,281.096,93.565399999999997,-234.982
5600.0,3339.6199999999999,2725.2399999999998,-66.438699999999997,3559.5599999999999,282.19799999999998,40.9664,-173.643
5601.0,3399.8099999999999,2886.4099999999999,4.3435699999999997,3694.5500000000002,278.93900000000002,-9.7413600000000002,-110.21599999999999
5602.0,3444.7600000000002,2885.3899999999999,-70.983599999999996,3660.02,270.637,-58.832799999999999,-44.454799999999999
5603.0,3466.8400000000001,2974.6500000000001,-24.389299999999999,3719.8699999999999,256.33699999999999,-108.901,24.327500000000001
5604.0,3131.1700000000001,2744.7800000000002,103.61199999999999,3061.2199999999998,124.56699999999999,428.416,-657.10900000000004
5605.0,3140.0599999999999,2729.5799999999999,101.30500000000001,3145.2800000000002,153.59299999999999,401.84899999999999,-614.14499999999998
5606.0,3168.04,2710.9099999999999,69.396299999999997,3212.6300000000001,182.04300000000001,368.75,-569.947
5607.0,3206.4400000000001,2744.3800000000001,70.862399999999994,3316.1300000000001,206.93700000000001,330.38799999999998,-523.49000000000001
5608.0,3253.5500000000002,2757.27,36.291800000000002,3385.25,228.07400000000001,287.35399999999998,-474.346
5609.0,3307.3099999999999,2818.9699999999998,37.282400000000003,3488.1500000000001,245.49700000000001,241.78899999999999,-422.33300000000003
5610.0,3366.5700000000002,2857.9699999999998,3.9704000000000002,3553.4200000000001,259.06900000000002,194.595,-367.45400000000001
5611.0,3430.8699999999999,2952.3099999999999,15.2438,3659.1300000000001,268.33199999999999,147.26400000000001,-309.75
5612.0,3498.6700000000001,3007.2199999999998,-21.632200000000001,3710.79,273.14499999999998,100.73999999999999,-249.33799999999999
5613.0,3568.6799999999998,3136.4200000000001,9.4126200000000004,3823.2600000000002,273.37400000000002,56.082000000000001,-186.35900000000001
5614.0,3635.9699999999998,3187.71,-36.1905,3848.3899999999999,268.12400000000002,13.598000000000001,-121.116
5615.0,3687.3600000000001,3290.5700000000002,-12.3432,3920.1799999999998,258.59199999999998,-27.180800000000001,-53.584099999999999
5616.0,3714.9499999999998,3316.9899999999998,-31.695499999999999,3922.0900000000001,244.64599999999999,-68.993700000000004,17.204799999999999
5617.0,3311.75,3026.46,132.191,3251.4699999999998,121.82599999999999,386.44400000000002,-682.26900000000001
5618.0,3327.9899999999998,2974.54,79.478499999999997,3286.6399999999999,149.11799999999999,363.84300000000002,-640.12800000000004
5619.0,3359.3299999999999,3017.0599999999999,99.224199999999996,3405.2600000000002,176.834,335.26499999999999,-593.54300000000001
5620.0,3404.25,3000.77,39.731499999999997,3450.0500000000002,200.73400000000001,302.33699999999999,-545.85500000000002
5621.0,3457.8099999999999,3091.1500000000001,71.724500000000006,3587.9299999999998,221.108,265.13400000000001,-495.04500000000002
5622.0,3518.6799999999998,3097.3099999999999,6.42685,3627.3099999999999,237.85900000000001,226.08600000000001,-441.73899999999998
5623.0,3585.3400000000001,3224.0799999999999,50.490699999999997,3773.79,249.989,185.881,-385.20400000000001
5624.0,3656.6799999999998,3238.0,-27.924600000000002,3793.4499999999998,257.89499999999998,146.09800000000001,-326.036
5625.0,3732.6300000000001,3398.75,31.586099999999998,3947.0,260.80000000000001,107.629,-264.16399999999999
5626.0,3809.3600000000001,3407.23,-65.074399999999997,3936.5500000000002,259.00599999999997,71.448400000000007,-199.69900000000001
5627.0,3884.3400000000001,3589.5100000000002,13.7387,4092.8200000000002,252.73400000000001,37.728999999999999,-132.90700000000001
5628.0,3942.5,3591.6700000000001,-68.2363,4065.9000000000001,241.91499999999999,5.9836999999999998,-63.724499999999999
5629.0,3976.1599999999999,3700.1199999999999,-9.3786799999999992,4154.8400000000001,226.178,-26.898499999999999,8.3216400000000004
5630.0,3501.3299999999999,3285.7600000000002,131.285,3415.1399999999999,114.64700000000001,339.77300000000002,-706.61800000000005
5631.0,3524.96,3268.7600000000002,100.59699999999999,3472.3400000000001,143.02600000000001,322.971,-665.17399999999998
5632.0,3560.6399999999999,3292.46,90.751999999999995,3560.8099999999999,169.43299999999999,299.315,-616.75699999999995
5633.0,3611.9899999999998,3321.8699999999999,65.829700000000003,3641.98,192.577,271.89400000000001,-567.70799999999997
5634.0,3672.3299999999999,3383.3400000000001,57.399900000000002,3741.2600000000002,211.501,240.94,-515.50699999999995
5635.0,3740.1900000000001,3442.2600000000002,33.9833,3825.0900000000001,226.602,208.55099999999999,-460.70800000000003
5636.0,3814.5799999999999,3527.0799999999999,25.227399999999999,3922.1399999999999,237.24100000000001,175.85599999999999,-402.88499999999999
5637.0,3893.27,3614.77,11.075900000000001,4009.6500000000001,243.68600000000001,144.06700000000001,-342.30200000000002
5638.0,3976.5900000000001,3713.7199999999998,0.457289,4097.4099999999999,245.03200000000001,114.137,-279.14600000000002
5639.0,4061.3099999999999,3830.9200000000001,4.2823700000000002,4192.8900000000003,242.03899999999999,87.068899999999999,-213.26300000000001
5640.0,4143.6300000000001,3922.6700000000001,-13.8307,4258.4899999999998,233.58199999999999,62.7042,-145.381
5641.0,4208.4399999999996,4009.2199999999998,-15.9415,4318.4899999999998,221.27699999999999,40.546799999999998,-74.705600000000004
5642.0,4248.1899999999996,4061.6100000000001,-16.368300000000001,4356.54,205.429,17.143999999999998,-1.1394899999999999
5643.0,3701.6900000000001,3559.5799999999999,135.84100000000001,3586.3899999999999,103.654,288.91500000000002,-731.52099999999996
5644.0,3729.3800000000001,3555.21,108.462,3645.25,133.94,278.75200000000001,-688.66999999999996
5645.0,3771.1599999999999,3589.27,96.808899999999994,3731.9499999999998,159.04900000000001,260.71199999999999,-639.24099999999999
5646.0,3828.4299999999998,3628.8899999999999,70.881,3812.8099999999999,180.828,238.85499999999999,-588.76999999999998
5647.0,3895.9200000000001,3707.1999999999998,67.611000000000004,3918.98,198.477,214.56100000000001,-535.30100000000004
5648.0,3970.9699999999998,3767.9099999999999,34.8005,3995.3400000000001,212.17599999999999,189.28700000000001,-479.31700000000001
5649.0,4052.73,3883.1199999999999,46.079599999999999,4115.1899999999996,221.05000000000001,164.417,-420.226
5650.0,4139.1099999999997,3951.1999999999998,2.2259699999999998,4176.3500000000004,225.51400000000001,141.113,-358.56799999999998
5651.0,4230.3900000000003,4093.5900000000001,25.883099999999999,4302.8699999999999,224.881,120.25700000000001,-294.25700000000001
5652.0,4321.6700000000001,4156.0500000000002,-31.5106,4341.2700000000004,219.38200000000001,102.66,-227.49000000000001
5653.0,4411.4399999999996,4313.3699999999999,9.6997699999999991,4472.25,209.417,88.280100000000004,-158.45400000000001
5654.0,4483.5500000000002,4364.96,-32.570300000000003,4499.3699999999999,195.494,76.312799999999996,-86.871099999999998
5655.0,4529.9799999999996,4447.0600000000004,-7.1878599999999997,4572.1199999999999,178.22800000000001,63.207700000000003,-12.618600000000001
5656.0,3911.8800000000001,3859.3000000000002,158.96299999999999,3776.52,91.665099999999995,235.297,-756.86000000000001
5657.0,3941.4899999999998,3834.6700000000001,103.383,3805.1399999999999,121.98,231.20699999999999,-711.13300000000004
5658.0,3989.3400000000001,3912.2800000000002,123.756,3923.8800000000001,146.03200000000001,219.404,-660.67499999999995
5659.0,4052.6199999999999,3927.1199999999999,61.456200000000003,3968.1199999999999,166.35499999999999,203.428,-609.10500000000002
5660.0,4127.3299999999999,4052.27,93.152600000000007,4110.7600000000002,182.19200000000001,185.98699999999999,-554.33699999999999
5661.0,4209.5100000000002,4094.5100000000002,30.588000000000001,4158.6400000000003,193.92699999999999,168.137,-497.38499999999999
5662.0,4299.2200000000003,4241.8900000000003,62.8703,4302.25,200.81100000000001,151.55000000000001,-437.154
5663.0,4392.5100000000002,4306.5600000000004,6.5717600000000003,4353.21,203.33500000000001,137.101,-374.63799999999998
5664.0,4491.3299999999999,4470.9099999999999,43.6021,4496.9099999999999,200.46000000000001,125.80500000000001,-309.411
5665.0,4590.5299999999997,4554.3400000000001,-0.86533000000000004,4552.8500000000004,193.53899999999999,118.42700000000001,-241.833
5666.0,4687.4399999999996,4707.2600000000002,30.0792,4679.1899999999996,181.08799999999999,114.491,-172.14699999999999
5667.0,4766.0500000000002,4755.6700000000001,-19.3308,4705.7200000000003,165.483,113.309,-99.816900000000004
5668.0,4818.6499999999996,4858.9700000000003,24.447199999999999,4805.21,147.24199999999999,110.898,-24.873200000000001
5669.0,4128.1800000000003,4141.71,161.38499999999999,3944.6399999999999,78.0488,179.36600000000001,-780.95299999999997
5670.0,4160.29,4139.96,119.486,3985.29,107.252,180.79499999999999,-732.375
5671.0,4214.21,4216.3999999999996,127.039,4091.0500000000002,129.72200000000001,175.114,-680.96100000000001
5672.0,4283.6000000000004,4259.7299999999996,81.506200000000007,4151.3699999999999,148.398,165.494,-628.33399999999995
5673.0,4365.3900000000003,4383.8100000000004,100.248,4281.75,162.249,155.13300000000001,-572.505
5674.0,4454.71,4441.5200000000004,41.969900000000003,4334.7600000000002,172.09,145.12799999999999,-514.67499999999995
5675.0,4551.5299999999997,4607.3900000000003,82.452100000000002,4488.04,176.523,137.119,-453.59300000000002
5676.0,4652.6499999999996,4667.6400000000003,11.5687,4526.9899999999998,176.84299999999999,132.071,-390.35399999999998
5677.0,4758.5500000000002,4852.1300000000001,60.588799999999999,4685.5200000000004,171.417,130.74700000000001,-324.56099999999998
5678.0,4864.2399999999998,4908.96,-16.691199999999998,4712.1300000000001,161.566,133.87899999999999,-256.59699999999998
5679.0,4968.1099999999997,5102.2700000000004,49.091999999999999,4878.3199999999997,147.084,141.053,-186.554
5680.0,5053.9899999999998,5141.4700000000003,-14.2516,4897.8500000000004,129.75,151.24299999999999,-113.88
5681.0,5113.6300000000001,5255.8500000000004,36.914099999999998,5013.4799999999996,110.173,160.34899999999999,-38.8277
5682.0,4348.8500000000004,4448.1000000000004,185.929,4133.0799999999999,62.250599999999999,120.86499999999999,-802.98500000000001
5683.0,4384.5299999999997,4435.29,122.432,4150.6000000000004,89.605199999999996,127.587,-752.15599999999995
5684.0,4444.1899999999996,4546.5299999999997,153.28299999999999,4278.6400000000003,110.374,128.01499999999999,-699.90899999999999
5685.0,4519.8500000000004,4573.2299999999996,79.197000000000003,4309.5200000000004,127.04300000000001,125.077,-646.26499999999999
5686.0,4608.4499999999998,4733.46,122.393,4464.0699999999997,138.67699999999999,121.998,-589.66499999999996
5687.0,4705.0200000000004,4792.9399999999996,54.4514,4507.9099999999999,146.05600000000001,120.17700000000001,-531.02200000000005
5688.0,4809.04,4965.6300000000001,91.262699999999995,4658.3900000000003,148.05600000000001,121.128,-469.34699999999998
5689.0,4916.9300000000003,5047.6899999999996,33.380299999999998,4711.6800000000003,145.72,125.789,-405.66300000000001
5690.0,5029.8199999999997,5238.0600000000004,80.233699999999999,4870.3100000000004,137.85400000000001,134.99299999999999,-339.51799999999997
5691.0,5142.7299999999996,5324.9499999999998,26.041699999999999,4923.5100000000002,126.035,149.25899999999999,-271.31
5692.0,5252.8599999999997,5499.1499999999996,68.036600000000007,5070.0799999999999,108.86,167.964,-201.32400000000001
5693.0,5345.04,5547.5900000000001,10.595000000000001,5101.5500000000002,89.272199999999998,189.999,-128.70699999999999
5694.0,5410.7799999999997,5666.2600000000002,63.777700000000003,5227.0900000000001,68.463899999999995,211.006,-53.950600000000001
5695.0,4573.1499999999996,4727.3699999999999,181.983,4291.2299999999996,42.901699999999998,59.282699999999998,-822.44299999999998
5696.0,4613.0500000000002,4763.2399999999998,155.929,4343.8999999999996,68.723200000000006,71.450299999999999,-770.20600000000002
5697.0,4678.3999999999996,4845.6499999999996,146.274,4429.6999999999998,87.655100000000004,78.121899999999997,-717.31200000000001
5698.0,4760.2399999999998,4933.1700000000001,121.187,4508.1300000000001,102.09699999999999,82.067400000000006,-662.78899999999999
5699.0,4855.4099999999999,5062.5799999999999,122.012,4619.2200000000003,111.289,86.616500000000002,-605.54499999999996
5700.0,4958.7600000000002,5159.3699999999999,80.504199999999997,4689.1099999999997,115.958,93.213800000000006,-546.29100000000005
5701.0,5069.3999999999996,5335.0699999999997,110.503,4832.5600000000004,115.253,103.501,-484.28500000000003
5702.0,5184.3900000000003,5427.6499999999996,53.856699999999996,4888.1800000000003,110.012,118.319,-420.30500000000001
5703.0,5303.4499999999998,5610.7399999999998,86.371499999999997,5033.54,99.174700000000001,138.37299999999999,-354.26100000000002
5704.0,5422.4300000000003,5705.79,34.7971,5091.7299999999996,83.948499999999996,164.126,-286.31099999999998
5705.0,5538.5500000000002,5889.2799999999997,81.813999999999993,5246.7700000000004,64.595799999999997,194.95699999999999,-216.696
5706.0,5637.2700000000004,5958.9300000000003,42.138199999999998,5301.9399999999996,42.8949,229.37100000000001,-144.541
5707.0,5709.6700000000001,6059.2399999999998,74.241100000000003,5414.3699999999999,20.890499999999999,262.99599999999998,-70.543099999999995
5708.0,4800.6499999999996,5022.2600000000002,192.834,4461.46,20.770700000000001,-5.5070899999999998,-839.70100000000002
5709.0,4844.5,5084.4099999999999,182.06200000000001,4526.0299999999997,44.6905,12.483000000000001,-786.399
5710.0,4915.0500000000002,5164.8699999999999,159.16300000000001,4595.9899999999998,61.577399999999997,25.516500000000001,-732.87900000000002
5711.0,5002.8500000000004,5271.7799999999997,141.833,4680.0500000000002,73.274900000000002,36.555900000000001,-677.596
5712.0,5104.3400000000001,5396.4300000000003,126.611,4773.1199999999999,79.969999999999999,48.895499999999998,-619.98400000000004
5713.0,5214.3400000000001,5546.5100000000002,127.55800000000001,4884.3500000000004,81.502300000000005,64.286699999999996,-560.27099999999996
5714.0,5331.25,5667.3299999999999,93.216700000000003,4962.4099999999999,77.928600000000003,84.167299999999997,-498.14999999999998
5715.0,5452.2299999999996,5844.8599999999997,113.64,5094.75,69.422300000000007,109.471,-434.29700000000003
5716.0,5577.1599999999999,5981.7700000000004,93.271299999999997,5187.5799999999999,55.909300000000002,140.845,-368.41899999999998
5717.0,5701.9700000000003,6147.7700000000004,107.45999999999999,5313.1300000000001,37.975099999999998,178.55600000000001,-301.11000000000001
5718.0,5823.2299999999996,6264.4499999999998,84.475800000000007,5400.6400000000003,15.662599999999999,221.88300000000001,-232.16300000000001
5719.0,5927.6499999999996,6387.4899999999998,95.947900000000004,5511.96,-8.7202500000000001,269.07999999999998,-161.202
5720.0,6005.7600000000002,6447.4700000000003,86.282399999999996,5589.5900000000001,-31.965399999999999,315.76400000000001,-88.439700000000002
5721.0,5029.1199999999999,5316.2600000000002,204.28,4627.71,-4.7433100000000001,-73.345299999999995,-854.25900000000001
5722.0,5077.2600000000002,5405.2200000000003,209.02799999999999,4703.9099999999999,17.339400000000001,-49.286999999999999,-800.46900000000005
5723.0,5153.0600000000004,5479.5900000000001,168.46199999999999,4753.0600000000004,31.922499999999999,-29.7943,-746.33399999999995
5724.0,5246.6999999999998,5624.7600000000002,177.91300000000001,4860.9200000000001,40.898600000000002,-11.504300000000001,-690.74000000000001
5725.0,5353.8299999999999,5747.8199999999997,150.464,4938.8599999999997,44.505899999999997,8.9587000000000003,-632.59500000000003
5726.0,5469.6400000000003,5892.3199999999997,136.07499999999999,5032.3100000000004,42.796500000000002,33.279699999999998,-572.88099999999997
5727.0,5592.2399999999998,6070.6800000000003,150.45500000000001,5157.0100000000002,36.002600000000001,63.129100000000001,-510.75400000000002
5728.0,5719.0200000000004,6197.8199999999997,112.785,5230.1199999999999,24.062999999999999,99.245800000000003,-447.322
5729.0,5848.9399999999996,6373.9799999999996,126.077,5355.7399999999998,7.0403099999999998,142.239,-382.07999999999998
5730.0,5978.4700000000003,6508.1400000000003,104.63200000000001,5445.8999999999996,-14.3972,192.25200000000001,-315.91000000000003
5731.0,6104.1599999999999,6677.6800000000003,132.28399999999999,5585.5100000000002,-39.341900000000003,248.50399999999999,-247.971
5732.0,6213.7799999999997,6776.1199999999999,117.614,5674.9200000000001,-65.940899999999999,308.91300000000001,-178.64500000000001
5733.0,6297.4099999999999,6861.0100000000002,131.84899999999999,5782.8800000000001,-90.815799999999996,369.18799999999999,-107.637
5734.0,5257.8500000000004,5638.8100000000004,246.61099999999999,4819.1700000000001,-33.194099999999999,-144.19200000000001,-866.27999999999997
5735.0,5310.0900000000001,5700.8000000000002,213.29900000000001,4852.9499999999998,-13.236599999999999,-113.837,-812.13699999999994
5736.0,5390.3999999999996,5829.8299999999999,216.548,4941.5600000000004,-1.49577,-87.7166,-757.51499999999999
5737.0,5489.0500000000002,5935.2399999999998,175.69,4995.0900000000001,4.4453800000000001,-61.954799999999999,-701.57399999999996
5738.0,5601.6599999999999,6106.29,185.81999999999999,5106.75,4.7759,-33.317700000000002,-643.40899999999999
5739.0,5723.1199999999999,6261.6400000000003,172.583,5198.1499999999996,-0.25593700000000003,0.30539699999999997,-583.70699999999999
5740.0,5850.4399999999996,6412.8299999999999,152.19499999999999,5284.6000000000004,-10.853199999999999,40.291400000000003,-521.96400000000006
5741.0,5981.8599999999997,6600.0100000000002,168.274,5408.8500000000004,-26.148399999999999,87.482799999999997,-459.25900000000001
5742.0,6115.8199999999997,6767.3500000000004,168.29400000000001,5519.0100000000002,-46.594000000000001,142.46199999999999,-394.91199999999998
5743.0,6249.4700000000003,6922.0200000000004,164.339,5625.9300000000003,-71.063299999999998,205.12799999999999,-330.13099999999997
5744.0,6378.6300000000001,7065.8299999999999,165.28399999999999,5739.0100000000002,-99.427700000000002,274.59899999999999,-263.87
5745.0,6492.4099999999999,7172.04,158.22999999999999,5839.1000000000004,-128.59,348.62099999999998,-196.63499999999999
5746.0,6580.6999999999998,7260.4300000000003,176.17500000000001,5956.1700000000001,-155.209,422.74099999999999,-127.98699999999999
5747.0,5484.6300000000001,5937.8299999999999,270.25799999999998,4984.5200000000004,-65.222899999999996,-217.78200000000001,-875.38400000000001
5748.0,5540.6800000000003,6014.9300000000003,241.15799999999999,5017.6300000000001,-47.346800000000002,-181.02600000000001,-820.82299999999998
5749.0,5625.4700000000003,6144.7299999999996,234.48599999999999,5091.0900000000001,-38.5488,-148.13200000000001,-766.32100000000003
5750.0,5729.4200000000001,6283.3500000000004,215.809,5162.3599999999997,-35.585999999999999,-114.87,-710.13199999999995
5751.0,5846.2600000000002,6461.3199999999997,223.934,5266.5900000000001,-39.065199999999997,-77.730699999999999,-652.08399999999995
5752.0,5971.8999999999996,6590.3400000000001,176.47200000000001,5318.9799999999996,-47.902000000000001,-34.755600000000001,-592.57100000000003
5753.0,6103.4700000000003,6830.6999999999998,238.179,5482.8199999999997,-62.130299999999998,15.6486,-531.59900000000005
5754.0,6238.8000000000002,6927.8400000000001,158.86199999999999,5508.0299999999997,-81.476699999999994,74.237499999999997,-469.73200000000003
5755.0,6375.5600000000004,7152.6999999999998,213.518,5668.8599999999997,-105.705,141.35599999999999,-406.95800000000003
5756.0,6512.0,7265.1800000000003,166.05000000000001,5730.1000000000004,-133.95099999999999,216.91800000000001,-343.86099999999999
5757.0,6643.1800000000003,7473.4300000000003,232.255,5906.9300000000003,-165.09700000000001,299.90899999999999,-279.88600000000002
5758.0,6760.3400000000001,7543.1099999999997,189.523,5973.3500000000004,-196.941,387.767,-215.03200000000001
5759.0,6852.7200000000003,7661.6800000000003,238.66499999999999,6126.1000000000004,-225.20699999999999,476.12,-149.48500000000001
5760.0,5708.1000000000004,6217.7200000000003,281.173,5128.5500000000002,-100.23699999999999,-293.97500000000002,-881.29700000000003
5761.0,5767.9300000000003,6344.1000000000004,290.47399999999999,5194.3999999999996,-84.831199999999995,-250.77699999999999,-826.72000000000003
5762.0,5856.7299999999996,6450.2799999999997,250.00399999999999,5228.1700000000001,-79.156599999999997,-211.02000000000001,-772.29399999999998
5763.0,5963.8500000000004,6630.4499999999998,264.358,5325.8599999999997,-80.224199999999996,-170.0,-715.89499999999998
5764.0,6084.8999999999996,6763.1300000000001,218.37899999999999,5369.8800000000001,-87.103399999999993,-124.40000000000001,-658.36300000000006
5765.0,6214.6300000000001,7007.6999999999998,278.59300000000002,5524.1199999999999,-99.996799999999993,-71.730800000000002,-599.29600000000005
5766.0,6348.5699999999997,7094.04,181.57900000000001,5522.7700000000004,-118.324,-10.8354,-539.24400000000003
5767.0,6486.4700000000003,7384.75,292.06,5732.1199999999999,-141.631,59.250100000000003,-478.803
5768.0,6625.3800000000001,7479.3299999999999,214.41300000000001,5755.8199999999997,-169.524,138.86099999999999,-417.64999999999998
5769.0,6763.0799999999999,7719.71,295.34500000000003,5941.2600000000002,-201.32599999999999,227.50999999999999,-356.94
5770.0,6895.4200000000001,7781.5500000000002,217.185,5971.1300000000001,-235.98500000000001,324.245,-295.40499999999997
5771.0,7014.1499999999996,7971.6800000000003,298.03500000000003,6161.1599999999999,-270.68299999999999,426.08800000000002,-234.00700000000001
5772.0,7109.4899999999998,7980.1899999999996,239.56999999999999,6209.5600000000004,-300.20499999999998,528.899,-171.88399999999999
5773.0,5926.1899999999996,6535.3599999999997,338.47399999999999,5308.71,-138.46299999999999,-372.57299999999998,-883.40599999999995
5774.0,5989.2399999999998,6617.1899999999996,293.23599999999999,5313.1899999999996,-126.06,-322.89600000000002,-829.49800000000005
5775.0,6081.2700000000004,6792.2200000000003,312.21199999999999,5399.7299999999996,-123.672,-276.09300000000002,-774.822
5776.0,6192.4300000000003,6922.79,267.55099999999999,5431.0600000000004,-128.023,-227.40700000000001,-719.29600000000005
5777.0,6316.1000000000004,7157.8400000000001,316.97500000000002,5563.1800000000003,-139.363,-173.01599999999999,-661.69500000000005
5778.0,6447.1899999999996,7259.1800000000003,229.46199999999999,5560.8000000000002,-156.54400000000001,-110.833,-603.75599999999997
5779.0,6584.21,7573.0799999999999,354.56299999999999,5775.0600000000004,-178.99000000000001,-39.058399999999999,-544.75699999999995
5780.0,6722.1999999999998,7613.3400000000001,213.756,5724.8199999999997,-206.54300000000001,42.664200000000001,-485.96699999999998
5781.0,6861.1899999999996,7907.6999999999998,336.63499999999999,5942.1999999999998,-238.79900000000001,134.66200000000001,-427.02999999999997
5782.0,6998.5100000000002,7964.8800000000001,236.79599999999999,5940.5500000000002,-274.351,236.58099999999999,-369.024
5783.0,7130.4799999999996,8238.1299999999992,374.07799999999997,6181.6999999999998,-312.24599999999998,347.04199999999997,-310.71499999999997
5784.0,7249.4899999999998,8240.9699999999993,272.18599999999998,6187.25,-349.29300000000001,463.166,-252.898
5785.0,7346.7799999999997,8422.0699999999997,390.34399999999999,6414.3100000000004,-381.358,580.36699999999996,-195.33600000000001
5786.0,6136.7399999999998,6804.3299999999999,358.47000000000003,5439.1400000000003,-179.99600000000001,-453.30900000000003,-881.82600000000002
5787.0,6202.9700000000003,6931.1099999999997,348.16899999999998,5471.3900000000003,-170.381,-397.18099999999998,-828.61199999999997
5788.0,6298.21,7084.2700000000004,336.06299999999999,5519.1999999999998,-171.642,-343.30099999999999,-774.40499999999997
5789.0,6410.3000000000002,7257.9300000000003,328.73500000000001,5578.3800000000001,-180.50700000000001,-286.87400000000002,-718.95399999999995
5790.0,6536.4799999999996,7436.75,315.28899999999999,5638.8199999999997,-195.93700000000001,-223.696,-662.43499999999995
5791.0,6668.96,7668.9300000000003,354.02699999999999,5753.5500000000002,-217.113,-151.642,-605.25300000000004
5792.0,6804.8500000000004,7787.0600000000004,283.12799999999999,5761.2600000000002,-244.68199999999999,-69.306600000000003,-547.91800000000001
5793.0,6943.7299999999996,8074.3100000000004,387.68200000000002,5947.9499999999998,-276.16500000000002,24.259699999999999,-491.16899999999998
5794.0,7081.9099999999999,8191.71,335.30900000000003,5981.4799999999996,-312.37299999999999,128.96799999999999,-434.80599999999998
5795.0,7216.8599999999997,8409.2000000000007,400.82799999999997,6137.1000000000004,-351.61399999999998,244.15000000000001,-379.803
5796.0,7346.1199999999999,8483.0900000000001,345.63400000000001,6178.9200000000001,-393.06700000000001,368.37900000000002,-325.33999999999997
5797.0,7463.3199999999997,8652.3899999999994,417.49099999999999,6354.5100000000002,-433.041,498.62299999999999,-271.79899999999998
5798.0,7561.0200000000004,8672.25,379.99000000000001,6426.1800000000003,-466.14699999999999,630.30899999999997,-218.982
5799.0,6337.8599999999997,7082.75,401.50200000000001,5578.4300000000003,-224.72800000000001,-536.05100000000004,-876.28999999999996
5800.0,6406.6700000000001,7212.8299999999999,385.22699999999998,5596.96,-218.30600000000001,-473.36200000000002,-823.721
5801.0,6503.3500000000004,7377.8400000000001,377.94999999999999,5640.0299999999997,-223.542,-412.44600000000003,-770.12800000000004
5802.0,6617.8999999999996,7558.6199999999999,370.27699999999999,5689.5100000000002,-235.97,-348.09199999999998,-715.53300000000002
5803.0,6743.3800000000001,7772.4300000000003,389.03399999999999,5770.6499999999996,-256.22300000000001,-276.24400000000003,-659.70500000000004
5804.0,6875.3900000000003,7927.8000000000002,348.98200000000003,5795.1400000000003,-282.51799999999997,-194.41999999999999,-604.00800000000004
5805.0,7011.1199999999999,8213.8299999999999,444.41399999999999,5958.5799999999999,-313.64600000000002,-101.08499999999999,-548.35199999999998
5806.0,7145.3599999999997,8289.1800000000003,342.35199999999998,5925.6899999999996,-350.42399999999998,3.9825300000000001,-493.88600000000002
5807.0,7279.4499999999998,8548.5300000000007,437.80000000000001,6095.4399999999996,-391.10599999999999,121.089,-440.572
5808.0,7410.8699999999999,8642.2600000000002,386.12400000000002,6123.8199999999997,-434.24200000000002,249.47900000000001,-389.36000000000001
5809.0,7536.1599999999999,8873.4200000000001,496.62099999999998,6322.9200000000001,-478.774,387.51100000000002,-338.99200000000002
5810.0,7650.0200000000004,8901.1200000000008,435.95400000000001,6360.2700000000004,-521.24300000000005,531.779,-290.50299999999999
5811.0,7746.3000000000002,9040.5599999999995,526.16099999999994,6557.8199999999997,-556.50800000000004,677.78999999999996,-243.45699999999999
5812.0,6527.0100000000002,7341.4099999999999,441.31900000000002,5698.4200000000001,-272.38900000000001,-620.37599999999998,-866.16499999999996
5813.0,6598.1599999999999,7487.8999999999996,432.65300000000002,5715.8999999999996,-269.45800000000003,-551.21799999999996,-814.82899999999995
5814.0,6696.1099999999997,7663.6199999999999,429.28399999999999,5752.71,-278.34699999999998,-483.221,-762.02200000000005
5815.0,6809.5500000000002,7846.8100000000004,421.18400000000003,5789.4200000000001,-296.10700000000003,-411.173,-708.14800000000002
5816.0,6934.8199999999997,8052.0500000000002,428.04300000000001,5846.5,-320.42200000000003,-330.35500000000002,-653.57399999999996
5817.0,7064.0500000000002,8270.7900000000009,452.17099999999999,5921.6099999999997,-351.24200000000002,-238.898,-599.26099999999997
5818.0,7195.4200000000001,8416.7900000000009,411.61599999999999,5934.4200000000001,-388.29899999999998,-134.93899999999999,-545.89300000000003
5819.0,7327.8699999999999,8686.2700000000004,505.43700000000001,6085.5,-428.38200000000001,-17.941600000000001,-494.17500000000001
5820.0,7456.8699999999999,8821.0400000000009,483.37200000000001,6124.4499999999998,-472.839,111.72499999999999,-444.13
5821.0,7580.8900000000003,9002.8400000000001,531.14400000000001,6239.0600000000004,-519.95100000000002,253.07400000000001,-396.89100000000002
5822.0,7698.4499999999998,9087.1700000000001,507.91300000000001,6292.3500000000004,-567.97199999999998,404.44999999999999,-351.40100000000001
5823.0,7806.1800000000003,9219.6599999999999,564.62300000000005,6438.7799999999997,-613.08900000000006,562.45100000000002,-308.44299999999998
5824.0,7898.8000000000002,9253.8899999999994,560.05200000000002,6537.3000000000002,-649.51700000000005,722.42700000000002,-267.512
5825.0,6701.9399999999996,7577.79,478.26600000000002,5797.1800000000003,-323.19999999999999,-705.96699999999998,-851.49800000000005
5826.0,6774.54,7760.0600000000004,497.66800000000001,5833.2799999999997,-323.72399999999999,-630.44399999999996,-801.21100000000001
5827.0,6872.25,7906.3100000000004,460.21300000000002,5823.9899999999998,-337.11599999999999,-555.43700000000001,-749.68299999999999
5828.0,6984.9499999999998,8137.0699999999997,496.22000000000003,5892.21,-358.649,-475.49200000000002,-696.68200000000002
5829.0,7106.3199999999997,8314.5699999999997,476.928,5907.4700000000003,-388.404,-386.18299999999999,-643.68100000000004
5830.0,7232.1700000000001,8532.4099999999999,501.96699999999998,5968.79,-424.17399999999998,-284.84100000000001,-591.02099999999996
5831.0,7357.9899999999998,8758.0900000000001,546.20799999999997,6050.1199999999999,-464.56999999999999,-170.268,-540.04399999999998
5832.0,7481.1899999999996,8889.2700000000004,513.30499999999995,6056.75,-511.142,-42.1434,-491.34500000000003
5833.0,7601.46,9081.5599999999995,560.54999999999995,6148.0,-560.09500000000003,99.634900000000002,-445.291
5834.0,7717.8800000000001,9223.1100000000006,579.87800000000004,6219.8100000000004,-610.67200000000003,253.815,-402.72199999999998
5835.0,7826.5600000000004,9379.0799999999999,642.66899999999998,6345.2600000000002,-661.17399999999998,418.51400000000001,-362.351
5836.0,7926.3100000000004,9442.3799999999992,645.04999999999995,6426.8500000000004,-708.68299999999999,589.80399999999997,-325.69499999999999
5837.0,8013.0500000000002,9512.2199999999993,689.37400000000002,6567.4300000000003,-746.58299999999997,763.44399999999996,-291.75900000000001
5838.0,6860.0,7806.21,529.88800000000003,5890.1599999999999,-376.62299999999999,-792.524,-831.76499999999999
5839.0,6933.5600000000004,7998.0600000000004,551.86699999999996,5918.4099999999999,-380.88799999999998,-710.61699999999996,-782.90700000000004
5840.0,7030.1099999999997,8155.29,522.01400000000001,5903.6599999999999,-398.286,-628.73900000000003,-732.83799999999997
5841.0,7139.2700000000004,8386.7900000000009,559.27999999999997,5957.7700000000004,-425.40300000000002,-541.12199999999996,-680.91600000000005
5842.0,7256.1000000000004,8560.9500000000007,538.84400000000005,5955.2799999999997,-459.13600000000002,-443.09699999999998,-629.50199999999995
5843.0,7375.0299999999997,8809.2000000000007,600.79899999999998,6035.3699999999999,-500.32999999999998,-332.40600000000001,-578.89200000000005
5844.0,7492.8199999999997,8924.2900000000009,543.40700000000004,5996.0900000000001,-546.43499999999995,-207.38200000000001,-530.721
5845.0,7608.7399999999998,9211.3600000000006,674.97400000000005,6149.9200000000001,-595.51599999999996,-67.708799999999997,-485.31799999999998
5846.0,7718.1599999999999,9297.6200000000008,630.51199999999994,6130.3999999999996,-647.846,85.957999999999998,-443.24799999999999
5847.0,7821.4200000000001,9491.7999999999993,721.34299999999996,6254.46,-702.74000000000001,252.29400000000001,-405.74000000000001
5848.0,7916.7600000000002,9519.1499999999996,675.72199999999998,6253.6300000000001,-756.48000000000002,429.47000000000003,-371.226
5849.0,8004.8100000000004,9662.5599999999995,777.58299999999997,6420.54,-806.22299999999996,613.43700000000001,-341.464
5850.0,8082.6800000000003,9644.6200000000008,750.73000000000002,6480.1499999999996,-844.95699999999999,799.92700000000002,-314.91800000000001
5851.0,6998.2799999999997,8017.9499999999998,590.95699999999999,5969.5200000000004,-432.65600000000001,-879.47500000000002,-806.50599999999997
5852.0,7071.8599999999997,8213.9300000000003,611.54999999999995,5984.79,-440.71600000000001,-791.41999999999996,-759.59100000000001
5853.0,7165.8500000000004,8375.6200000000008,584.82100000000003,5958.8199999999997,-462.87700000000001,-702.77300000000002,-710.91200000000003
5854.0,7270.3000000000002,8605.7700000000004,622.60900000000004,5996.4799999999996,-494.10300000000001,-607.51099999999997,-660.495
5855.0,7379.8000000000002,8783.5799999999999,612.21799999999996,5984.7399999999998,-533.50300000000004,-501.19600000000003,-610.93799999999999
5856.0,7489.9399999999996,9008.5799999999999,659.64700000000005,6030.0500000000002,-578.99800000000005,-381.012,-562.50199999999995
5857.0,7596.6800000000003,9205.7800000000007,696.89800000000002,6063.8400000000001,-628.99099999999999,-245.977,-517.26999999999998
5858.0,7698.8699999999999,9345.3799999999992,698.80899999999997,6064.75,-684.66099999999994,-95.775499999999994,-475.82400000000001
5859.0,7794.54,9499.2800000000007,740.58199999999999,6109.3299999999999,-741.32600000000002,69.320599999999999,-438.45100000000002
5860.0,7883.6899999999996,9632.8899999999994,790.62800000000004,6171.6599999999999,-798.48400000000004,247.57599999999999,-406.39499999999998
5861.0,7964.0699999999997,9737.9200000000001,844.75199999999995,6250.7700000000004,-854.09100000000001,436.84500000000003,-377.98200000000003
5862.0,8037.8199999999997,9787.4599999999991,875.21600000000001,6329.1499999999996,-905.36199999999997,632.81899999999996,-355.625
5863.0,8104.3500000000004,9809.6000000000004,908.30899999999997,6436.1599999999999,-945.173,831.48000000000002,-337.28500000000003
5864.0,7113.9099999999999,8208.25,660.36699999999996,6031.6000000000004,-490.74099999999999,-966.43100000000004,-775.46199999999999
5865.0,7186.9700000000003,8395.5100000000002,667.74199999999996,6021.2600000000002,-502.87799999999999,-872.37099999999998,-730.95699999999999
5866.0,7277.0500000000002,8579.2600000000002,663.57299999999998,6002.1599999999999,-529.40099999999995,-777.10699999999997,-683.827
5867.0,7374.0699999999997,8796.1200000000008,693.91999999999996,6012.5900000000001,-565.83699999999999,-674.48699999999997,-635.25
5868.0,7474.4700000000003,8987.7800000000007,705.90999999999997,6002.4799999999996,-609.62,-559.86900000000003,-587.37099999999998
5869.0,7572.8199999999997,9191.75,745.50300000000004,6016.21,-660.42700000000002,-430.815,-541.77599999999995
5870.0,7666.4899999999998,9329.25,738.947,5982.4499999999998,-715.673,-285.94400000000002,-499.62
5871.0,7753.6199999999999,9547.6200000000008,837.99099999999999,6055.79,-773.10599999999999,-125.13800000000001,-462.08600000000001
5872.0,7832.1300000000001,9642.9899999999998,844.101,6039.6099999999997,-833.06399999999996,50.713999999999999,-429.50400000000002
5873.0,7902.0200000000004,9766.7399999999998,911.23199999999997,6093.0299999999997,-893.94799999999998,239.93299999999999,-403.42200000000003
5874.0,7963.04,9795.7800000000007,917.57399999999996,6100.3299999999999,-952.35900000000004,440.19600000000003,-382.01100000000002
5875.0,8018.1700000000001,9866.7099999999991,997.22500000000002,6206.4799999999996,-1004.78,647.19000000000005,-367.46699999999998
5876.0,8069.5699999999997,9853.7900000000009,1019.48,6286.3900000000003,-1045.02,856.66300000000001,-357.85500000000002
5877.0,7204.1300000000001,8369.1299999999992,733.71500000000003,6069.4399999999996,-550.81399999999996,-1052.8199999999999,-738.25300000000004
5878.0,7275.4899999999998,8553.1499999999996,735.27200000000005,6039.6499999999996,-567.04499999999996,-953.06200000000001,-696.77300000000002
5879.0,7359.9799999999996,8753.4200000000001,750.54300000000001,6022.8999999999996,-598.30100000000004,-851.28200000000004,-651.07399999999996
5880.0,7447.75,8934.1800000000003,753.12699999999995,5983.75,-639.12599999999998,-741.56100000000004,-604.65800000000002
5881.0,7536.2299999999996,9146.6100000000006,798.77499999999998,5983.8199999999997,-688.28599999999994,-619.02700000000004,-558.80499999999995
5882.0,7619.21,9315.4599999999991,820.75900000000001,5953.0900000000001,-742.88499999999999,-481.25799999999998,-515.99699999999996
5883.0,7696.1300000000001,9527.1700000000001,909.05799999999999,5987.3000000000002,-802.13999999999999,-327.21199999999999,-477.27100000000002
5884.0,7763.8900000000003,9603.7000000000007,891.87900000000002,5914.7399999999998,-865.09500000000003,-156.821,-444.38200000000001
5885.0,7822.3100000000004,9763.8600000000006,990.10199999999998,5962.4799999999996,-928.60400000000004,29.111899999999999,-417.15899999999999
5886.0,7870.0100000000002,9810.0799999999999,1009.86,5939.5699999999997,-990.572,228.69900000000001,-397.07799999999997
5887.0,7908.9099999999999,9909.8700000000008,1118.4300000000001,6022.4200000000001,-1049.96,439.08999999999997,-382.92000000000002
5888.0,7942.2600000000002,9867.75,1116.8499999999999,6022.3000000000002,-1102.74,656.14700000000005,-376.45699999999999
5889.0,7975.75,9887.4099999999999,1199.49,6143.4799999999996,-1142.99,875.27200000000005,-376.37900000000002
5890.0,7265.4499999999998,8491.0300000000007,805.98699999999997,6074.9099999999999,-612.13300000000004,-1137.98,-694.78300000000002
5891.0,7334.2700000000004,8681.3199999999997,812.76800000000003,6036.0,-632.71100000000001,-1032.8599999999999,-656.52800000000002
5892.0,7411.3900000000003,8874.1200000000008,826.03899999999999,5998.3400000000001,-668.30499999999995,-924.798,-612.58900000000006
5893.0,7487.1599999999999,9072.4699999999993,858.66700000000003,5964.9200000000001,-713.89800000000002,-808.28999999999996,-568.62400000000002
5894.0,7561.1099999999997,9265.6399999999994,901.28700000000003,5936.1800000000003,-767.32799999999997,-678.03300000000002,-524.65899999999999
5895.0,7626.4899999999998,9410.1200000000008,920.43200000000002,5872.9899999999998,-826.72000000000003,-532.22199999999998,-485.19999999999999
5896.0,7683.6899999999996,9554.2800000000007,966.39200000000005,5834.96,-890.38,-369.41899999999998,-449.91800000000001
5897.0,7728.5299999999997,9685.5,1033.1099999999999,5813.9799999999996,-954.70699999999999,-189.85900000000001,-421.55200000000002
5898.0,7762.9200000000001,9776.4200000000001,1094.6600000000001,5793.1599999999999,-1020.72,5.2094100000000001,-399.839
5899.0,7784.6899999999996,9811.0200000000004,1139.1099999999999,5761.5900000000001,-1085.0999999999999,214.04300000000001,-386.42099999999999
5900.0,7797.3500000000004,9826.3600000000006,1200.9300000000001,5766.6899999999996,-1145.9100000000001,433.279,-380.15199999999999
5901.0,7804.3699999999999,9809.8799999999992,1262.8399999999999,5800.3500000000004,-1198.4200000000001,658.94399999999996,-382.28699999999998
5902.0,7815.6300000000001,9783.5900000000001,1332.6900000000001,5885.3000000000002,-1238.0699999999999,885.88599999999997,-391.98200000000003
5903.0,7295.0699999999997,8586.1800000000003,893.41499999999996,6061.4899999999998,-674.44500000000005,-1221.3399999999999,-644.84400000000005
5904.0,7360.3100000000004,8766.5400000000009,890.91600000000005,5998.1999999999998,-699.18499999999995,-1111.2,-610.08900000000006
5905.0,7427.7700000000004,8982.7299999999996,936.46100000000001,5971.6899999999996,-739.346,-997.125,-568.01300000000003
5906.0,7489.6000000000004,9113.8099999999995,917.32600000000002,5860.6700000000001,-789.28200000000004,-874.16499999999996,-526.50900000000001
5907.0,7545.4399999999996,9334.1599999999999,1008.8099999999999,5851.1999999999998,-847.42200000000003,-736.73599999999999,-484.89499999999998
5908.0,7589.21,9445.3999999999996,1021.53,5749.1199999999999,-910.02700000000004,-583.24900000000002,-448.73200000000003
5909.0,7622.5,9643.9599999999991,1152.8399999999999,5762.4200000000001,-976.91300000000001,-412.49599999999998,-417.19299999999998
5910.0,7641.5799999999999,9648.9599999999991,1128.5599999999999,5614.4300000000003,-1045.1600000000001,-224.93799999999999,-394.12900000000002
5911.0,7648.25,9786.9200000000001,1275.4000000000001,5642.8299999999999,-1113.3199999999999,-21.692599999999999,-378.125
5912.0,7639.9200000000001,9736.6399999999994,1276.51,5530.9799999999996,-1177.45,195.19499999999999,-371.5
5913.0,7622.5799999999999,9803.5799999999999,1432.6099999999999,5595.3000000000002,-1237.8199999999999,422.05399999999997,-372.99299999999999
5914.0,7600.3100000000004,9658.1200000000008,1407.8800000000001,5509.2200000000003,-1289.01,654.947,-384.14299999999997
5915.0,7585.7200000000003,9648.9599999999991,1532.8399999999999,5622.1099999999997,-1326.96,888.24900000000002,-403.86700000000002
5916.0,7289.9300000000003,8637.9400000000005,983.77800000000002,6014.04,-737.16200000000003,-1302.26,-588.21199999999999
5917.0,7349.9099999999999,8813.6299999999992,979.71900000000005,5933.0900000000001,-766.01800000000003,-1187.29,-556.79499999999996
5918.0,7405.7600000000002,9010.1299999999992,1017.7,5875.7700000000004,-810.42399999999998,-1067.74,-517.29399999999998
5919.0,7450.9300000000003,9177.3600000000006,1054.29,5792.4499999999998,-864.375,-938.55399999999997,-478.303
5920.0,7485.46,9353.2099999999991,1127.6199999999999,5732.1999999999998,-926.22900000000004,-794.35799999999995,-439.07499999999999
5921.0,7505.2200000000003,9422.1100000000006,1129.4400000000001,5584.2399999999998,-992.59400000000005,-633.947,-406.452
5922.0,7511.0799999999999,9548.4799999999996,1225.3,5524.2200000000003,-1062.51,-456.005,-378.762
5923.0,7500.1000000000004,9578.4200000000001,1266.4300000000001,5402.6499999999996,-1131.24,-261.27699999999999,-360.738
5924.0,7474.9899999999998,9643.3299999999999,1384.6900000000001,5361.8999999999996,-1200.27,-51.076099999999997,-350.62599999999998
5925.0,7434.5799999999999,9566.8899999999994,1406.1300000000001,5230.1000000000004,-1264.79,172.56399999999999,-351.34199999999998
5926.0,7383.5699999999997,9553.0900000000001,1530.6900000000001,5223.0299999999997,-1324.3299999999999,405.67599999999999,-361.02499999999998
5927.0,7327.7200000000003,9422.5100000000002,1569.8699999999999,5163.1700000000001,-1373.1500000000001,643.83299999999997,-381.44499999999999
5928.0,7283.4499999999998,9376.5400000000009,1702.22,5251.1599999999999,-1409.1300000000001,881.18600000000004,-411.392
5929.0,7246.1899999999996,8651.9200000000001,1088.26,5940.1300000000001,-799.53499999999997,-1379.8099999999999,-524.78499999999997
5930.0,7300.6499999999996,8807.5499999999993,1068.0599999999999,5826.7600000000002,-832.12699999999995,-1260.53,-496.767
5931.0,7342.3900000000003,9035.9400000000005,1154.1900000000001,5792.0900000000001,-880.822,-1135.8699999999999,-460.13999999999999
5932.0,7367.7299999999996,9099.1599999999999,1111.27,5598.8400000000001,-938.54399999999998,-1000.86,-423.21100000000001
5933.0,7377.5,9306.3799999999992,1248.24,5565.9200000000001,-1003.86,-850.69100000000003,-387.16800000000001
5934.0,7369.29,9351.7399999999998,1263.8,5393.6000000000004,-1072.51,-683.88400000000001,-357.79000000000002
5935.0,7343.8500000000004,9505.5599999999995,1430.1400000000001,5362.1999999999998,-1144.0599999999999,-499.81,-334.52800000000002
5936.0,7300.5200000000004,9430.2800000000007,1412.6900000000001,5139.3599999999997,-1214.78,-299.32299999999998,-321.86399999999998
5937.0,7240.75,9509.2600000000002,1595.3599999999999,5118.25,-1283.6400000000001,-83.561800000000005,-318.02999999999997
5938.0,7163.6899999999996,9358.4400000000005,1596.03,4920.6599999999999,-1346.0799999999999,145.17699999999999,-325.80399999999997
5939.0,7076.2700000000004,9357.9899999999998,1788.7,4937.4300000000003,-1402.8599999999999,383.03399999999999,-343.74900000000002
5940.0,6984.9399999999996,9096.3899999999994,1751.0899999999999,4759.75,-1448.3099999999999,625.101,-373.41300000000001
5941.0,6906.5600000000004,9029.4099999999999,1913.01,4841.1899999999996,-1479.49,864.34699999999998,-413.67899999999997
5942.0,7162.46,8585.7800000000007,1167.48,5798.4700000000003,-860.47699999999998,-1453.4400000000001,-454.185
5943.0,7208.0200000000004,8786.0799999999999,1200.8099999999999,5719.8299999999999,-897.30499999999995,-1330.02,-429.47699999999998
5944.0,7233.75,8918.3700000000008,1210.4100000000001,5581.8500000000004,-949.29700000000003,-1200.77,-396.149
5945.0,7237.3699999999999,9100.8199999999997,1315.0599999999999,5503.0,-1010.34,-1060.47,-361.81799999999998
5946.0,7219.5500000000002,9172.1000000000004,1353.0699999999999,5332.9499999999998,-1077.8800000000001,-904.53200000000004,-328.637
5947.0,7179.3999999999996,9213.9599999999991,1410.01,5159.4899999999998,-1148.9200000000001,-732.48599999999999,-302.60199999999998
5948.0,7119.4300000000003,9223.0100000000002,1481.1600000000001,4987.7799999999997,-1221.23,-543.32799999999997,-283.77600000000001
5949.0,7039.3299999999999,9210.8700000000008,1580.55,4834.8800000000001,-1290.8399999999999,-338.51299999999998,-276.19900000000001
5950.0,6942.3400000000001,9145.5799999999999,1675.46,4677.1700000000001,-1357.79,-118.962,-278.69099999999997
5951.0,6829.6199999999999,9019.4799999999996,1758.1600000000001,4513.21,-1418.22,113.51600000000001,-293.93099999999998
5952.0,6704.2299999999996,8867.6599999999999,1860.3699999999999,4391.0,-1470.5799999999999,354.923,-320.20600000000002
5953.0,6574.5100000000002,8691.7099999999991,1970.52,4314.9799999999996,-1510.9100000000001,598.83699999999999,-358.947
5954.0,6462.3299999999999,8511.0900000000001,2074.4699999999998,4299.2200000000003,-1537.8699999999999,837.36099999999999,-409.58100000000002
5955.0,7033.7600000000002,8495.1100000000006,1284.5599999999999,5647.4300000000003,-919.55399999999997,-1521.5999999999999,-375.65300000000002
5956.0,7071.3299999999999,8667.8299999999999,1299.4200000000001,5531.6899999999996,-959.78899999999999,-1395.24,-355.73200000000003
5957.0,7079.04,8847.9099999999999,1380.02,5436.3900000000003,-1015.01,-1261.5,-325.05900000000003
5958.0,7055.4200000000001,8866.3899999999994,1357.96,5193.4899999999998,-1078.9000000000001,-1116.5699999999999,-293.02600000000001
5959.0,7006.9399999999996,9002.5799999999999,1504.6900000000001,5090.0,-1148.45,-955.99800000000005,-263.34399999999999
5960.0,6933.5200000000004,8996.7399999999998,1562.5999999999999,4873.4099999999999,-1219.8199999999999,-779.09199999999998,-240.821
5961.0,6836.6300000000001,9045.5900000000001,1729.6700000000001,4748.7700000000004,-1291.49,-586.30600000000004,-226.71199999999999
5962.0,6719.8800000000001,8901.4400000000005,1756.1800000000001,4473.2399999999998,-1360.3599999999999,-378.86399999999998,-224.637
5963.0,6585.1700000000001,8859.9200000000001,1937.54,4348.6899999999996,-1424.0899999999999,-157.56899999999999,-233.66200000000001
5964.0,6434.2799999999997,8631.5900000000001,1983.1300000000001,4093.3800000000001,-1478.8099999999999,76.349500000000006,-255.96799999999999
5965.0,6273.7799999999997,8502.9500000000007,2173.8499999999999,4006.4000000000001,-1525.6400000000001,320.25900000000001,-290.149
5966.0,6108.3999999999996,8135.7600000000002,2160.3800000000001,3758.8600000000001,-1559.8099999999999,566.15599999999995,-338.19600000000003
5967.0,5956.1099999999997,7948.1300000000001,2324.5599999999999,3760.5599999999999,-1577.52,800.60799999999995,-398.05399999999997
5968.0,6860.9499999999998,8330.9699999999993,1392.6600000000001,5438.4899999999998,-975.18700000000001,-1584.1300000000001,-290.78500000000003
5969.0,6886.1999999999998,8523.0300000000007,1442.0599999999999,5336.6499999999996,-1019.04,-1454.8,-273.60199999999998
5970.0,6873.1400000000003,8597.8500000000004,1446.6099999999999,5133.3800000000001,-1077.21,-1317.5899999999999,-247.17500000000001
5971.0,6824.3999999999996,8757.3099999999995,1601.6199999999999,5031.3999999999996,-1142.03,-1168.03,-217.62799999999999
5972.0,6741.3800000000001,8711.1900000000005,1617.48,4751.0900000000001,-1211.8900000000001,-1003.25,-191.02000000000001
5973.0,6629.4899999999998,8694.5,1725.1199999999999,4534.8400000000001,-1283.75,-823.17499999999995,-171.696
5974.0,6492.9200000000001,8565.3500000000004,1779.3800000000001,4243.9200000000001,-1353.4200000000001,-628.38400000000001,-162.34700000000001
5975.0,6336.8000000000002,8483.7399999999998,1936.25,4044.9299999999998,-1418.0,-420.75799999999998,-165.50999999999999
5976.0,6166.71,8273.8099999999995,2016.96,3762.27,-1475.96,-200.65799999999999,-180.82300000000001
5977.0,5989.6000000000004,8068.8599999999997,2148.3299999999999,3537.3299999999999,-1525.3499999999999,33.065600000000003,-211.09800000000001
5978.0,5801.2600000000002,7774.1099999999997,2238.23,3292.9899999999998,-1560.76,280.30799999999999,-252.70699999999999
5979.0,5603.1000000000004,7521.6899999999996,2415.1999999999998,3184.9400000000001,-1584.48,530.09799999999996,-306.56999999999999
5980.0,5414.4799999999996,7174.0500000000002,2501.6599999999999,3066.3800000000001,-1597.4100000000001,758.21000000000004,-376.53199999999998
5981.0,6639.75,8105.7600000000002,1513.21,5188.3199999999997,-1027.3199999999999,-1639.4400000000001,-197.518
5982.0,6654.1599999999999,8288.6499999999996,1567.76,5071.2700000000004,-1073.23,-1507.9200000000001,-185.00999999999999
5983.0,6618.5799999999999,8381.9599999999991,1624.04,4887.1499999999996,-1132.9300000000001,-1367.5999999999999,-161.73699999999999
5984.0,6537.46,8370.2000000000007,1658.96,4621.0299999999997,-1200.28,-1214.73,-134.38499999999999
5985.0,6420.5699999999997,8374.8600000000006,1781.3099999999999,4399.8199999999997,-1269.52,-1046.4300000000001,-111.693
5986.0,6272.7299999999996,8326.5,1919.1800000000001,4164.1899999999996,-1338.4000000000001,-863.35900000000004,-95.866
5987.0,6098.5799999999999,8198.8600000000006,2045.3199999999999,3890.5799999999999,-1403.71,-668.38999999999999,-91.413899999999998
5988.0,5909.6499999999996,8003.3500000000004,2160.5799999999999,3593.54,-1464.23,-462.98899999999998,-100.15900000000001
5989.0,5712.9099999999999,7772.46,2289.7199999999998,3301.3699999999999,-1513.3099999999999,-247.94,-122.83499999999999
5990.0,5513.5699999999997,7520.5299999999997,2442.54,3032.27,-1547.4400000000001,-17.687100000000001,-158.821
5991.0,5307.3000000000002,7210.3299999999999,2597.9299999999998,2783.96,-1573.26,233.22900000000001,-206.55500000000001
5992.0,5093.9499999999998,6757.2200000000003,2661.5599999999999,2503.27,-1588.23,489.00299999999999,-268.19
5993.0,4879.8900000000003,6347.8199999999997,2771.6500000000001,2380.8000000000002,-1590.0599999999999,717.05399999999997,-339.85899999999998
5994.0,6372.6899999999996,7822.0200000000004,1650.0,4899.3199999999997,-1072.77,-1686.55,-97.074600000000004
5995.0,6372.5600000000004,7987.0900000000001,1709.4300000000001,4763.5200000000004,-1122.28,-1553.8599999999999,-88.648899999999998
5996.0,6314.1400000000003,8010.4099999999999,1733.02,4512.4300000000003,-1183.23,-1410.76,-68.931600000000003
5997.0,6203.7799999999997,8083.4499999999998,1901.7,4337.3599999999997,-1247.9000000000001,-1254.24,-44.588099999999997
5998.0,6050.1199999999999,7932.5500000000002,1935.8900000000001,3976.21,-1315.6500000000001,-1083.4400000000001,-24.571999999999999
5999.0,5863.5100000000002,7794.7700000000004,2063.1900000000001,3672.2199999999998,-1382.6400000000001,-899.54300000000001,-12.3055
6000.0,5654.0699999999997,7537.3400000000001,2141.8400000000001,3293.5599999999999,-1442.8299999999999,-706.851,-13.028499999999999
6001.0,5437.3900000000003,7327.3299999999999,2322.46,3001.2800000000002,-1491.5,-508.95699999999999,-27.432700000000001
6002.0,5221.1400000000003,6999.1899999999996,2437.0799999999999,2628.8499999999999,-1527.73,-302.262,-56.588099999999997
6003.0,5032.6800000000003,6688.8999999999996,2589.96,2294.8600000000001,-1546.53,-86.652000000000001,-103.381
6004.0,4876.4799999999996,6304.71,2648.1300000000001,1906.1700000000001,-1524.79,180.38900000000001,-156.36500000000001
6005.0,4666.4399999999996,5927.4099999999999,2833.71,1729.3499999999999,-1497.8699999999999,492.55500000000001,-191.387
6006.0,4397.9099999999999,5342.9200000000001,2951.9699999999998,1592.75,-1508.8299999999999,708.95000000000005,-251.75800000000001
6007.0,6060.4799999999996,7459.1899999999996,1791.6400000000001,4555.5200000000004,-1112.6600000000001,-1724.26,11.5732
6008.0,6046.6800000000003,7597.6599999999999,1846.8599999999999,4392.21,-1162.7,-1590.9400000000001,14.5261
6009.0,5964.5,7631.54,1925.1099999999999,4159.3000000000002,-1223.9300000000001,-1445.96,31.597899999999999
6010.0,5823.8800000000001,7520.2600000000002,1972.9100000000001,3813.2399999999998,-1289.26,-1287.3499999999999,52.6569
6011.0,5638.9799999999996,7421.3000000000002,2129.1399999999999,3522.5799999999999,-1352.9200000000001,-1113.24,70.002399999999994
6012.0,5421.5200000000004,7220.8999999999996,2274.2399999999998,3180.4699999999998,-1411.54,-929.08299999999997,77.694299999999998
6013.0,5187.8000000000002,6955.2700000000004,2433.9000000000001,2824.4000000000001,-1463.3599999999999,-740.06799999999998,73.408900000000003
6014.0,4960.6199999999999,6602.0200000000004,2564.3499999999999,2421.98,-1502.3299999999999,-557.32100000000003,48.410600000000002
6015.0,4771.8000000000002,6261.8000000000002,2719.6900000000001,2024.95,-1514.1400000000001,-366.01299999999998,11.0059
6016.0,4599.1999999999998,5945.3900000000003,2836.1700000000001,1646.52,-1447.4300000000001,-160.94300000000001,-52.924700000000001
6017.0,4355.9399999999996,5826.4899999999998,3248.0500000000002,1461.76,-1219.29,118.92700000000001,-94.528800000000004
6018.0,4112.4200000000001,5428.4700000000003,3619.1100000000001,1348.04,-1097.3800000000001,501.26400000000001,39.608600000000003
6019.0,3910.6100000000001,4469.9200000000001,3470.8299999999999,1064.8599999999999,-1236.5899999999999,710.471,11.1625
6020.0,5709.6700000000001,7019.7600000000002,1943.3900000000001,4160.2399999999998,-1143.23,-1751.22,127.43000000000001
6021.0,5682.0500000000002,7133.7600000000002,2003.8399999999999,3976.25,-1195.78,-1618.75,125.029
6022.0,5578.96,7106.0100000000002,2067.8000000000002,3691.6100000000001,-1255.4100000000001,-1471.8299999999999,139.649
6023.0,5412.7799999999997,7031.8400000000001,2218.46,3397.5100000000002,-1314.95,-1310.6600000000001,156.83699999999999
6024.0,5203.6599999999999,6783.5600000000004,2308.7199999999998,2984.0500000000002,-1374.74,-1134.3599999999999,172.905
6025.0,4966.46,6457.7799999999997,2428.3499999999999,2554.73,-1428.1900000000001,-950.84400000000005,174.38800000000001
6026.0,4728.79,6071.8199999999997,2571.6599999999999,2121.0999999999999,-1468.1400000000001,-770.346,167.041
6027.0,4524.9200000000001,5671.6899999999996,2715.3200000000002,1699.5899999999999,-1476.72,-608.351,126.318
6028.0,4333.46,5348.5900000000001,2927.79,1285.0999999999999,-1370.3399999999999,-446.23500000000001,65.145499999999998
6029.0,4038.3400000000001,5120.6400000000003,3340.27,1055.3699999999999,-1107.03,-240.25299999999999,5.1134899999999996
6030.0,3893.3000000000002,5077.9099999999999,4404.21,1148.3399999999999,-797.54200000000003,4.3447100000000001,-22.061900000000001
6031.0,4104.6999999999998,4552.3400000000001,5037.2299999999996,957.96900000000005,-697.94500000000005,308.79599999999999,260.54300000000001
6032.0,4070.5500000000002,3710.7800000000002,4843.2200000000003,799.45799999999997,-852.57799999999997,549.60199999999998,377.45499999999998
6033.0,5331.3999999999996,6500.0500000000002,2110.1199999999999,3714.2399999999998,-1165.4100000000001,-1766.1300000000001,250.916
6034.0,5292.1899999999996,6561.4700000000003,2148.98,3483.6500000000001,-1217.29,-1635.3,242.88800000000001
6035.0,5173.7600000000002,6539.9700000000003,2274.4400000000001,3218.1199999999999,-1274.55,-1487.73,254.49600000000001
6036.0,4995.6400000000003,6276.1099999999997,2310.5799999999999,2755.6100000000001,-1331.4100000000001,-1324.5,268.90699999999998
6037.0,4780.54,6069.96,2531.5799999999999,2414.1199999999999,-1382.3199999999999,-1144.9300000000001,282.26999999999998
6038.0,4548.9499999999998,5622.8000000000002,2640.54,1911.4400000000001,-1426.3599999999999,-957.68299999999999,281.75999999999999
6039.0,4339.3800000000001,5216.04,2891.8299999999999,1532.6400000000001,-1452.1400000000001,-793.26400000000001,263.22399999999999
6040.0,4136.4499999999998,4650.0299999999997,3023.1700000000001,1012.98,-1376.99,-674.34100000000001,182.44800000000001
6041.0,3962.0300000000002,4518.3599999999997,3760.8800000000001,892.79999999999995,-1122.7,-556.71199999999999,69.242699999999999
6042.0,4021.8099999999999,4217.3800000000001,4666.6899999999996,768.32500000000005,-844.29700000000003,-359.053,26.761399999999998
6043.0,4584.5699999999997,4122.2700000000004,5994.1899999999996,993.13800000000003,-772.35299999999995,-158.09800000000001,14.7826
6044.0,5364.5600000000004,3506.6100000000001,6635.6999999999998,634.67899999999997,-740.11800000000005,19.033000000000001,190.09700000000001
6045.0,5722.8400000000001,2542.1599999999999,6539.0299999999997,265.74400000000003,-717.95799999999997,249.61000000000001,503.97500000000002
6046.0,4946.0699999999997,5871.2399999999998,2269.77,3193.2399999999998,-1177.01,-1767.71,381.03100000000001
6047.0,4902.0200000000004,5923.21,2333.8099999999999,2961.4400000000001,-1228.45,-1640.29,367.90800000000002
6048.0,4781.1899999999996,5822.1199999999999,2439.77,2630.8000000000002,-1281.1099999999999,-1492.29,376.20999999999998
6049.0,4611.7799999999997,5568.7200000000003,2564.46,2203.46,-1328.8599999999999,-1326.3599999999999,388.45800000000003
6050.0,4424.5799999999999,5202.9700000000003,2732.4400000000001,1739.0,-1371.5699999999999,-1141.8399999999999,398.77499999999998
6051.0,4263.3699999999999,4611.2299999999996,2821.8200000000002,1154.0899999999999,-1416.1500000000001,-948.80899999999997,404.78800000000001
6052.0,4150.3199999999997,4001.0300000000002,3021.6900000000001,689.74000000000001,-1444.8900000000001,-796.27599999999995,355.416
6053.0,4119.7700000000004,3320.9299999999998,3369.5700000000002,220.02000000000001,-1362.8099999999999,-716.51700000000005,174.846
6054.0,4463.6700000000001,3021.48,4444.6300000000001,117.83199999999999,-1173.0999999999999,-633.70899999999995,-27.790500000000002
6055.0,5264.1199999999999,2753.5100000000002,5697.0299999999997,69.023700000000005,-1044.1400000000001,-468.63799999999998,-54.083300000000001
6056.0,6063.4099999999999,2475.1199999999999,6697.0200000000004,88.404399999999995,-980.15300000000002,-308.31099999999998,-11.9756
6057.0,7033.9799999999996,2009.02,7612.1300000000001,-74.566299999999998,-813.60799999999995,-155.167,51.7104
6058.0,8034.0,834.63800000000003,7904.2200000000003,-558.00599999999997,-842.31500000000005,-0.80918299999999999,466.51100000000002
6059.0,4590.6199999999999,5138.1199999999999,2434.6199999999999,2607.9099999999999,-1177.78,-1755.1500000000001,516.46199999999999
6060.0,4550.8299999999999,5172.5799999999999,2519.6700000000001,2367.9299999999998,-1224.6600000000001,-1632.6500000000001,500.16000000000003
6061.0,4452.6700000000001,5004.5100000000002,2622.7399999999998,1986.3499999999999,-1271.01,-1485.72,504.738
6062.0,4331.6099999999997,4640.0,2724.3400000000001,1476.8399999999999,-1310.79,-1316.1400000000001,515.05399999999997
6063.0,4239.3900000000003,4201.04,2936.5,978.10400000000004,-1346.96,-1122.55,528.60400000000004
6064.0,4228.8299999999999,3506.52,3046.6100000000001,367.65100000000001,-1393.1199999999999,-921.40599999999995,545.66700000000003
6065.0,4304.0799999999999,2700.4400000000001,3204.0500000000002,-167.42400000000001,-1441.5999999999999,-759.41700000000003,461.065
6066.0,4647.0200000000004,1842.8499999999999,3605.1599999999999,-662.83799999999997,-1457.29,-662.03700000000003,190.428
6067.0,5538.8999999999996,1421.3699999999999,4764.1000000000004,-808.346,-1417.77,-584.16399999999999,-94.229100000000003
6068.0,6694.7600000000002,964.66099999999994,5966.21,-1030.72,-1302.04,-480.93900000000002,-144.828
6069.0,7799.9499999999998,440.92200000000003,7084.1400000000003,-1106.8,-1081.2,-401.19999999999999,-115.136
6070.0,9328.2600000000002,-471.44499999999999,8174.1300000000001,-1460.72,-907.71400000000006,-297.59100000000001,-21.556699999999999
6071.0,10692.0,-1942.9400000000001,8424.7800000000007,-2111.9299999999998,-1175.22,-284.44799999999998,469.81599999999997
6072.0,4324.7700000000004,4278.7299999999996,2584.3499999999999,1942.45,-1165.1800000000001,-1728.8599999999999,656.59400000000005
6073.0,4311.8100000000004,4350.3000000000002,2748.0900000000001,1746.51,-1207.49,-1614.6099999999999,638.16999999999996
6074.0,4268.71,4045.75,2783.2199999999998,1247.4200000000001,-1243.29,-1467.9000000000001,639.99099999999999
6075.0,4252.5200000000004,3714.4499999999998,3016.8099999999999,798.46699999999998,-1271.46,-1291.8199999999999,651.25099999999998
6076.0,4339.3999999999996,3039.4200000000001,3107.6399999999999,104.86,-1302.4100000000001,-1087.0799999999999,678.20600000000002
6077.0,4543.7600000000002,2217.0700000000002,3203.71,-556.53700000000003,-1352.3900000000001,-868.88699999999994,704.99400000000003
6078.0,4867.6599999999999,1078.1300000000001,3162.9000000000001,-1321.04,-1426.54,-675.47400000000005,609.97799999999995
6079.0,5496.8400000000001,14.2875,3456.0900000000001,-1922.1700000000001,-1500.21,-545.52300000000002,321.38
6080.0,6655.0299999999997,-857.07799999999997,4286.8299999999999,-2421.0,-1492.1099999999999,-468.82100000000003,-13.5898
6081.0,8185.1199999999999,-1657.9100000000001,5509.6899999999996,-2785.1900000000001,-1378.0,-407.089,-160.46799999999999
6082.0,9939.2299999999996,-2582.9899999999998,6884.6099999999997,-2962.6399999999999,-1273.5999999999999,-370.45699999999999,-213.24299999999999
6083.0,12097.700000000001,-3814.4000000000001,8237.7700000000004,-3345.7199999999998,-1419.71,-392.11200000000002,-84.120599999999996
6084.0,13697.1,-6175.2799999999997,7685.8900000000003,-4799.8199999999997,-1907.9300000000001,-669.31500000000005,359.435
6085.0,4229.0900000000001,3379.8299999999999,2798.5999999999999,1287.3699999999999,-1135.1500000000001,-1692.8299999999999,800.524
6086.0,4260.4399999999996,3358.0,2918.3000000000002,1006.65,-1165.46,-1587.29,780.95600000000002
6087.0,4316.0600000000004,3022.4200000000001,3009.9299999999998,499.50599999999997,-1186.53,-1439.5799999999999,786.10299999999995
6088.0,4476.0799999999999,2527.6999999999998,3193.5700000000002,-82.132999999999996,-1204.47,-1258.54,803.92700000000002
6089.0,4794.4499999999998,1771.8299999999999,3320.25,-820.47699999999998,-1217.96,-1040.0799999999999,848.42499999999995
6090.0,5239.9499999999998,785.74000000000001,3385.5500000000002,-1571.4100000000001,-1253.46,-789.44000000000005,900.11699999999996
6091.0,5815.0799999999999,-582.81799999999998,3244.8099999999999,-2464.7199999999998,-1336.8399999999999,-566.52499999999998,835.726
6092.0,6660.0900000000001,-2017.5699999999999,3284.7600000000002,-3329.1199999999999,-1427.8900000000001,-421.30200000000002,553.34000000000003
6093.0,8059.9200000000001,-3345.04,3870.1399999999999,-4117.9099999999999,-1453.5799999999999,-317.70699999999999,171.40000000000001
6094.0,10001.200000000001,-4620.75,5015.0600000000004,-4671.5799999999999,-1476.0699999999999,-212.86799999999999,-59.598100000000002
6095.0,12345.9,-6272.46,6194.1599999999999,-5236.1999999999998,-1702.6400000000001,-185.649,-126.934
6096.0,14888.700000000001,-8783.5799999999999,6494.1800000000003,-6595.0799999999999,-2340.4000000000001,-399.09699999999998,-3.2034799999999999
6097.0,16648.299999999999,-12135.0,4814.5500000000002,-9054.4699999999993,-3134.3200000000002,-1016.78,97.316900000000004
6098.0,4380.7299999999996,2390.52,2981.1500000000001,582.96400000000006,-1094.1800000000001,-1657.1199999999999,944.68399999999997
6099.0,4475.75,2295.6199999999999,3109.29,251.05699999999999,-1108.4400000000001,-1554.1300000000001,929.98500000000001
6100.0,4688.0799999999999,1855.51,3226.1999999999998,-321.28199999999998,-1116.4400000000001,-1408.75,945.89300000000003
6101.0,5064.8000000000002,1256.96,3428.9499999999998,-986.03099999999995,-1112.5599999999999,-1225.8499999999999,967.89099999999996
6102.0,5642.3800000000001,356.61799999999999,3570.77,-1836.46,-1093.96,-976.97500000000002,1031.74
6103.0,6395.2200000000003,-899.50999999999999,3577.4699999999998,-2746.0,-1133.76,-686.85799999999995,1141.3
6104.0,7249.3000000000002,-2644.9299999999998,3256.1900000000001,-3866.5,-1248.55,-465.62400000000002,1110.75
6105.0,8296.9799999999996,-4431.2399999999998,3089.71,-5002.5900000000001,-1331.4200000000001,-318.13400000000001,822.59299999999996
6106.0,9881.4500000000007,-6200.1300000000001,3394.3099999999999,-6132.4399999999996,-1361.5899999999999,-118.607,458.51600000000002
6107.0,12172.200000000001,-8278.3700000000008,4078.21,-7157.3699999999999,-1604.6900000000001,128.97,314.31900000000002
6108.0,14966.9,-11370.0,4148.8199999999997,-8670.5799999999999,-2408.5999999999999,116.843,334.06299999999999
6109.0,17606.599999999999,-15397.1,2658.9400000000001,-11371.5,-3637.9899999999998,-416.37700000000001,275.09100000000001
6110.0,19163.099999999999,-19782.099999999999,-701.74699999999996,-15255.700000000001,-4615.6700000000001,-1298.3800000000001,-153.93899999999999
6111.0,4718.4799999999996,1462.6800000000001,3243.3699999999999,-7.6836200000000003,-1003.9,-1613.2,1077.3900000000001
6112.0,4941.3400000000001,1116.8599999999999,3281.4299999999998,-525.71600000000001,-981.58100000000002,-1526.71,1094.6700000000001
6113.0,5347.8100000000004,602.10400000000004,3432.0100000000002,-1181.9300000000001,-964.553,-1390.8099999999999,1120.29
6114.0,5937.5799999999999,-189.35900000000001,3580.1399999999999,-2040.3699999999999,-918.14599999999996,-1174.6199999999999,1150.9400000000001
6115.0,6837.2700000000004,-1144.74,3907.9899999999998,-2876.46,-890.20899999999995,-875.38999999999999,1264.0
6116.0,7913.1999999999998,-2775.3099999999999,3738.1599999999999,-4051.0599999999999,-991.02800000000002,-553.58900000000006,1459.5
6117.0,8905.8500000000004,-4856.6999999999998,3138.1399999999999,-5406.71,-1177.6700000000001,-322.53399999999999,1440.3800000000001
6118.0,10100.799999999999,-7258.6999999999998,2501.1399999999999,-7107.9200000000001,-1235.99,-142.74199999999999,1091.71
6119.0,12125.4,-9400.9400000000005,2875.0100000000002,-8461.3999999999996,-1260.78,176.71000000000001,839.72000000000003
6120.0,14953.1,-12610.6,2883.5599999999999,-10202.200000000001,-1896.46,549.35000000000002,1056.49
6121.0,17798.0,-17537.200000000001,809.92899999999997,-13107.9,-3487.4400000000001,409.04300000000001,1265.95
6122.0,19854.299999999999,-23670.099999999999,-3917.1199999999999,-18060.5,-5198.5900000000001,-494.65199999999999,716.85000000000002
6123.0,20740.200000000001,-29047.5,-9252.5200000000004,-23753.900000000001,-5988.8299999999999,-1525.1300000000001,-409.94999999999999
6124.0,1718.1700000000001,1566.4000000000001,453.81200000000001,221.33199999999999,-331.25599999999997,582.96000000000004,-132.702
6125.0,1718.3099999999999,1476.5799999999999,430.19499999999999,271.42700000000002,-314.88,655.44399999999996,-163.35599999999999
6126.0,1719.23,1385.8199999999999,417.67599999999999,338.80500000000001,-296.24599999999998,722.68200000000002,-187.79599999999999
6127.0,1721.8099999999999,1288.6600000000001,408.18000000000001,415.78500000000003,-277.04399999999998,782.44500000000005,-207.44200000000001
6128.0,1725.1600000000001,1169.02,384.66300000000001,482.089,-254.148,832.95899999999995,-225.57400000000001
6129.0,1729.28,1014.77,332.74000000000001,524.98500000000001,-229.614,873.11000000000001,-241.01599999999999
6130.0,1732.1400000000001,927.18600000000004,349.85000000000002,645.50999999999999,-206.11699999999999,900.76499999999999,-250.79300000000001
6131.0,1734.4400000000001,802.01999999999998,332.19999999999999,734.83000000000004,-181.77099999999999,915.95899999999995,-257.26499999999999
6132.0,1735.9400000000001,713.94799999999998,354.25200000000001,866.32399999999996,-159.45599999999999,918.10000000000002,-258.88600000000002
6133.0,1738.3599999999999,637.13499999999999,388.291,1008.2,-137.636,908.37900000000002,-256.673
6134.0,1740.3,487.23899999999998,351.84800000000001,1070.8399999999999,-109.489,886.89400000000001,-254.95599999999999
6135.0,1742.1199999999999,344.64800000000002,317.76499999999999,1133.28,-79.973200000000006,852.84699999999998,-251.59100000000001
6136.0,1737.5899999999999,249.512,331.12,1236.02,-56.394500000000001,802.62099999999998,-243.411
6137.0,1754.8900000000001,1497.1500000000001,240.39400000000001,152.971,-318.82900000000001,542.53099999999995,-254.76900000000001
6138.0,1760.74,1453.8299999999999,247.75800000000001,245.42099999999999,-298.55900000000003,615.20699999999999,-282.78800000000001
6139.0,1763.77,1386.1900000000001,245.83600000000001,329.48899999999998,-276.971,682.00999999999999,-301.84300000000002
6140.0,1765.3,1300.6500000000001,239.381,412.50900000000001,-253.75299999999999,741.84799999999996,-316.00299999999999
6141.0,1766.8299999999999,1224.3199999999999,250.34299999999999,516.995,-229.232,792.51900000000001,-326.47500000000002
6142.0,1768.02,1169.45,289.96800000000002,654.66999999999996,-203.315,833.07799999999997,-333.714
6143.0,1769.27,1034.3599999999999,254.631,720.68399999999997,-176.435,862.64300000000003,-337.98200000000003
6144.0,1769.8900000000001,931.47500000000002,256.10199999999998,825.59299999999996,-149.04300000000001,880.423,-338.91500000000002
6145.0,1770.4400000000001,784.87599999999998,216.15299999999999,890.54399999999998,-121.45399999999999,886.12099999999998,-336.58800000000002
6146.0,1770.3299999999999,628.92999999999995,167.554,945.97900000000004,-94.158500000000004,879.18200000000002,-331.12599999999998
6147.0,1769.74,546.16300000000001,191.89400000000001,1071.78,-65.747,859.71299999999997,-323.36200000000002
6148.0,1768.4000000000001,457.46199999999999,208.916,1185.03,-36.667400000000001,828.22699999999998,-312.71499999999997
6149.0,1764.04,323.41300000000001,183.38900000000001,1247.3099999999999,-10.3299,783.40599999999995,-298.76900000000001
6150.0,1812.9100000000001,1739.51,383.90899999999999,383.52300000000002,-313.709,522.83299999999997,-333.238
6151.0,1820.5899999999999,1699.29,387.94799999999998,477.17599999999999,-289.88499999999999,596.23800000000006,-358.42000000000002
6152.0,1825.8199999999999,1598.3499999999999,345.95100000000002,524.14999999999998,-265.98599999999999,663.77200000000005,-375.28500000000003
6153.0,1826.3499999999999,1540.1700000000001,362.58699999999999,631.61199999999997,-239.62200000000001,724.25800000000004,-386.16399999999999
6154.0,1826.79,1397.28,302.73599999999999,667.23900000000003,-212.881,775.95100000000002,-392.84500000000003
6155.0,1825.96,1280.97,277.85599999999999,741.774,-185.11600000000001,817.553,-395.834
6156.0,1825.6600000000001,1163.0799999999999,257.58100000000002,822.77300000000002,-155.96000000000001,848.61699999999996,-396.65800000000002
6157.0,1824.7,1078.1600000000001,274.96800000000002,943.47900000000004,-125.854,868.01400000000001,-394.37599999999998
6158.0,1824.1600000000001,948.75300000000004,251.208,1023.2,-94.710899999999995,875.72199999999998,-389.83800000000002
6159.0,1822.79,914.47000000000003,323.71699999999998,1198.45,-63.248100000000001,870.91999999999996,-381.95100000000002
6160.0,1820.53,717.89300000000003,232.643,1209.8699999999999,-33.995699999999999,853.18700000000001,-370.06200000000001
6161.0,1816.6099999999999,637.16300000000001,255.435,1331.1300000000001,-5.3663100000000004,822.63499999999999,-354.77300000000002
6162.0,1811.6800000000001,481.61799999999999,206.518,1371.51,23.076599999999999,780.17899999999997,-337.70600000000002
6163.0,1872.0799999999999,1775.3699999999999,297.31400000000002,439.036,-324.59500000000003,497.78199999999998,-387.28300000000002
6164.0,1880.8099999999999,1735.4100000000001,294.11500000000001,530.65499999999997,-298.94099999999997,569.05100000000004,-410.50099999999998
6165.0,1887.1800000000001,1695.75,307.61799999999999,633.84199999999998,-273.25799999999998,635.80100000000004,-425.92000000000002
6166.0,1887.3,1594.8399999999999,276.74299999999999,692.149,-244.708,695.69200000000001,-435.09300000000002
6167.0,1887.1300000000001,1539.6700000000001,302.08199999999999,808.54399999999998,-214.745,747.94600000000003,-440.94900000000001
6168.0,1885.6300000000001,1459.3199999999999,310.95499999999998,911.39999999999998,-183.54300000000001,790.66700000000003,-443.21699999999998
6169.0,1883.22,1347.9100000000001,295.02800000000002,993.53300000000002,-152.62200000000001,822.89800000000002,-441.25400000000002
6170.0,1880.1700000000001,1222.24,269.71199999999999,1068.76,-121.5,843.79899999999998,-435.92599999999999
6171.0,1876.3299999999999,1105.73,256.71199999999999,1157.52,-91.159899999999993,852.75,-426.863
6172.0,1871.9000000000001,929.21799999999996,185.321,1187.5899999999999,-61.088900000000002,849.36599999999999,-414.82100000000003
6173.0,1868.26,870.65200000000004,231.29300000000001,1332.4400000000001,-29.1982,834.06100000000004,-401.49200000000002
6174.0,1863.77,743.25800000000004,206.06800000000001,1403.0899999999999,2.4586100000000002,806.14099999999996,-385.404
6175.0,1856.23,649.90700000000004,218.13999999999999,1502.78,29.8996,766.28599999999994,-364.80799999999999
6176.0,1949.8599999999999,2037.5699999999999,431.87799999999999,721.66499999999996,-331.23399999999998,468.76400000000001,-453.375
6177.0,1960.46,1963.1300000000001,388.661,772.28599999999994,-301.94400000000002,538.28599999999994,-475.57100000000003
6178.0,1967.1500000000001,1912.29,385.67500000000001,858.47000000000003,-273.48700000000002,604.27499999999998,-489.05900000000003
6179.0,1966.24,1819.4100000000001,358.096,918.178,-242.68299999999999,663.97299999999996,-495.36900000000003
6180.0,1963.3199999999999,1730.3499999999999,345.108,995.28599999999994,-211.68899999999999,716.42999999999995,-496.45400000000001
6181.0,1958.6800000000001,1574.9200000000001,275.34800000000001,1018.03,-180.255,759.83600000000001,-493.83300000000003
6182.0,1953.79,1510.2,303.20600000000002,1140.6400000000001,-147.45099999999999,793.28200000000004,-488.815
6183.0,1948.5799999999999,1369.71,261.00799999999998,1194.8399999999999,-114.28700000000001,816.00999999999999,-481.05799999999999
6184.0,1942.8800000000001,1293.8199999999999,287.084,1318.0,-80.3215,827.19000000000005,-470.55200000000002
6185.0,1937.3399999999999,1189.02,285.72500000000002,1413.8900000000001,-46.416600000000003,826.50800000000004,-457.47899999999998
6186.0,1930.1199999999999,1063.5999999999999,263.28899999999999,1488.48,-15.192500000000001,813.14200000000005,-439.69600000000003
6187.0,1923.22,925.14300000000003,224.74199999999999,1545.3800000000001,15.3467,787.51499999999999,-419.47399999999999
6188.0,1912.8699999999999,830.99699999999996,233.99799999999999,1640.1600000000001,44.0595,750.29999999999995,-395.88299999999998
6189.0,2038.3299999999999,2085.6100000000001,346.99599999999998,799.61300000000006,-342.24799999999999,437.72300000000001,-512.46299999999997
6190.0,2049.46,2039.2,326.14400000000001,872.93600000000004,-311.06799999999998,505.18400000000003,-531.51300000000003
6191.0,2055.6799999999998,2023.5599999999999,353.51299999999998,987.46100000000001,-280.28399999999999,570.13,-542.45399999999995
6192.0,2053.4000000000001,1905.5799999999999,296.88200000000001,1014.1799999999999,-247.32400000000001,629.51900000000001,-546.36699999999996
6193.0,2049.29,1869.3800000000001,333.19999999999999,1135.51,-213.11799999999999,682.28399999999999,-546.42200000000003
6194.0,2043.22,1766.99,313.38,1202.52,-178.274,726.64999999999998,-542.90499999999997
6195.0,2035.3,1675.6700000000001,312.33199999999999,1291.9200000000001,-144.048,761.53099999999995,-534.67399999999998
6196.0,2027.03,1537.0599999999999,269.52600000000001,1341.8099999999999,-109.866,785.91499999999996,-523.56600000000003
6197.0,2017.3199999999999,1440.9300000000001,273.62799999999999,1440.1300000000001,-76.669899999999998,798.83100000000002,-508.55799999999999
6198.0,2007.8499999999999,1261.1900000000001,195.73699999999999,1456.6099999999999,-43.9818,800.13999999999999,-491.05000000000001
6199.0,1998.75,1209.3199999999999,245.386,1599.3800000000001,-10.293799999999999,789.46400000000006,-471.74799999999999
6200.0,1990.97,1063.75,197.72900000000001,1643.96,23.206700000000001,766.75699999999995,-450.73899999999998
6201.0,1976.9200000000001,989.82899999999995,224.19200000000001,1755.1800000000001,50.938299999999998,731.74300000000005,-422.74599999999998
6202.0,2145.1799999999998,2342.5799999999999,466.25299999999999,1089.7,-351.11500000000001,403.08199999999999,-578.79899999999998
6203.0,2157.1500000000001,2263.1500000000001,406.99900000000002,1122.02,-316.71600000000001,468.45100000000002,-595.71799999999996
6204.0,2162.6300000000001,2230.71,412.15100000000001,1211.9200000000001,-283.32999999999998,532.12800000000004,-603.96299999999997
6205.0,2158.7399999999998,2134.3299999999999,371.791,1252.0799999999999,-248.18799999999999,590.87,-605.0
6206.0,2151.2199999999998,2067.8099999999999,373.29599999999999,1335.6700000000001,-213.01499999999999,643.88800000000003,-600.28800000000001
6207.0,2141.1500000000001,1906.78,291.14999999999998,1336.8699999999999,-177.84,689.00900000000001,-591.93700000000001
6208.0,2130.4299999999998,1861.3199999999999,332.44299999999998,1464.05,-141.71600000000001,725.26099999999997,-580.95799999999997
6209.0,2118.77,1700.6300000000001,265.44799999999998,1484.3,-105.84399999999999,751.59299999999996,-567.10799999999995
6210.0,2106.7199999999998,1644.2,307.18400000000003,1614.8800000000001,-69.690399999999997,767.13499999999999,-550.43799999999999
6211.0,2094.6399999999999,1504.75,268.07299999999998,1664.74,-33.959400000000002,771.14800000000002,-531.41800000000001
6212.0,2082.1900000000001,1414.6199999999999,277.31299999999999,1764.5899999999999,-0.74463100000000004,763.12699999999995,-508.084
6213.0,2070.9699999999998,1254.6199999999999,214.166,1790.4000000000001,32.0291,743.22799999999995,-483.59800000000001
6214.0,2055.1300000000001,1185.9300000000001,240.929,1902.5699999999999,62.307200000000002,710.62300000000005,-452.07999999999998
6215.0,2265.5900000000001,2401.9499999999998,381.47300000000001,1191.4100000000001,-362.899,365.13900000000001,-641.86699999999996
6216.0,2277.4099999999999,2390.0999999999999,383.86599999999999,1283.8199999999999,-326.38,428.024,-655.24400000000003
6217.0,2281.5599999999999,2354.8400000000001,380.85199999999998,1361.75,-290.65600000000001,490.30000000000001,-660.39800000000002
6218.0,2274.75,2265.3000000000002,343.26900000000001,1399.1400000000001,-253.58000000000001,548.702,-657.95399999999995
6219.0,2265.2199999999998,2204.6599999999999,346.41699999999997,1477.9000000000001,-215.52600000000001,601.971,-651.66499999999996
6220.0,2252.6300000000001,2125.6500000000001,342.63200000000001,1551.02,-177.40100000000001,648.048,-641.67600000000004
6221.0,2238.1599999999999,2012.72,313.39600000000002,1602.0999999999999,-140.102,685.93299999999999,-627.27099999999996
6222.0,2222.6199999999999,1905.1700000000001,296.642,1667.6700000000001,-103.096,714.13199999999995,-610.04100000000005
6223.0,2206.4499999999998,1784.3800000000001,271.55700000000002,1727.21,-67.225499999999997,731.93899999999996,-589.42200000000003
6224.0,2189.7199999999998,1646.72,232.38,1773.0,-32.116100000000003,738.23099999999999,-566.25
6225.0,2174.96,1555.1800000000001,237.97300000000001,1864.48,3.1755900000000001,733.48599999999999,-541.08600000000001
6226.0,2160.8400000000001,1442.79,221.49799999999999,1931.9000000000001,37.088099999999997,717.09400000000005,-514.56200000000001
6227.0,2143.54,1335.5599999999999,207.40899999999999,2003.3199999999999,69.483500000000006,687.25900000000001,-480.05200000000002
6228.0,2402.6100000000001,2644.4000000000001,476.94600000000003,1480.1300000000001,-373.21600000000001,324.13099999999997,-709.36400000000003
6229.0,2413.9499999999998,2613.5,454.53300000000002,1543.8399999999999,-333.75,384.577,-719.57100000000003
6230.0,2416.4899999999998,2546.6599999999999,414.20800000000003,1580.03,-295.68299999999999,445.16800000000001,-721.61099999999999
6231.0,2407.79,2502.1599999999999,415.56099999999998,1652.0999999999999,-256.15100000000001,502.67399999999998,-716.42999999999995
6232.0,2394.5100000000002,2399.7199999999998,371.76799999999997,1679.4100000000001,-217.078,555.99599999999998,-705.74599999999998
6233.0,2377.6100000000001,2296.5599999999999,339.28100000000001,1719.0,-178.303,602.952,-691.11199999999997
6234.0,2359.6500000000001,2204.23,326.762,1780.6400000000001,-139.137,642.36300000000006,-674.029
6235.0,2340.1700000000001,2094.5900000000001,305.03199999999998,1835.1500000000001,-100.709,672.81799999999998,-653.80399999999997
6236.0,2320.5,1988.01,291.803,1899.98,-62.478000000000002,693.495,-631.03899999999999
6237.0,2300.5500000000002,1890.3199999999999,290.75099999999998,1978.26,-25.132999999999999,702.91800000000001,-605.89400000000001
6238.0,2281.6599999999999,1759.48,254.56299999999999,2023.6600000000001,10.208399999999999,701.08500000000004,-577.048
6239.0,2263.1300000000001,1652.78,241.12100000000001,2090.96,42.031700000000001,688.17999999999995,-545.38499999999999
6240.0,2243.3600000000001,1530.26,213.441,2146.8000000000002,74.257000000000005,662.39400000000001,-507.88299999999998
6241.0,2553.5,2739.1599999999999,418.85599999999999,1630.6400000000001,-385.79899999999998,279.42099999999999,-774.40300000000002
6242.0,2564.48,2760.9899999999998,442.452,1736.99,-343.92200000000003,336.79300000000001,-781.32299999999998
6243.0,2565.0700000000002,2706.5300000000002,408.40800000000002,1774.28,-303.52499999999998,395.47699999999998,-780.15899999999999
6244.0,2552.8099999999999,2649.4000000000001,391.822,1822.0799999999999,-262.29700000000003,452.34399999999999,-770.97900000000004
6245.0,2536.3899999999999,2567.3600000000001,363.60199999999998,1857.1500000000001,-220.64599999999999,505.83800000000002,-758.02499999999998
6246.0,2516.4299999999998,2510.98,373.26400000000001,1931.4400000000001,-179.386,553.82899999999995,-741.37
6247.0,2493.9400000000001,2383.71,321.96300000000002,1947.6300000000001,-139.066,594.92100000000005,-720.66399999999999
6248.0,2470.5,2300.1399999999999,322.55799999999999,2018.3699999999999,-99.521199999999993,627.67700000000002,-697.30700000000002
6249.0,2445.9400000000001,2164.25,277.20600000000002,2045.29,-61.058599999999998,650.91700000000003,-670.75699999999995
6250.0,2421.9099999999999,2054.6900000000001,261.56200000000001,2104.2199999999998,-23.869,663.42200000000003,-642.12099999999998
6251.0,2398.9299999999998,1941.46,240.94,2159.02,13.180199999999999,664.75699999999995,-610.89499999999998
6252.0,2377.8400000000001,1843.3099999999999,229.25399999999999,2227.1399999999999,44.4313,655.05200000000002,-574.13599999999997
6253.0,2358.4499999999998,1709.5699999999999,183.09100000000001,2269.1999999999998,70.818299999999994,631.72699999999998,-533.05200000000002
6254.0,2719.1799999999998,2984.2800000000002,509.05500000000001,1936.5999999999999,-397.35399999999998,231.56899999999999,-842.27200000000005
6255.0,2728.8899999999999,2968.3400000000001,488.16899999999998,1993.72,-353.01499999999999,285.81200000000001,-845.38499999999999
6256.0,2727.0700000000002,2909.1300000000001,442.79899999999998,2013.8900000000001,-310.41300000000001,342.39299999999997,-840.61099999999999
6257.0,2712.5,2873.4699999999998,441.01999999999998,2070.0900000000001,-266.78300000000002,398.12599999999998,-828.76700000000005
6258.0,2692.2399999999998,2780.6399999999999,395.89699999999999,2082.3299999999999,-223.923,451.50299999999999,-811.74599999999998
6259.0,2667.96,2689.4400000000001,365.13600000000002,2109.8899999999999,-181.87100000000001,500.37,-790.875
6260.0,2641.3600000000001,2600.5,347.62599999999998,2152.4099999999999,-139.78999999999999,543.19500000000005,-767.29600000000005
6261.0,2613.7199999999998,2492.1399999999999,319.62299999999999,2187.4200000000001,-99.049999999999997,578.51099999999997,-741.03599999999994
6262.0,2584.7199999999998,2392.6900000000001,307.76799999999997,2240.4899999999998,-58.6755,604.83699999999999,-711.86300000000006
6263.0,2557.3200000000002,2281.3000000000002,287.584,2288.5999999999999,-19.881799999999998,621.06799999999998,-681.17999999999995
6264.0,2529.2199999999998,2171.8000000000002,268.404,2339.1900000000001,17.4481,625.39300000000003,-646.30899999999997
6265.0,2508.48,2047.0,219.15299999999999,2372.8899999999999,49.933100000000003,617.81100000000004,-604.71199999999999
6266.0,2497.3800000000001,1929.3,173.02099999999999,2422.6700000000001,76.6751,596.85900000000004,-564.54600000000005
6267.0,2897.7199999999998,3107.6300000000001,472.839,2130.5500000000002,-410.88799999999998,179.923,-907.52499999999998
6268.0,2906.3200000000002,3134.0799999999999,487.18799999999999,2217.3600000000001,-364.06700000000001,230.49700000000001,-907.32899999999995
6269.0,2902.27,3089.52,449.32600000000002,2238.4299999999998,-319.173,284.70499999999998,-899.33600000000001
6270.0,2883.9299999999998,3041.0,428.08300000000003,2267.9400000000001,-274.029,339.28699999999998,-883.44500000000005
6271.0,2860.1599999999999,2967.6199999999999,396.30099999999999,2284.9099999999999,-228.98500000000001,392.71800000000002,-863.74900000000002
6272.0,2832.04,2910.3600000000001,394.05500000000001,2332.1999999999998,-184.833,442.58499999999998,-840.44799999999998
6273.0,2801.0300000000002,2796.1199999999999,346.09500000000003,2336.6700000000001,-141.67599999999999,487.25599999999997,-813.48099999999999
6274.0,2768.8800000000001,2713.1500000000001,339.09300000000002,2385.1900000000001,-99.863799999999998,525.15899999999999,-784.06700000000001
6275.0,2735.0999999999999,2585.7800000000002,295.67899999999997,2399.8400000000001,-59.023099999999999,554.51800000000003,-751.56299999999999
6276.0,2703.2399999999998,2481.7399999999998,279.62700000000001,2445.8000000000002,-20.102399999999999,574.47000000000003,-717.58199999999999
6277.0,2671.1100000000001,2369.23,254.69900000000001,2484.7399999999998,18.640799999999999,582.06899999999996,-680.327
6278.0,2651.5,2264.6500000000001,218.81100000000001,2531.3200000000002,56.426200000000001,577.798,-636.98099999999999
6279.0,2645.9299999999998,2119.8099999999999,137.27500000000001,2545.3600000000001,87.1327,562.02200000000005,-598.70299999999997
6280.0,3088.5900000000001,3335.8000000000002,540.66999999999996,2435.2399999999998,-423.666,125.09099999999999,-974.23400000000004
6281.0,3095.4400000000001,3348.3000000000002,533.22900000000004,2494.6999999999998,-374.69099999999997,171.733,-969.84400000000005
6282.0,3088.7600000000002,3285.5300000000002,469.39400000000001,2482.79,-327.91300000000001,223.273,-958.10599999999999
6283.0,3067.4499999999998,3277.2800000000002,481.01600000000002,2537.02,-280.51999999999998,276.459,-939.28499999999997
6284.0,3040.0799999999999,3173.5999999999999,411.64100000000002,2508.8099999999999,-234.34899999999999,329.613,-915.99599999999998
6285.0,3007.5700000000002,3121.1599999999999,407.596,2546.6500000000001,-189.21100000000001,380.28899999999999,-888.75400000000002
6286.0,2972.46,3007.2399999999998,354.25599999999997,2537.0500000000002,-144.65700000000001,426.89800000000002,-859.07299999999998
6287.0,2935.5900000000001,2938.23,356.57799999999997,2586.6500000000001,-101.708,467.63200000000001,-826.58100000000002
6288.0,2897.46,2806.02,304.45100000000002,2584.5,-59.435200000000002,500.44200000000001,-791.74699999999996
6289.0,2861.21,2732.6700000000001,315.55200000000002,2650.25,-19.386600000000001,524.48000000000002,-755.00699999999995
6290.0,2825.1199999999999,2587.4499999999998,255.55199999999999,2648.3000000000002,20.194600000000001,535.83100000000002,-715.39700000000005
6291.0,2803.3600000000001,2507.0799999999999,241.88800000000001,2712.7800000000002,61.369199999999999,536.04700000000003,-669.86000000000001
6292.0,2798.73,2333.27,127.346,2689.9499999999998,94.507099999999994,526.09500000000003,-631.31200000000001
6293.0,3290.46,3483.96,525.52800000000002,2670.0999999999999,-438.04500000000002,66.456400000000002,-1037.8299999999999
6294.0,3295.6100000000001,3524.23,537.87400000000002,2741.9699999999998,-386.76499999999999,108.83,-1029.98
6295.0,3286.1799999999998,3480.98,485.59899999999999,2733.3400000000001,-338.01400000000001,157.38,-1014.91
6296.0,3261.5500000000002,3456.1399999999999,472.40199999999999,2754.6300000000001,-289.17599999999999,209.02199999999999,-992.31100000000004
6297.0,3230.4200000000001,3380.46,423.70699999999999,2737.5100000000002,-241.315,261.88900000000001,-966.16300000000001
6298.0,3194.0500000000002,3342.75,427.52800000000002,2773.54,-194.42099999999999,313.601,-936.36900000000003
6299.0,3154.3800000000001,3224.1799999999998,363.40600000000001,2744.21,-148.96199999999999,362.07799999999997,-903.5
6300.0,3113.2399999999998,3164.9099999999999,369.70400000000001,2789.3800000000001,-105.01300000000001,405.81099999999998,-868.06100000000004
6301.0,3070.0799999999999,3023.2199999999998,304.07400000000001,2765.5900000000001,-62.363,442.07900000000001,-830.22799999999995
6302.0,3029.4899999999998,2951.3000000000002,311.97199999999998,2820.9400000000001,-21.807200000000002,470.13600000000002,-790.41700000000003
6303.0,2988.4699999999998,2810.73,255.37,2814.8000000000002,18.2395,486.41800000000001,-748.30399999999997
6304.0,2964.1399999999999,2738.3000000000002,248.036,2880.9200000000001,60.921999999999997,491.14499999999998,-701.04700000000003
6305.0,2960.71,2562.8499999999999,124.502,2846.8000000000002,95.667900000000003,485.303,-661.63099999999997
6306.0,3501.52,3720.73,599.95299999999997,3000.27,-451.846,4.7353899999999998,-1101.24
6307.0,3504.9499999999998,3716.6100000000001,558.86000000000001,3011.8400000000001,-398.85599999999999,42.302599999999998,-1089.26
6308.0,3492.77,3702.3400000000001,526.65099999999995,3015.1599999999999,-348.416,87.575100000000006,-1070.4100000000001
6309.0,3465.1500000000001,3671.8699999999999,499.10199999999998,3012.48,-297.81400000000002,137.42500000000001,-1044.8900000000001
6310.0,3430.3800000000001,3614.8099999999999,460.70400000000001,2996.6100000000001,-248.87899999999999,189.86699999999999,-1015.35
6311.0,3390.21,3542.6999999999998,421.99299999999999,2981.1500000000001,-201.13,242.26599999999999,-982.23599999999999
6312.0,3346.3000000000002,3470.73,397.596,2981.9099999999999,-154.523,292.78399999999999,-946.58900000000006
6313.0,3300.5100000000002,3374.8899999999999,361.42000000000002,2975.02,-109.70399999999999,339.67000000000002,-908.34500000000003
6314.0,3253.0500000000002,3285.5599999999999,343.36799999999999,2990.3099999999999,-66.024799999999999,379.952,-868.17200000000003
6315.0,3207.4000000000001,3173.5,307.31400000000002,2992.79,-24.453199999999999,412.113,-825.91200000000003
6316.0,3161.9299999999998,3076.73,289.762,3020.79,13.8452,433.56,-778.63999999999999
6317.0,3135.6300000000001,2951.6500000000001,228.72300000000001,3028.8400000000001,55.584800000000001,442.59500000000003,-731.37599999999998
6318.0,3131.0700000000002,2843.23,167.77199999999999,3050.46,95.742400000000004,440.84100000000001,-692.25099999999998
6319.0,3721.27,3877.6799999999998,593.72000000000003,3260.75,-466.839,-60.6432,-1161.03
6320.0,3722.4099999999999,3905.9299999999998,576.30799999999999,3286.9200000000001,-412.07499999999999,-28.188500000000001,-1145.4300000000001
6321.0,3707.5,3897.9899999999998,540.99599999999998,3277.7399999999998,-359.91800000000001,13.625400000000001,-1123.1600000000001
6322.0,3676.7399999999998,3865.0300000000002,501.59300000000002,3253.6100000000001,-308.22800000000001,61.304600000000001,-1094.24
6323.0,3639.0900000000001,3827.0999999999999,472.87099999999998,3237.5599999999999,-257.99299999999999,113.27500000000001,-1062.05
6324.0,3594.6900000000001,3774.4400000000001,445.834,3222.77,-208.91300000000001,166.422,-1026.3399999999999
6325.0,3547.1199999999999,3694.4699999999998,405.32299999999998,3197.71,-161.61000000000001,219.06399999999999,-987.98699999999997
6326.0,3496.3299999999999,3618.25,382.33800000000002,3194.02,-115.96299999999999,269.04399999999998,-946.66899999999998
6327.0,3445.1700000000001,3507.52,336.93299999999999,3173.8099999999999,-72.383200000000002,313.75,-904.10599999999999
6328.0,3393.5900000000001,3423.2399999999998,325.14499999999998,3191.21,-30.111000000000001,349.69499999999999,-859.01499999999999
6329.0,3348.9499999999998,3298.6599999999999,268.17099999999999,3179.9499999999998,7.9553399999999996,375.45600000000002,-807.09799999999996
6330.0,3322.25,3206.52,236.58099999999999,3212.75,45.427700000000002,389.06200000000001,-761.13999999999999
6331.0,3307.1500000000001,3070.9499999999998,154.57499999999999,3198.0799999999999,88.729799999999997,392.28800000000001,-721.05799999999999
6332.0,3946.8000000000002,4096.2600000000002,652.18200000000002,3590.1399999999999,-481.39999999999998,-129.00399999999999,-1218.9400000000001
6333.0,3946.1300000000001,4101.5799999999999,601.86500000000001,3575.21,-425.38099999999997,-102.185,-1199.29
6334.0,3928.9099999999999,4113.2600000000002,575.69000000000005,3565.8299999999999,-371.94299999999998,-64.394199999999998,-1173.51
6335.0,3895.3400000000001,4089.6399999999999,535.60400000000004,3530.4200000000001,-318.92899999999997,-18.940200000000001,-1141.78
6336.0,3854.3800000000001,4056.2399999999998,501.50099999999998,3498.4899999999998,-268.041,32.417499999999997,-1106.48
6337.0,3806.7800000000002,3993.2199999999998,454.72899999999998,3454.0900000000001,-218.143,86.099000000000004,-1068.1300000000001
6338.0,3755.4499999999998,3936.9000000000001,429.05500000000001,3433.2399999999998,-170.18600000000001,140.684,-1027.1700000000001
6339.0,3699.9099999999999,3850.3899999999999,388.666,3401.5599999999999,-123.73399999999999,194.20099999999999,-983.02300000000002
6340.0,3644.9400000000001,3767.5100000000002,364.84199999999998,3393.6599999999999,-80.007599999999996,243.773,-938.49599999999998
6341.0,3587.4299999999998,3662.5999999999999,329.19299999999998,3377.9699999999998,-37.302100000000003,283.85500000000002,-890.68399999999997
6342.0,3545.0900000000001,3561.8899999999999,285.09100000000001,3379.3000000000002,3.7704300000000002,314.01299999999998,-836.52999999999997
6343.0,3522.8699999999999,3442.9400000000001,215.35900000000001,3370.75,38.453299999999999,332.11200000000002,-792.84299999999996
6344.0,3497.3600000000001,3351.4000000000001,180.22300000000001,3390.4200000000001,78.1113,339.20600000000002,-749.75599999999997
6345.0,4177.7299999999996,4261.9200000000001,659.87900000000002,3876.7199999999998,-496.78899999999999,-200.721,-1272.3399999999999
6346.0,4174.6300000000001,4290.7299999999996,623.197,3865.0799999999999,-439.52199999999999,-179.83000000000001,-1249.01
6347.0,4154.7700000000004,4311.8400000000001,595.75300000000004,3843.7800000000002,-384.92500000000001,-146.21199999999999,-1219.9000000000001
6348.0,4118.8999999999996,4283.6000000000004,539.89999999999998,3782.1399999999999,-331.24000000000001,-103.367,-1185.28
6349.0,4075.6500000000001,4276.0200000000004,520.49900000000002,3754.1300000000001,-279.41300000000001,-52.983699999999999,-1147.74
6350.0,4024.9899999999998,4223.1400000000003,474.07900000000001,3699.0500000000002,-228.85499999999999,1.49688,-1107.26
6351.0,3969.9299999999998,4176.5200000000004,448.78199999999998,3667.3899999999999,-180.136,57.659300000000002,-1063.9000000000001
6352.0,3909.5599999999999,4090.8000000000002,400.27300000000002,3617.1900000000001,-133.78700000000001,115.09699999999999,-1015.6799999999999
6353.0,3848.8600000000001,4010.0300000000002,373.30099999999999,3596.1399999999999,-92.047399999999996,170.16900000000001,-967.73199999999997
6354.0,3787.25,3909.6700000000001,337.52499999999998,3573.5500000000002,-49.847000000000001,214.14400000000001,-917.54600000000005
6355.0,3745.6399999999999,3803.77,280.577,3557.9400000000001,-5.8968600000000002,248.98699999999999,-863.43299999999999
6356.0,3726.0500000000002,3693.3299999999999,209.46600000000001,3541.0799999999999,30.414100000000001,272.54500000000002,-822.15200000000004
6357.0,3699.5,3611.8200000000002,176.15600000000001,3556.98,67.232100000000003,283.39699999999999,-777.47900000000004
6358.0,4410.4700000000003,4456.8900000000003,702.72299999999996,4200.1999999999998,-511.678,-275.101,-1322.0899999999999
6359.0,4405.7799999999997,4488.0900000000001,657.32600000000002,4170.3100000000004,-453.73899999999998,-260.738,-1294.98
6360.0,4384.2299999999996,4513.5299999999997,622.21199999999999,4130.9499999999998,-398.303,-231.911,-1262.8299999999999
6361.0,4346.4399999999996,4515.25,584.39800000000002,4076.1500000000001,-344.00700000000001,-191.78899999999999,-1225.8099999999999
6362.0,4300.46,4496.3599999999997,542.13,4013.98,-291.87599999999998,-142.49700000000001,-1185.51
6363.0,4247.7700000000004,4457.8599999999997,498.56700000000001,3951.25,-241.12799999999999,-87.283600000000007,-1143.02
6364.0,4189.1899999999996,4407.7700000000004,460.64299999999997,3894.9699999999998,-191.64099999999999,-29.825199999999999,-1098.1500000000001
6365.0,4126.25,4345.1400000000003,421.51799999999997,3847.1900000000001,-145.09700000000001,30.8629,-1044.1800000000001
6366.0,4064.23,4247.6400000000003,366.834,3794.3400000000001,-108.992,90.460400000000007,-991.76900000000001
6367.0,3999.9099999999999,4159.9700000000003,339.51299999999998,3772.8299999999999,-67.569800000000001,137.92699999999999,-941.95399999999995
6368.0,3958.54,4050.4400000000001,271.58600000000001,3737.6700000000001,-19.531600000000001,177.75700000000001,-890.40599999999995
6369.0,3937.1799999999998,3965.0900000000001,218.876,3729.2600000000002,18.912199999999999,207.68000000000001,-849.44600000000003
6370.0,3910.3800000000001,3871.5799999999999,166.023,3719.2399999999998,56.006700000000002,224.49700000000001,-804.27800000000002
6371.0,4644.6000000000004,4622.6400000000003,722.05700000000002,4504.25,-526.94799999999998,-352.42200000000003,-1366.25
6372.0,4637.8199999999997,4671.5699999999997,683.072,4469.6099999999997,-468.464,-344.83199999999999,-1335.53
6373.0,4614.2799999999997,4707.8999999999996,646.71699999999998,4417.5299999999997,-412.64100000000002,-321.04000000000002,-1300.4200000000001
6374.0,4575.2799999999997,4708.2700000000004,594.21500000000003,4336.96,-358.23000000000002,-283.99400000000003,-1261.03
6375.0,4527.71,4711.4799999999996,561.57000000000005,4272.75,-305.637,-236.13200000000001,-1219.1700000000001
6376.0,4473.9700000000003,4687.6499999999996,519.69399999999996,4201.0200000000004,-254.809,-180.28399999999999,-1175.26
6377.0,4410.6700000000001,4652.8199999999997,488.32900000000001,4138.1599999999999,-205.386,-121.285,-1128.24
6378.0,4349.3500000000004,4585.3900000000003,427.476,4065.5300000000002,-156.374,-58.142099999999999,-1070.26
6379.0,4297.0200000000004,4486.5799999999999,349.88600000000002,3992.6199999999999,-123.506,3.8976500000000001,-1017.46
6380.0,4229.5900000000001,4404.3500000000004,323.98700000000002,3961.1999999999998,-85.203699999999998,55.2669,-969.69399999999996
6381.0,4179.5500000000002,4302.0799999999999,264.05000000000001,3917.4200000000001,-33.183399999999999,102.14700000000001,-919.005
6382.0,4155.9300000000003,4230.79,218.10400000000001,3906.1999999999998,8.2784800000000001,139.142,-877.29300000000001
6383.0,4128.0799999999999,4149.0799999999999,169.732,3894.6399999999999,44.561300000000003,162.52099999999999,-830.34199999999998
6384.0,4875.8999999999996,4798.5299999999997,760.90800000000002,4826.1999999999998,-541.61000000000001,-431.87799999999999,-1404.75
6385.0,4868.1099999999997,4856.0900000000001,717.98800000000006,4776.96,-483.09899999999999,-431.73700000000002,-1370.71
6386.0,4843.6599999999999,4898.3900000000003,674.25800000000004,4706.1700000000001,-427.19600000000003,-413.47199999999998,-1333.22
6387.0,4804.1300000000001,4931.0500000000002,639.745,4632.1599999999999,-372.82400000000001,-379.86799999999999,-1292.0
6388.0,4755.3599999999997,4929.9499999999998,589.17899999999997,4538.6999999999998,-320.596,-333.46600000000001,-1248.26
6389.0,4700.7200000000003,4922.1000000000004,549.56100000000004,4458.1000000000004,-270.00799999999998,-277.19499999999999,-1203.0599999999999
6390.0,4635.5900000000001,4878.6899999999996,497.59399999999999,4364.4099999999999,-220.965,-217.11799999999999,-1154.04
6391.0,4576.1700000000001,4838.96,449.77199999999999,4300.0600000000004,-168.78899999999999,-150.959,-1095.0599999999999
6392.0,4531.9899999999998,4721.8400000000001,335.096,4186.1400000000003,-132.93899999999999,-85.057500000000005,-1046.22
6393.0,4465.0200000000004,4652.2700000000004,311.18000000000001,4146.1499999999996,-98.1798,-29.401700000000002,-1000.13
6394.0,4403.71,4555.5299999999997,258.47199999999998,4094.2399999999998,-48.699399999999997,23.770399999999999,-946.66499999999996
6395.0,4373.8800000000001,4510.5900000000001,235.709,4095.6100000000001,-4.91974,68.375399999999999,-902.577
6396.0,4347.0200000000004,4425.5200000000004,174.07300000000001,4066.27,31.569900000000001,98.540000000000006,-853.99300000000005
6397.0,5103.6499999999996,4958.21,793.48500000000001,5140.8900000000003,-556.02099999999996,-513.596,-1436.3399999999999
6398.0,5094.75,5020.9300000000003,742.85299999999995,5072.3100000000004,-497.88600000000002,-521.24199999999996,-1399.2
6399.0,5069.6999999999998,5088.6599999999999,710.35799999999995,5001.1099999999997,-442.471,-508.88200000000001,-1359.3800000000001
6400.0,5030.3100000000004,5109.3000000000002,648.46100000000001,4888.46,-388.68799999999999,-479.041,-1316.51
6401.0,4981.4399999999996,5141.2399999999998,615.99000000000001,4801.3400000000001,-336.85500000000002,-434.37700000000001,-1271.8699999999999
6402.0,4926.5,5136.8299999999999,565.35299999999995,4698.1999999999998,-286.77699999999999,-377.84899999999999,-1226.0699999999999
6403.0,4861.8000000000002,5132.6899999999996,538.83799999999997,4621.1499999999996,-237.22999999999999,-316.48099999999999,-1176.52
6404.0,4804.7399999999998,5065.1800000000003,449.14400000000001,4507.7299999999996,-182.82300000000001,-247.18600000000001,-1119.02
6405.0,4760.5900000000001,4977.9700000000003,352.58600000000001,4400.8000000000002,-143.82499999999999,-175.88200000000001,-1072.49
6406.0,4695.9499999999998,4901.0500000000002,307.14100000000002,4330.5,-109.65000000000001,-114.76900000000001,-1027.5999999999999
6407.0,4631.9899999999998,4830.9399999999996,273.04700000000003,4288.1199999999999,-64.717100000000002,-57.232999999999997,-972.61599999999999
6408.0,4595.1499999999996,4775.9899999999998,237.477,4266.9099999999999,-22.318999999999999,-6.1390099999999999,-925.02800000000002
6409.0,4567.6300000000001,4726.9899999999998,203.745,4260.9399999999996,14.0954,31.240400000000001,-873.851
6410.0,5323.5200000000004,5114.0799999999999,835.64800000000002,5459.3000000000002,-569.54899999999998,-596.78899999999999,-1460.26
6411.0,5314.4899999999998,5180.5900000000001,774.99800000000005,5369.2399999999998,-512.44000000000005,-612.82799999999997,-1420.49
6412.0,5289.8199999999997,5266.0,744.86199999999997,5288.8500000000004,-457.74799999999999,-606.83100000000002,-1378.9200000000001
6413.0,5251.6199999999999,5310.3299999999999,690.15300000000002,5171.9700000000003,-404.92700000000002,-581.12400000000002,-1335.24
6414.0,5203.5900000000001,5358.4099999999999,657.43700000000001,5073.6000000000004,-354.072,-538.50099999999998,-1289.6900000000001
6415.0,5149.2299999999996,5357.6300000000001,594.32799999999997,4947.2700000000004,-305.26799999999997,-481.92899999999997,-1243.04
6416.0,5084.4700000000003,5354.3000000000002,555.73599999999999,4847.2600000000002,-255.54900000000001,-418.25400000000002,-1194.54
6417.0,5027.29,5312.8800000000001,480.39800000000002,4736.6599999999999,-198.91,-345.20299999999997,-1139.76
6418.0,4983.0600000000004,5238.3999999999996,383.34100000000001,4619.7399999999998,-158.126,-269.02800000000002,-1093.6300000000001
6419.0,4920.3000000000002,5147.0699999999997,309.70400000000001,4513.6499999999996,-124.291,-202.07400000000001,-1049.3299999999999
6420.0,4856.8800000000001,5109.5100000000002,296.714,4484.0600000000004,-81.716800000000006,-139.50800000000001,-994.46699999999998
6421.0,4818.54,5049.8100000000004,247.62100000000001,4443.1000000000004,-42.109099999999998,-83.441400000000002,-944.55700000000002
6422.0,4791.71,5029.1300000000001,232.786,4453.0900000000001,-6.8243600000000004,-39.868499999999997,-891.02200000000005
6423.0,5533.6199999999999,5245.7200000000003,868.78700000000003,5761.1700000000001,-582.17399999999998,-681.25400000000002,-1475.6400000000001
6424.0,5524.8500000000004,5328.1999999999998,809.70000000000005,5660.9499999999998,-526.64200000000005,-706.10900000000004,-1433.53
6425.0,5501.6700000000001,5433.2299999999996,782.65200000000004,5572.5600000000004,-473.29599999999999,-706.98500000000001,-1390.6400000000001
6426.0,5465.5500000000002,5474.8500000000004,707.38499999999999,5424.1700000000001,-422.11599999999999,-685.827,-1346.22
6427.0,5419.4899999999998,5548.4799999999996,682.56500000000005,5322.71,-372.51600000000002,-645.44000000000005,-1300.6700000000001
6428.0,5367.1499999999996,5557.9099999999999,611.98400000000004,5178.7299999999996,-324.88099999999997,-589.16700000000003,-1254.02
6429.0,5301.1599999999999,5602.3400000000001,607.06600000000003,5101.1099999999997,-277.72399999999999,-522.52999999999997,-1204.3800000000001
6430.0,5240.1300000000001,5535.6899999999996,497.94299999999998,4943.8299999999999,-222.482,-445.03800000000001,-1150.1800000000001
6431.0,5197.8599999999997,5494.0699999999997,419.512,4837.4899999999998,-179.03899999999999,-364.84100000000001,-1106.3299999999999
6432.0,5140.7299999999996,5413.1300000000001,338.505,4718.29,-144.25899999999999,-292.88600000000002,-1064.3900000000001
6433.0,5078.9700000000003,5383.4300000000003,320.79000000000002,4676.0500000000002,-103.203,-224.80099999999999,-1010.4299999999999
6434.0,5041.6199999999999,5326.0100000000002,262.93799999999999,4620.4499999999998,-64.939800000000005,-163.464,-960.02599999999995
6435.0,5017.0699999999997,5324.8199999999997,256.72500000000002,4635.8699999999999,-30.840900000000001,-114.09099999999999,-905.63199999999995
6436.0,5730.1700000000001,5359.0600000000004,902.03399999999999,6051.5500000000002,-593.54999999999995,-766.322,-1481.5699999999999
6437.0,5722.6899999999996,5470.8699999999999,856.76400000000001,5953.9200000000001,-540.08000000000004,-800.55399999999997,-1437.51
6438.0,5701.9899999999998,5569.4300000000003,805.82000000000005,5830.5299999999997,-488.75599999999997,-808.69100000000003,-1394.0599999999999
6439.0,5669.25,5668.7799999999997,769.02300000000002,5710.1800000000003,-439.35899999999998,-792.64499999999998,-1349.5899999999999
6440.0,5625.8599999999997,5731.2299999999996,713.71600000000001,5567.79,-392.00799999999998,-754.58000000000004,-1303.71
6441.0,5575.5500000000002,5785.5799999999999,669.72400000000005,5441.3299999999999,-346.61399999999998,-698.40700000000004,-1256.1300000000001
6442.0,5516.1599999999999,5776.3000000000002,588.99199999999996,5285.3100000000004,-303.20499999999998,-630.88199999999995,-1204.97
6443.0,5459.7200000000003,5787.1999999999998,541.49900000000002,5184.2299999999996,-253.602,-551.55100000000004,-1152.53
6444.0,5414.6899999999996,5721.3500000000004,429.90199999999999,5029.9300000000003,-207.62,-467.089,-1112.98
6445.0,5359.3199999999997,5678.1199999999999,371.161,4922.5699999999997,-168.625,-388.06,-1073.97
6446.0,5300.5500000000002,5642.1700000000001,333.08499999999998,4852.3999999999996,-128.24600000000001,-313.87099999999998,-1022.0599999999999
6447.0,5264.4499999999998,5624.9899999999998,304.15699999999998,4819.3000000000002,-90.891400000000004,-246.81399999999999,-971.83699999999999
6448.0,5242.5200000000004,5601.7799999999997,264.69799999999998,4797.3900000000003,-57.592199999999998,-191.304,-917.58900000000006
6449.0,5909.7200000000003,5454.0500000000002,938.221,6329.8100000000004,-603.41399999999999,-851.38400000000001,-1476.8699999999999
6450.0,5904.4099999999999,5589.8699999999999,900.63099999999997,6228.8999999999996,-552.49000000000001,-895.44200000000001,-1431.4300000000001
6451.0,5887.6599999999999,5703.6899999999996,846.08299999999997,6091.5900000000001,-504.06400000000002,-911.44399999999996,-1387.9300000000001
6452.0,5859.5299999999997,5809.6599999999999,795.59400000000005,5947.79,-456.98599999999999,-900.89999999999998,-1344.1400000000001
6453.0,5821.8100000000004,5887.7299999999996,732.70399999999995,5790.9499999999998,-412.10399999999998,-865.91600000000005,-1297.4000000000001
6454.0,5779.4700000000003,5955.04,678.43399999999997,5652.04,-371.16899999999998,-810.61000000000001,-1249.28
6455.0,5732.8599999999997,5997.4200000000001,625.0,5523.0299999999997,-329.06200000000001,-744.09299999999996,-1202.8399999999999
6456.0,5687.2200000000003,5988.4300000000003,535.06500000000005,5372.46,-281.51999999999998,-664.22400000000005,-1158.0999999999999
6457.0,5635.1400000000003,5957.2200000000003,450.65100000000001,5226.4200000000001,-236.702,-574.976,-1119.9400000000001
6458.0,5575.4700000000003,5948.6400000000003,415.60899999999998,5131.6999999999998,-195.709,-487.24299999999999,-1079.6700000000001
6459.0,5519.0600000000004,5901.8100000000004,352.60700000000003,5029.1899999999996,-155.90799999999999,-406.12599999999998,-1029.48
6460.0,5485.0200000000004,5905.3599999999997,332.15600000000001,4998.2399999999998,-119.896,-333.07100000000003,-980.07399999999996
6461.0,5465.79,5888.0699999999997,287.14299999999997,4966.3199999999997,-87.648799999999994,-271.36900000000003,-926.20399999999995
6462.0,6068.7700000000004,5542.0600000000004,991.66200000000003,6606.29,-611.16200000000003,-935.75,-1460.72
6463.0,6067.04,5674.1599999999999,933.26499999999999,6474.3299999999999,-563.70500000000004,-990.245,-1414.6900000000001
6464.0,6056.0200000000004,5819.54,889.68499999999995,6339.0100000000002,-518.60400000000004,-1014.67,-1371.8099999999999
6465.0,6032.4799999999996,5953.8199999999997,846.38800000000003,6192.3599999999997,-474.82499999999999,-1009.99,-1328.29
6466.0,6004.0100000000002,6060.8900000000003,786.29200000000003,6035.9300000000003,-432.06999999999999,-977.86699999999996,-1281.8
6467.0,5978.79,6134.6400000000003,709.91800000000001,5877.8199999999997,-395.125,-925.23000000000002,-1239.49
6468.0,5940.8699999999999,6151.8800000000001,612.12300000000005,5694.0799999999999,-353.29500000000002,-859.70699999999999,-1202.75
6469.0,5895.4300000000003,6206.2700000000004,568.33000000000004,5572.3699999999999,-304.73099999999999,-776.28599999999994,-1162.6700000000001
6470.0,5843.1400000000003,6194.8800000000001,487.37900000000002,5420.5799999999999,-264.03699999999998,-682.45299999999997,-1122.5
6471.0,5785.04,6172.3299999999999,423.44299999999998,5293.3299999999999,-225.864,-589.197,-1080.5999999999999
6472.0,5732.46,6183.4499999999998,402.64600000000002,5227.8199999999997,-186.423,-501.32999999999998,-1032.1900000000001
6473.0,5701.7700000000004,6164.5100000000002,346.142,5154.9099999999999,-151.553,-422.05200000000002,-984.61599999999999
6474.0,5685.6000000000004,6193.96,335.73500000000001,5153.1000000000004,-120.48099999999999,-354.10899999999998,-931.27599999999995
6475.0,6202.8900000000003,5583.3500000000004,1026.4000000000001,6840.2299999999996,-616.42999999999995,-1018.5599999999999,-1431.8299999999999
6476.0,6206.0,5755.6599999999999,990.25699999999995,6721.0500000000002,-573.42700000000002,-1083.8599999999999,-1385.9100000000001
6477.0,6201.9899999999998,5910.8000000000002,935.00999999999999,6565.7200000000003,-532.14599999999996,-1117.3599999999999,-1344.5599999999999
6478.0,6186.8500000000004,6054.6000000000004,875.74400000000003,6398.3800000000001,-492.13299999999998,-1119.4000000000001,-1300.28
6479.0,6171.5100000000002,6168.9300000000003,794.12,6221.8599999999997,-453.91699999999997,-1089.6400000000001,-1255.8699999999999
6480.0,6158.6099999999997,6257.0699999999997,710.81899999999996,6048.8699999999999,-419.83199999999999,-1039.3900000000001,-1225.98
6481.0,6124.2299999999996,6366.1300000000001,685.92600000000004,5921.5799999999999,-377.99599999999998,-974.62300000000005,-1195.9100000000001
6482.0,6080.4899999999998,6392.3199999999997,592.89599999999996,5742.2200000000003,-331.98899999999998,-887.57299999999998,-1153.6300000000001
6483.0,6038.3699999999999,6411.2700000000004,518.62199999999996,5597.46,-294.85500000000002,-790.59699999999998,-1115.9300000000001
6484.0,5987.5200000000004,6436.5,482.60899999999998,5494.8299999999999,-257.70999999999998,-693.66200000000003,-1076.8299999999999
6485.0,5939.1499999999996,6417.4899999999998,415.62200000000001,5378.5699999999997,-219.774,-599.14200000000005,-1030.4300000000001
6486.0,5911.9499999999998,6450.8500000000004,397.30799999999999,5338.4899999999998,-186.23500000000001,-513.45500000000004,-984.41499999999996
6487.0,5899.8999999999996,6449.3400000000001,342.93799999999999,5288.1800000000003,-156.75899999999999,-439.32299999999998,-932.76199999999994
6488.0,6308.4099999999999,5614.2200000000003,1082.3599999999999,7066.7299999999996,-618.75800000000004,-1099.04,-1389.6900000000001
6489.0,6318.54,5787.46,1027.52,6921.2299999999996,-580.95000000000005,-1175.6600000000001,-1344.8299999999999
6490.0,6322.1800000000003,5972.1999999999998,979.95699999999999,6766.1700000000001,-544.53700000000003,-1218.8399999999999,-1304.76
6491.0,6321.0100000000002,6155.9899999999998,930.38400000000001,6610.6599999999999,-507.54199999999997,-1227.5899999999999,-1261.2
6492.0,6326.3100000000004,6288.1899999999996,833.23599999999999,6423.8800000000001,-476.39100000000002,-1202.22,-1223.4200000000001
6493.0,6317.9200000000001,6413.2600000000002,770.64800000000002,6255.4899999999998,-449.07600000000002,-1154.8,-1202.3099999999999
6494.0,6283.8900000000003,6483.3900000000003,687.66200000000003,6055.4499999999998,-406.98200000000003,-1089.5699999999999,-1174.1099999999999
6495.0,6255.79,6601.6499999999996,655.18100000000004,5940.8199999999997,-362.58499999999998,-1000.89,-1135.4200000000001
6496.0,6223.8199999999997,6623.0200000000004,560.25099999999998,5772.7299999999996,-328.35300000000001,-901.46900000000005,-1102.95
6497.0,6178.25,6644.1099999999997,500.78899999999999,5640.6300000000001,-292.29199999999997,-799.48699999999997,-1066.8099999999999
6498.0,6136.8599999999997,6679.9099999999999,469.84899999999999,5557.8400000000001,-255.797,-699.13400000000001,-1023.49
6499.0,6114.4200000000001,6697.4399999999996,420.34399999999999,5481.9399999999996,-223.44399999999999,-607.10199999999998,-979.98500000000001
6500.0,6106.5799999999999,6738.6700000000001,395.51299999999998,5456.6599999999999,-195.81999999999999,-526.73400000000004,-930.19299999999998
6501.0,6380.5699999999997,5598.5600000000004,1127.1600000000001,7248.1899999999996,-617.77999999999997,-1175.8399999999999,-1332.6800000000001
6502.0,6398.8900000000003,5812.0,1092.6900000000001,7116.21,-586.077,-1264.48,-1289.8099999999999
6503.0,6414.0299999999997,6012.3000000000002,1034.9100000000001,6949.1800000000003,-554.82100000000003,-1317.8299999999999,-1250.45
6504.0,6431.3800000000001,6192.4700000000003,949.21500000000003,6763.8000000000002,-522.78200000000004,-1332.98,-1210.8399999999999
6505.0,6457.0600000000004,6340.04,836.08199999999999,6561.1000000000004,-498.17700000000002,-1313.79,-1184.8699999999999
6506.0,6458.2700000000004,6488.9700000000003,773.27599999999995,6381.1400000000003,-477.834,-1272.1400000000001,-1169.73
6507.0,6430.5600000000004,6675.75,782.38099999999997,6269.2399999999998,-439.23899999999998,-1206.1500000000001,-1141.29
6508.0,6412.9799999999996,6747.7200000000003,677.97299999999996,6081.2600000000002,-396.61000000000001,-1114.54,-1108.5999999999999
6509.0,6392.5100000000002,6812.96,601.44500000000005,5927.4399999999996,-363.286,-1013.16,-1083.54
6510.0,6356.9099999999999,6877.1599999999999,561.053,5813.1599999999999,-328.63400000000001,-906.83500000000004,-1051.0699999999999
6511.0,6322.6999999999998,6901.1800000000003,499.005,5696.7600000000002,-294.322,-800.62,-1010.96
6512.0,6306.1899999999996,6951.5,465.79899999999998,5633.29,-263.803,-702.56299999999999,-970.57299999999998
6513.0,6303.54,6994.0500000000002,427.82999999999998,5591.21,-237.91300000000001,-615.98400000000004,-922.803
6514.0,6415.1199999999999,5555.1899999999996,1183.6199999999999,7401.1000000000004,-612.67399999999998,-1248.1500000000001,-1260.49
6515.0,6443.2700000000004,5775.5299999999997,1135.9400000000001,7251.0100000000002,-588.11500000000001,-1349.1600000000001,-1220.5
6516.0,6475.5299999999997,6003.5500000000002,1076.1099999999999,7086.2299999999996,-561.28800000000001,-1413.02,-1184.73
6517.0,6516.9200000000001,6226.0600000000004,997.28899999999999,6916.3100000000004,-536.39800000000002,-1435.6800000000001,-1154.3800000000001
6518.0,6558.1300000000001,6412.29,896.5,6719.6499999999996,-518.64800000000002,-1424.49,-1140.29
6519.0,6572.1400000000003,6603.9300000000003,844.87300000000005,6547.2200000000003,-502.39600000000002,-1388.22,-1127.0799999999999
6520.0,6561.2700000000004,6740.4300000000003,769.91300000000001,6357.8400000000001,-472.47199999999998,-1322.6099999999999,-1099.01
6521.0,6555.1000000000004,6901.4700000000003,730.96900000000005,6232.8800000000001,-434.541,-1230.27,-1074.8099999999999
6522.0,6543.6300000000001,6996.7399999999998,659.37400000000002,6079.3299999999999,-400.82999999999998,-1125.8499999999999,-1055.8699999999999
6523.0,6519.1599999999999,7054.71,586.75800000000004,5932.3199999999997,-367.76400000000001,-1014.76,-1027.9200000000001
6524.0,6494.9799999999996,7135.3599999999997,559.44100000000003,5849.8199999999997,-335.22300000000001,-903.44799999999998,-992.87300000000005
6525.0,6485.4700000000003,7177.71,500.39499999999998,5757.6300000000001,-306.435,-799.42899999999997,-955.95500000000004
6526.0,6488.5,7252.8400000000001,480.25099999999998,5729.6599999999999,-282.82900000000001,-706.84000000000003,-910.97400000000005
6527.0,6408.0699999999997,5470.3000000000002,1242.3099999999999,7510.9099999999999,-603.07399999999996,-1314.8199999999999,-1171.6700000000001
6528.0,6446.9399999999996,5728.1199999999999,1210.4100000000001,7374.1199999999999,-586.53399999999999,-1428.24,-1133.76
6529.0,6495.3500000000004,5977.3299999999999,1143.1300000000001,7206.3299999999999,-565.98500000000001,-1500.97,-1102.8199999999999
6530.0,6559.8599999999997,6200.0,1031.02,7008.75,-549.79999999999995,-1532.04,-1084.8299999999999
6531.0,6616.9499999999998,6412.0299999999997,929.34799999999996,6806.4700000000003,-539.51599999999996,-1530.8900000000001,-1080.4100000000001
6532.0,6652.0,6633.1400000000003,868.29899999999998,6631.6999999999998,-525.09699999999998,-1500.1199999999999,-1071.73
6533.0,6670.9399999999996,6874.0200000000004,854.25599999999997,6516.8999999999996,-501.495,-1437.8,-1053.55
6534.0,6679.5900000000001,7010.6800000000003,763.55600000000004,6339.3199999999997,-471.68099999999998,-1346.8499999999999,-1036.6900000000001
6535.0,6675.3100000000004,7143.0699999999997,704.88999999999999,6195.3900000000003,-439.84500000000003,-1239.1099999999999,-1020.83
6536.0,6664.0900000000001,7248.3400000000001,651.53700000000003,6069.9799999999996,-408.36900000000003,-1123.0899999999999,-998.80999999999995
6537.0,6650.1700000000001,7329.5600000000004,602.0,5964.8800000000001,-378.43700000000001,-1006.91,-968.16600000000005
6538.0,6649.3699999999999,7395.71,547.255,5875.3900000000003,-351.92500000000001,-897.14200000000005,-935.78899999999999
6539.0,6658.71,7491.0500000000002,531.75199999999995,5848.96,-330.512,-798.85299999999995,-893.62199999999996
6540.0,6352.8800000000001,5342.4300000000003,1308.0699999999999,7573.04,-587.87800000000004,-1374.0699999999999,-1065.71
6541.0,6408.6000000000004,5599.8699999999999,1248.1500000000001,7415.3900000000003,-579.44899999999996,-1500.2,-1029.04
6542.0,6481.3500000000004,5874.75,1172.79,7253.5,-570.84299999999996,-1582.5599999999999,-1004.09
6543.0,6567.46,6148.6599999999999,1083.6300000000001,7081.1800000000003,-565.11099999999999,-1624.6600000000001,-1001.25
6544.0,6642.7399999999998,6422.9499999999998,1013.04,6908.2399999999998,-558.93700000000001,-1634.3900000000001,-1007.8099999999999
6545.0,6700.3599999999997,6686.3699999999999,954.05999999999995,6745.1199999999999,-547.51599999999996,-1608.2,-1006.13
6546.0,6742.5299999999997,6891.3900000000003,865.33699999999999,6562.4300000000003,-529.65599999999995,-1548.3,-998.19799999999998
6547.0,6771.04,7107.8699999999999,820.30899999999997,6432.8699999999999,-506.37900000000002,-1459.5899999999999,-990.22000000000003
6548.0,6783.1099999999997,7283.1700000000001,773.41300000000001,6306.75,-479.142,-1351.02,-978.44299999999998
6549.0,6787.29,7388.6999999999998,690.48800000000006,6157.6099999999997,-451.36799999999999,-1231.0699999999999,-961.59299999999996
6550.0,6786.1700000000001,7521.9899999999998,667.60000000000002,6080.5500000000002,-423.43900000000002,-1110.45,-937.14200000000005
6551.0,6795.6400000000003,7588.7200000000003,592.38300000000004,5970.5500000000002,-399.54700000000003,-995.41499999999996,-909.81700000000001
6552.0,6812.04,7714.3299999999999,590.72400000000005,5955.21,-380.54300000000001,-891.59000000000003,-870.95699999999999
6553.0,6247.0200000000004,5168.0,1379.8800000000001,7582.4700000000003,-566.64200000000005,-1424.3099999999999,-939.89400000000001
6554.0,6326.3199999999997,5459.1800000000003,1321.8199999999999,7443.3100000000004,-566.24099999999999,-1562.3199999999999,-908.17399999999998
6555.0,6433.0600000000004,5755.1199999999999,1229.6600000000001,7284.4499999999998,-572.19799999999998,-1657.9400000000001,-897.44000000000005
6556.0,6538.1300000000001,6050.7700000000004,1136.73,7107.7200000000003,-578.55999999999995,-1714.0599999999999,-907.399
6557.0,6628.1300000000001,6354.7200000000003,1063.55,6933.5299999999997,-577.23199999999997,-1732.22,-919.54700000000003
6558.0,6709.5799999999999,6660.0299999999997,1004.91,6781.8699999999999,-571.04100000000005,-1710.71,-926.72199999999998
6559.0,6776.4099999999999,6955.3000000000002,966.69600000000003,6657.9200000000001,-558.52700000000004,-1654.75,-930.66300000000001
6560.0,6829.1000000000004,7179.7299999999996,890.33199999999999,6506.5799999999999,-541.70399999999995,-1568.4000000000001,-931.06100000000004
6561.0,6863.2399999999998,7367.3299999999999,819.471,6366.0100000000002,-519.58799999999997,-1460.3900000000001,-926.51599999999996
6562.0,6886.4499999999998,7538.4700000000003,769.30899999999997,6257.6400000000003,-495.11200000000002,-1338.04,-917.39700000000005
6563.0,6900.0100000000002,7664.5200000000004,711.80399999999997,6149.79,-470.46300000000002,-1213.46,-899.17499999999995
6564.0,6920.75,7777.9799999999996,660.96400000000006,6065.1400000000003,-449.34899999999999,-1093.46,-877.22500000000002
6565.0,6945.3299999999999,7899.9499999999998,638.40599999999995,6026.9300000000003,-433.06999999999999,-984.53499999999997,-842.59799999999996
6566.0,6089.9899999999998,4936.4799999999996,1448.1900000000001,7527.1899999999996,-538.02800000000002,-1462.8599999999999,-792.16399999999999
6567.0,6196.0100000000002,5210.6300000000001,1343.0899999999999,7360.4099999999999,-550.09199999999998,-1612.45,-772.21400000000006
6568.0,6329.3299999999999,5550.1400000000003,1264.5699999999999,7224.0200000000004,-568.36099999999999,-1723.8699999999999,-782.01099999999997
6569.0,6456.6199999999999,5898.3299999999999,1191.8699999999999,7072.4799999999996,-584.48800000000006,-1795.77,-802.74599999999998
6570.0,6571.96,6279.8699999999999,1155.5699999999999,6951.4200000000001,-591.23199999999997,-1823.1700000000001,-820.447
6571.0,6681.8100000000004,6619.71,1087.55,6808.1099999999997,-593.096,-1808.24,-836.54200000000003
6572.0,6776.4499999999998,6917.9499999999998,1009.01,6658.2399999999998,-588.78099999999995,-1757.3800000000001,-849.84000000000003
6573.0,6854.9200000000001,7204.4399999999996,953.27999999999997,6539.29,-577.54899999999998,-1673.9300000000001,-860.52999999999997
6574.0,6913.4099999999999,7451.1000000000004,902.43100000000004,6429.6899999999996,-560.48099999999999,-1566.75,-865.87
6575.0,6957.6599999999999,7628.3999999999996,823.178,6302.2299999999996,-540.27800000000002,-1442.99,-864.43299999999999
6576.0,6988.8900000000003,7802.6000000000004,783.49900000000002,6218.6000000000004,-518.86199999999997,-1315.24,-854.173
6577.0,7022.5,7925.5200000000004,718.03599999999994,6121.9399999999996,-500.70600000000002,-1190.9100000000001,-838.08299999999997
6578.0,7056.2600000000002,8072.8900000000003,702.75999999999999,6089.8500000000004,-487.48000000000002,-1077.2,-808.46000000000004
6579.0,5886.0200000000004,4635.9099999999999,1502.8599999999999,7393.6700000000001,-500.54300000000001,-1488.1800000000001,-629.31200000000001
6580.0,6017.4899999999998,4955.79,1418.03,7263.6199999999999,-530.52499999999998,-1651.9200000000001,-625.29300000000001
6581.0,6166.9099999999999,5339.5900000000001,1361.6099999999999,7152.3999999999996,-560.74000000000001,-1779.6199999999999,-649.22900000000004
6582.0,6319.1099999999997,5725.2399999999998,1287.1700000000001,7015.1800000000003,-585.20600000000002,-1865.48,-677.86699999999996
6583.0,6468.7399999999998,6134.9399999999996,1231.95,6901.4700000000003,-603.149,-1904.23,-704.697
6584.0,6610.1000000000004,6517.3900000000003,1161.01,6775.8100000000004,-613.66499999999996,-1898.4400000000001,-732.49900000000002
6585.0,6736.1800000000003,6899.8100000000004,1119.4000000000001,6681.2399999999998,-616.79300000000001,-1853.8699999999999,-758.68600000000004
6586.0,6844.0900000000001,7203.8699999999999,1036.48,6551.7799999999997,-612.58299999999997,-1774.8599999999999,-780.01999999999998
6587.0,6930.6099999999997,7470.2299999999996,962.00999999999999,6434.3500000000004,-601.68499999999995,-1669.3499999999999,-795.57399999999996
6588.0,6998.3999999999996,7706.2299999999996,903.42700000000002,6339.5,-585.60500000000002,-1545.22,-803.55999999999995
6589.0,7049.46,7893.1899999999996,843.83600000000001,6244.9799999999996,-568.553,-1414.95,-801.60799999999995
6590.0,7097.1499999999996,8060.54,797.27800000000002,6171.2799999999997,-553.47299999999996,-1286.8599999999999,-791.71799999999996
6591.0,7141.5200000000004,8205.7999999999993,760.63499999999999,6117.8699999999999,-543.94799999999998,-1168.97,-767.96699999999998
6592.0,5623.5200000000004,4280.9300000000003,1572.3399999999999,7188.1899999999996,-454.59100000000001,-1497.0999999999999,-453.45800000000003
6593.0,5778.21,4584.8500000000004,1449.0699999999999,7035.7299999999996,-503.11599999999999,-1678.25,-466.67899999999997
6594.0,5950.3500000000004,5030.7399999999998,1425.9200000000001,6975.6599999999999,-546.16399999999999,-1823.45,-499.43900000000002
6595.0,6132.6099999999997,5455.7299999999996,1347.47,6862.4300000000003,-580.96000000000004,-1923.1099999999999,-537.18799999999999
6596.0,6317.6700000000001,5950.9799999999996,1328.73,6813.7399999999998,-609.89700000000005,-1974.8,-577.39099999999996
6597.0,6493.8100000000004,6358.21,1233.8399999999999,6689.6400000000003,-630.75599999999997,-1980.28,-617.57100000000003
6598.0,6654.4499999999998,6784.5,1185.26,6612.9200000000001,-643.48099999999999,-1943.46,-655.27800000000002
6599.0,6794.0100000000002,7129.71,1095.5699999999999,6496.4399999999996,-646.52499999999998,-1870.0,-688.78700000000003
6600.0,6910.75,7489.5200000000004,1068.28,6445.0,-642.149,-1767.0699999999999,-715.904
6601.0,7004.9899999999998,7721.6499999999996,964.44500000000005,6320.3900000000003,-631.26099999999997,-1643.6199999999999,-733.75999999999999
6602.0,7078.7799999999997,7974.0100000000002,934.37400000000002,6267.5200000000004,-618.69299999999998,-1511.8499999999999,-741.197
6603.0,7142.3800000000001,8133.79,852.78099999999995,6164.6099999999997,-607.02099999999996,-1380.74,-738.39400000000001
6604.0,7198.04,8330.0400000000009,847.27700000000004,6143.5,-601.34000000000003,-1259.1700000000001,-720.91700000000003
6605.0,5297.8500000000004,3841.1599999999999,1637.2,6875.1499999999996,-401.45999999999998,-1486.8599999999999,-259.584
6606.0,5473.8199999999997,4228.3199999999997,1575.1600000000001,6806.6899999999996,-466.50099999999998,-1686.51,-288.041
6607.0,5676.1599999999999,4706.25,1546.4100000000001,6774.8800000000001,-522.755,-1850.2,-331.13799999999998
6608.0,5894.0600000000004,5189.6700000000001,1479.53,6711.8000000000002,-571.15999999999997,-1966.1300000000001,-380.75700000000001
6609.0,6115.8400000000001,5698.6000000000004,1423.49,6660.5299999999997,-612.60900000000004,-2032.8199999999999,-434.47399999999999
6610.0,6328.8000000000002,6177.7200000000003,1347.6800000000001,6586.0799999999999,-644.37800000000004,-2051.2399999999998,-488.81799999999998
6611.0,6525.9300000000003,6656.8599999999997,1298.2,6536.6899999999996,-666.59100000000001,-2024.1700000000001,-540.76599999999996
6612.0,6701.0,7054.75,1208.6400000000001,6446.2799999999997,-678.33799999999997,-1957.8,-587.05999999999995
6613.0,6851.5,7412.0600000000004,1128.3900000000001,6365.6499999999996,-681.476,-1859.1099999999999,-626.29700000000003
6614.0,6975.1499999999996,7723.5,1058.8,6294.4499999999998,-676.30600000000004,-1737.3699999999999,-655.46799999999996
6615.0,7073.3000000000002,7987.5100000000002,1002.29,6229.6499999999996,-668.89499999999998,-1605.0,-672.52599999999995
6616.0,7154.8100000000004,8208.8099999999995,952.62800000000004,6166.8999999999996,-661.24699999999996,-1471.6600000000001,-677.50400000000002
6617.0,7222.8000000000002,8390.0599999999995,911.24400000000003,6112.2799999999997,-659.66300000000001,-1347.0899999999999,-666.73099999999999
6618.0,4929.3400000000001,3357.3000000000002,1739.2,6499.9899999999998,-343.70400000000001,-1455.8699999999999,-42.359099999999998
6619.0,5123.04,3725.5700000000002,1634.3900000000001,6420.8800000000001,-421.61500000000001,-1674.77,-88.506299999999996
6620.0,5353.6899999999996,4260.5699999999997,1621.1800000000001,6447.6099999999997,-491.291,-1857.5899999999999,-145.95599999999999
6621.0,5605.7799999999997,4775.6999999999998,1537.55,6411.71,-554.15499999999997,-1992.51,-210.94900000000001
6622.0,5864.0799999999999,5374.96,1518.4000000000001,6437.5799999999999,-608.65499999999997,-2076.8899999999999,-280.065
6623.0,6115.7299999999996,5887.8100000000004,1418.99,6377.6000000000004,-652.77599999999995,-2110.27,-348.85500000000002
6624.0,6351.6099999999997,6427.1800000000003,1371.99,6364.9799999999996,-686.32000000000005,-2095.23,-414.52999999999997
6625.0,6563.9200000000001,6876.9200000000001,1277.5999999999999,6300.3400000000001,-707.43899999999996,-2037.27,-474.61799999999999
6626.0,6749.3400000000001,7336.1899999999996,1246.0999999999999,6295.1400000000003,-718.58600000000001,-1944.1099999999999,-526.91300000000001
6627.0,6905.29,7665.29,1145.0599999999999,6216.2700000000004,-720.38699999999994,-1825.1800000000001,-567.82299999999998
6628.0,7030.1999999999998,7978.46,1096.6199999999999,6177.1499999999996,-718.26900000000001,-1693.52,-595.50800000000004
6629.0,7131.3800000000001,8207.1000000000004,1022.7,6100.8199999999997,-715.29999999999995,-1558.72,-609.14400000000001
6630.0,7212.6400000000003,8436.5799999999999,1007.73,6076.3500000000004,-717.84500000000003,-1432.01,-605.41099999999994
6631.0,4539.6099999999997,2758.71,1810.4300000000001,5984.1300000000001,-276.94600000000003,-1403.5899999999999,188.47
6632.0,4738.7399999999998,3239.54,1795.97,6035.6899999999996,-366.315,-1639.5999999999999,128.41499999999999
6633.0,4990.5699999999997,3799.5300000000002,1764.02,6097.5500000000002,-450.94099999999997,-1842.53,55.259799999999998
6634.0,5272.3999999999996,4397.8699999999999,1712.76,6146.6599999999999,-529.22400000000005,-1999.3499999999999,-26.264500000000002
6635.0,5565.3500000000004,4995.0799999999999,1634.4200000000001,6161.8299999999999,-598.202,-2104.4400000000001,-111.29900000000001
6636.0,5854.1000000000004,5614.0299999999997,1579.8699999999999,6190.4499999999998,-655.33500000000004,-2155.2199999999998,-195.78899999999999
6637.0,6128.1300000000001,6173.3699999999999,1491.54,6175.1700000000001,-700.553,-2154.3299999999999,-277.04700000000003
6638.0,6379.8999999999996,6715.5,1427.71,6178.0299999999997,-732.58100000000002,-2106.7399999999998,-351.39999999999998
6639.0,6602.7299999999996,7138.5200000000004,1302.3800000000001,6110.9799999999996,-752.85400000000004,-2020.99,-417.53699999999998
6640.0,6793.4399999999996,7577.2399999999998,1257.6900000000001,6116.9200000000001,-762.34299999999996,-1906.1400000000001,-471.33999999999997
6641.0,6946.7799999999997,7894.6000000000004,1169.75,6058.8699999999999,-766.35699999999997,-1776.4100000000001,-510.00299999999999
6642.0,7069.6199999999999,8209.8600000000006,1148.3,6048.8299999999999,-768.56299999999999,-1641.1300000000001,-532.96199999999999
6643.0,7164.2600000000002,8403.0200000000004,1075.02,5970.4899999999998,-775.64999999999998,-1512.9300000000001,-536.52700000000004
6644.0,4153.5299999999997,2131.4000000000001,1948.0699999999999,5401.5200000000004,-196.06,-1321.4100000000001,436.39999999999998
6645.0,4350.4499999999998,2561.5500000000002,1856.3499999999999,5439.8000000000002,-300.39499999999998,-1576.0999999999999,361.49400000000003
6646.0,4608.1300000000001,3193.3099999999999,1851.71,5595.96,-400.75700000000001,-1801.6900000000001,269.99599999999998
6647.0,4907.4300000000003,3800.8200000000002,1756.3599999999999,5662.1199999999999,-495.06799999999998,-1984.2,170.119
6648.0,5226.71,4524.6599999999999,1743.75,5799.1700000000001,-578.74300000000005,-2113.2600000000002,68.218199999999996
6649.0,5549.3900000000003,5150.71,1630.02,5820.3299999999999,-650.51300000000003,-2184.9499999999998,-32.304299999999998
6650.0,5860.4300000000003,5825.5600000000004,1590.1800000000001,5899.71,-708.995,-2200.6900000000001,-128.45599999999999
6651.0,6150.0200000000004,6389.4399999999996,1482.5899999999999,5899.6099999999997,-752.74300000000005,-2165.3800000000001,-218.101
6652.0,6410.8699999999999,6976.1999999999998,1458.72,5971.4899999999998,-783.14800000000002,-2088.3499999999999,-298.38099999999997
6653.0,6637.0200000000004,7403.1800000000003,1345.95,5941.21,-801.37900000000002,-1979.1400000000001,-365.35399999999998
6654.0,6820.6499999999996,7805.5600000000004,1295.7,5945.6899999999996,-812.255,-1852.3299999999999,-415.84100000000001
6655.0,6965.6599999999999,8088.25,1206.5699999999999,5883.5699999999997,-820.21199999999999,-1717.74,-448.70999999999998
6656.0,7075.79,8384.7399999999998,1212.21,5891.3000000000002,-831.98199999999997,-1589.1500000000001,-460.38999999999999
6657.0,3849.79,1363.8,2047.23,4640.9399999999996,-102.38,-1199.99,707.70500000000004
6658.0,4009.8699999999999,1921.05,2054.52,4860.54,-223.261,-1476.7,611.43299999999999
6659.0,4242.8900000000003,2576.9699999999998,2028.7,5077.7200000000003,-339.88600000000002,-1730.48,498.834
6660.0,4536.5100000000002,3281.3499999999999,1971.9300000000001,5257.7700000000004,-450.71800000000002,-1943.3800000000001,379.31700000000001
6661.0,4866.8100000000004,4006.6900000000001,1894.79,5396.5,-550.005,-2101.5,259.87700000000001
6662.0,5210.8900000000003,4750.5900000000001,1828.1099999999999,5521.8500000000004,-636.89599999999996,-2197.4200000000001,142.38300000000001
6663.0,5551.4799999999996,5451.1599999999999,1742.1300000000001,5606.0699999999997,-709.17100000000005,-2232.48,30.479900000000001
6664.0,5876.3800000000001,6103.6899999999996,1652.1099999999999,5670.9499999999998,-766.63300000000004,-2211.6799999999998,-74.363699999999994
6665.0,6173.1099999999997,6663.5900000000001,1535.03,5691.0200000000004,-808.43100000000004,-2144.8400000000001,-168.863
6666.0,6434.7200000000003,7182.2600000000002,1454.0599999999999,5728.9899999999998,-836.52499999999998,-2042.73,-250.63300000000001
6667.0,6650.5100000000002,7629.2600000000002,1396.95,5756.9099999999999,-854.98800000000006,-1920.4000000000001,-313.15899999999999
6668.0,6818.6400000000003,7980.8100000000004,1339.1300000000001,5744.4200000000001,-868.93100000000004,-1787.7,-356.44299999999998
6669.0,6943.4099999999999,8253.4300000000003,1297.5999999999999,5713.04,-886.54899999999998,-1659.47,-376.363
6670.0,3754.4200000000001,548.70399999999995,2211.3499999999999,3795.4000000000001,1.28437,-1030.0999999999999,1000.84
6671.0,3813.23,1050.1500000000001,2131.3400000000001,4033.0700000000002,-135.58500000000001,-1334.3900000000001,875.99000000000001
6672.0,3962.1399999999999,1751.03,2105.4499999999998,4346.75,-267.85300000000001,-1623.0,738.81200000000001
6673.0,4202.3900000000003,2502.0799999999999,2032.78,4598.5699999999997,-394.63400000000001,-1872.6300000000001,598.12900000000002
6674.0,4510.6099999999997,3331.5599999999999,1988.79,4845.9300000000003,-509.733,-2065.71,460.03300000000002
6675.0,4857.79,4129.1499999999996,1895.8399999999999,5014.0799999999999,-613.06299999999999,-2191.1700000000001,326.459
6676.0,5215.1400000000003,4915.6700000000001,1817.48,5162.8000000000002,-700.822,-2249.4099999999999,199.274
6677.0,5564.9700000000003,5659.1099999999997,1741.8800000000001,5293.0699999999997,-772.61400000000003,-2244.5999999999999,78.589600000000004
6678.0,5893.6499999999996,6344.9700000000003,1679.3099999999999,5415.1099999999997,-826.74900000000002,-2189.9000000000001,-31.1831
6679.0,6189.5100000000002,6927.1400000000003,1596.73,5494.5200000000004,-866.41300000000001,-2096.0700000000002,-126.83499999999999
6680.0,6434.0799999999999,7391.8500000000004,1505.8399999999999,5519.4300000000003,-893.55600000000004,-1979.0999999999999,-201.34899999999999
6681.0,6625.7299999999996,7772.5600000000004,1437.6800000000001,5518.6899999999996,-914.73199999999997,-1849.3800000000001,-256.14400000000001
6682.0,6766.3699999999999,8105.1000000000004,1430.4000000000001,5532.2299999999996,-937.21000000000004,-1723.1099999999999,-284.697
6683.0,4011.8099999999999,-421.07400000000001,2343.9899999999998,2749.48,112.10899999999999,-800.29899999999998,1317.1099999999999
6684.0,3887.3699999999999,200.05199999999999,2359.0,3208.6300000000001,-37.558199999999999,-1137.25,1156.1700000000001
6685.0,3869.77,959.74199999999996,2338.4099999999999,3652.1399999999999,-183.82499999999999,-1471.9000000000001,989.35000000000002
6686.0,3983.9699999999998,1795.3099999999999,2278.1799999999998,4026.1900000000001,-326.053,-1768.26,824.63099999999997
6687.0,4215.7700000000004,2654.5300000000002,2183.8699999999999,4312.3900000000003,-456.93700000000001,-2005.0799999999999,667.08199999999999
6688.0,4522.4899999999998,3574.4299999999998,2127.8200000000002,4588.1899999999996,-575.92700000000002,-2165.7199999999998,516.35500000000002
6689.0,4870.2399999999998,4416.4399999999996,2018.5599999999999,4768.4700000000003,-679.60299999999995,-2250.5500000000002,374.52699999999999
6690.0,5231.1800000000003,5223.5100000000002,1921.8,4936.3599999999997,-768.80600000000004,-2264.4200000000001,240.51400000000001
6691.0,5579.3000000000002,5911.1700000000001,1786.29,5034.8900000000003,-838.06500000000005,-2222.0300000000002,117.437
6692.0,5900.2700000000004,6553.8199999999997,1698.3800000000001,5152.8500000000004,-890.346,-2136.9099999999999,6.5932700000000004
6693.0,6173.8100000000004,7107.3199999999997,1639.1700000000001,5248.4700000000003,-926.41899999999998,-2027.27,-81.959800000000001
6694.0,6387.9899999999998,7528.4799999999996,1570.29,5272.5,-955.24000000000001,-1902.22,-147.929
6695.0,6542.8500000000004,7867.1000000000004,1544.5,5279.0200000000004,-984.16999999999996,-1778.6099999999999,-185.05500000000001
6696.0,4727.1099999999997,-1503.1400000000001,2524.6799999999998,1539.23,227.74799999999999,-482.67500000000001,1659.9000000000001
6697.0,4357.8199999999997,-940.91499999999996,2442.4499999999998,2088.23,67.042900000000003,-871.72799999999995,1451.8099999999999
6698.0,4088.9000000000001,-126.065,2417.02,2677.29,-89.057100000000005,-1266.6600000000001,1249.6700000000001
6699.0,3980.1799999999998,782.64999999999998,2349.9400000000001,3168.6100000000001,-244.84899999999999,-1622.95,1056.78
6700.0,4049.9699999999998,1777.0799999999999,2298.8200000000002,3603.3299999999999,-389.67000000000002,-1913.6900000000001,876.63800000000003
6701.0,4262.5799999999999,2742.6199999999999,2186.29,3913.8600000000001,-525.19899999999996,-2120.77,710.90599999999995
6702.0,4559.0900000000001,3699.4099999999999,2093.2399999999998,4175.7799999999997,-646.16300000000001,-2238.4000000000001,556.65300000000002
6703.0,4892.8500000000004,4625.71,2027.3399999999999,4426.04,-751.77200000000005,-2270.8200000000002,409.09899999999999
6704.0,5240.3800000000001,5450.1700000000001,1947.3399999999999,4634.9099999999999,-837.56200000000001,-2240.3099999999999,271.57100000000003
6705.0,5577.7299999999996,6166.5100000000002,1862.4200000000001,4809.6099999999997,-905.13400000000001,-2165.0300000000002,147.166
6706.0,5872.3299999999999,6733.2700000000004,1760.0699999999999,4903.3000000000002,-953.44600000000003,-2063.1599999999999,46.447099999999999
6707.0,6104.6300000000001,7197.5200000000004,1693.22,4956.5699999999997,-990.28700000000003,-1943.99,-30.899699999999999
6708.0,6273.8299999999999,7578.21,1682.98,4993.5600000000004,-1025.27,-1825.01,-78.480699999999999
6709.0,5938.3400000000001,-2772.1399999999999,2695.3299999999999,93.842799999999997,336.05799999999999,-54.1907,2039.52
6710.0,5286.9200000000001,-2087.3800000000001,2718.0500000000002,958.76599999999996,177.94499999999999,-510.69,1764.5599999999999
6711.0,4705.25,-1155.1900000000001,2724.98,1787.04,17.065899999999999,-994.30999999999995,1513.99
6712.0,4295.3800000000001,-172.262,2624.0900000000001,2407.8400000000001,-149.315,-1432.0,1287.0999999999999
6713.0,4111.0799999999999,900.30799999999999,2543.1599999999999,2933.6399999999999,-307.34800000000001,-1790.6300000000001,1081.0
6714.0,4134.2700000000004,2028.01,2488.0500000000002,3382.8699999999999,-452.07799999999997,-2054.3899999999999,893.21100000000001
6715.0,4317.0900000000001,3078.6999999999998,2371.52,3694.6999999999998,-586.97299999999996,-2212.2199999999998,731.82399999999996
6716.0,4591.2299999999996,4028.5100000000002,2217.48,3928.1799999999998,-716.56399999999996,-2266.5599999999999,582.78099999999995
6717.0,4907.25,4881.4300000000003,2077.9899999999998,4136.3199999999997,-826.51599999999996,-2246.0999999999999,436.36500000000001
6718.0,5232.3500000000004,5647.5500000000002,1975.9000000000001,4344.0200000000004,-911.35000000000002,-2177.54,298.16899999999998
6719.0,5534.9700000000003,6307.71,1911.3399999999999,4521.7700000000004,-971.90200000000004,-2084.5999999999999,182.07499999999999
6720.0,5781.5,6808.5600000000004,1838.05,4601.5900000000001,-1017.33,-1973.8099999999999,93.449299999999994
6721.0,5961.8500000000004,7198.6899999999996,1812.27,4639.0,-1060.26,-1860.9400000000001,35.878399999999999
6722.0,7769.1300000000001,-4322.1899999999996,2898.21,-1685.6800000000001,426.517,575.66600000000005,2501.3800000000001
6723.0,6722.1300000000001,-3689.77,2782.5700000000002,-571.12099999999998,275.73700000000002,-20.307400000000001,2123.3200000000002
6724.0,5763.9099999999999,-2619.1799999999998,2810.6700000000001,530.51999999999998,122.14700000000001,-635.35000000000002,1794.9400000000001
6725.0,4985.8900000000003,-1478.0999999999999,2734.2800000000002,1358.1400000000001,-45.817399999999999,-1185.99,1504.6600000000001
6726.0,4467.1400000000003,-196.584,2717.0900000000001,2095.52,-205.43100000000001,-1633.9000000000001,1258.98
6727.0,4231.8699999999999,935.45299999999997,2529.2800000000002,2535.0100000000002,-361.601,-1968.9200000000001,1054.6800000000001
6728.0,4233.7600000000002,2151.6199999999999,2443.3800000000001,2959.5599999999999,-503.483,-2186.1300000000001,880.24900000000002
6729.0,4377.4099999999999,3292.29,2345.3000000000002,3291.1500000000001,-641.88800000000003,-2266.5799999999999,734.35900000000004
6730.0,4599.6499999999996,4311.1099999999997,2276.8800000000001,3616.6799999999998,-785.77300000000002,-2237.9499999999998,597.62699999999995
6731.0,4879.3400000000001,5103.7200000000003,2146.8099999999999,3860.3200000000002,-903.24000000000001,-2170.1100000000001,454.452
6732.0,5176.3299999999999,5789.2799999999997,2055.0300000000002,4065.3699999999999,-981.60699999999997,-2090.1399999999999,325.97199999999998
6733.0,5425.8599999999997,6328.2799999999997,1977.95,4175.96,-1036.4100000000001,-1989.0599999999999,226.46899999999999
6734.0,5612.4899999999998,6759.9899999999998,1969.3299999999999,4248.9799999999996,-1086.75,-1884.72,157.28299999999999
6735.0,10184.0,-6407.0,2885.6999999999998,-3877.73,423.923,1433.8599999999999,3041.9099999999999
6736.0,8653.2099999999991,-5420.5200000000004,3054.2600000000002,-2114.9099999999999,356.04700000000003,634.69399999999996,2486.9400000000001
6737.0,7245.79,-4082.48,3174.4899999999998,-600.98299999999995,220.50899999999999,-178.69300000000001,2060.7800000000002
6738.0,6059.8699999999999,-2766.4699999999998,3103.54,409.57299999999998,54.302599999999998,-890.14599999999996,1676.8199999999999
6739.0,5124.5500000000002,-1280.54,3110.1599999999999,1314.9400000000001,-81.462999999999994,-1447.3499999999999,1333.8900000000001
6740.0,4496.2799999999997,125.732,3011.6199999999999,1996.79,-220.79400000000001,-1877.8499999999999,1010.24
6741.0,4277.5299999999997,1552.4100000000001,3010.0,2532.6700000000001,-318.48599999999999,-2188.5,809.87400000000002
6742.0,4246.8900000000003,2711.4299999999998,2734.3800000000001,2725.4400000000001,-440.67399999999998,-2273.6399999999999,805.14599999999996
6743.0,4340.3599999999997,3654.9400000000001,2438.54,2967.5599999999999,-688.80499999999995,-2200.1799999999998,769.64099999999996
6744.0,4554.46,4440.7200000000003,2276.9699999999998,3265.5900000000001,-884.50199999999995,-2138.3299999999999,621.44399999999996
6745.0,4813.1099999999997,5206.3100000000004,2227.0799999999999,3560.1100000000001,-978.46000000000004,-2076.1100000000001,476.76999999999998
6746.0,5052.2700000000004,5774.8599999999997,2135.0100000000002,3700.98,-1044.8499999999999,-1987.1300000000001,366.733
6747.0,5239.4700000000003,6212.21,2110.1999999999998,3777.2800000000002,-1104.9100000000001,-1895.3,286.24000000000001
6748.0,14163.1,-8839.7399999999998,3295.8400000000001,-6447.3800000000001,291.887,2837.5599999999999,4172.1599999999999
6749.0,11777.799999999999,-7967.3599999999997,3255.0799999999999,-4211.7299999999996,305.596,1629.01,3295.1900000000001
6750.0,9424.4300000000003,-6186.6700000000001,3367.79,-2185.4699999999998,218.15299999999999,459.08300000000003,2515.0799999999999
6751.0,7640.9700000000003,-4431.1000000000004,3521.8099999999999,-760.68299999999999,88.907499999999999,-530.30100000000004,1824.53
6752.0,6305.9300000000003,-2371.9000000000001,3895.1199999999999,436.423,67.051699999999997,-1256.6900000000001,1347.97
6753.0,5282.3000000000002,-503.99299999999999,4183.3999999999996,1313.6800000000001,-48.6218,-1694.3800000000001,917.85799999999995
6754.0,4753.1099999999997,1163.0999999999999,4407.3100000000004,2042.5999999999999,-28.377500000000001,-2054.27,703.41300000000001
6755.0,4280.6700000000001,2259.6100000000001,3580.5,2176.4200000000001,-62.079900000000002,-2176.9699999999998,862.81799999999998
6756.0,4118.4899999999998,3112.5500000000002,2770.54,2396.02,-470.36500000000001,-2116.7199999999998,907.63900000000001
6757.0,4282.6700000000001,3743.52,2419.52,2611.5100000000002,-819.41499999999996,-2080.4299999999998,776.03800000000001
6758.0,4480.0600000000004,4527.1000000000004,2397.5100000000002,2976.71,-964.87599999999998,-2034.73,637.79399999999998
6759.0,4684.9399999999996,5121.5900000000001,2294.7600000000002,3156.96,-1042.9100000000001,-1965.8599999999999,514.71299999999997
6760.0,4861.9899999999998,5605.9099999999999,2291.7800000000002,3276.77,-1111.4300000000001,-1889.23,422.80200000000002
6761.0,21064.299999999999,-16182.200000000001,-160.941,-11110.5,-1088.7,5131.7399999999998,7302.8699999999999
6762.0,15788.799999999999,-12922.1,1263.4400000000001,-7058.1300000000001,-405.35399999999998,2754.6100000000001,4953.0299999999997
6763.0,12044.799999999999,-9384.2199999999993,2631.7399999999998,-4059.6799999999998,-220.72300000000001,1146.47,3277.8400000000001
6764.0,9887.8099999999995,-6320.1999999999998,4286.1099999999997,-1810.8099999999999,-89.367900000000006,-206.53700000000001,2050.7399999999998
6765.0,8337.7199999999993,-3372.5900000000001,5223.3599999999997,-422.23200000000003,278.44099999999997,-1092.8599999999999,1680.0999999999999
6766.0,6971.8000000000002,-1138.28,5500.79,463.44600000000003,41.4649,-1415.8699999999999,1480.77
6767.0,6252.4200000000001,602.86900000000003,6010.2200000000003,1393.4400000000001,14.2827,-1707.1500000000001,1259.5699999999999
6768.0,5054.0299999999997,2100.6900000000001,5316.4200000000001,2023.8699999999999,220.06899999999999,-1846.51,1234.9400000000001
6769.0,4066.7800000000002,2683.3099999999999,3634.3400000000001,1938.51,-143.102,-1881.3399999999999,1109.25
6770.0,4035.9200000000001,3030.7399999999998,2674.2399999999998,1911.1099999999999,-655.64400000000001,-1938.1400000000001,957.14300000000003
6771.0,4218.4399999999996,3762.8600000000001,2561.7199999999998,2331.8800000000001,-934.38300000000004,-1956.3099999999999,800.60699999999997
6772.0,4370.7299999999996,4359.4399999999996,2459.4099999999999,2538.1399999999999,-1029.9200000000001,-1925.0899999999999,667.44100000000003
6773.0,4517.9700000000003,4880.21,2459.5700000000002,2694.4099999999999,-1106.55,-1864.0799999999999,568.08500000000004
6774.0,25837.400000000001,-29691.0,-10639.9,-16190.4,-4642.0699999999997,5481.6099999999997,8655.7700000000004
6775.0,18153.400000000001,-20461.5,-3887.7199999999998,-10659.1,-1814.23,2876.02,5370.96
6776.0,14100.700000000001,-13601.1,892.47000000000003,-6212.21,-1072.25,1323.02,3294.4299999999998
6777.0,12410.799999999999,-9076.3899999999994,4485.1999999999998,-3414.1999999999998,-357.20999999999998,-178.03899999999999,2188.0100000000002
6778.0,10623.200000000001,-5039.0600000000004,5861.21,-1528.5,545.13400000000001,-987.63599999999997,2321.0300000000002
6779.0,8602.5599999999995,-2343.27,5664.6000000000004,-430.83300000000003,181.48500000000001,-1229.75,2373.4400000000001
6780.0,7860.3900000000003,-691.08900000000006,6128.75,447.50599999999997,-207.12799999999999,-1468.6400000000001,2246.8400000000001
6781.0,6651.3699999999999,955.38400000000001,6029.7399999999998,1312.8099999999999,35.350000000000001,-1501.7,2114.1300000000001
6782.0,4909.3800000000001,1694.3299999999999,4365.8100000000004,1278.95,-55.201700000000002,-1516.8299999999999,1709.9300000000001
6783.0,4063.3299999999999,2238.0700000000002,3129.8699999999999,1331.79,-506.38099999999997,-1682.0899999999999,1268.6199999999999
6784.0,4064.2600000000002,2859.3400000000001,2703.4499999999998,1598.72,-867.59799999999996,-1828.76,967.81299999999999
6785.0,4176.0600000000004,3507.48,2639.0300000000002,1863.0,-1005.3,-1857.1500000000001,822.62400000000002
6786.0,4265.4499999999998,4093.46,2684.0599999999999,2101.3299999999999,-1088.01,-1820.22,720.16099999999994
6787.0,24759.599999999999,-40955.0,-18260.799999999999,-23229.900000000001,-6680.5299999999997,2039.1400000000001,3638.7600000000002
6788.0,18787.700000000001,-26901.099999999999,-7313.8500000000004,-15412.5,-2639.3099999999999,1625.3099999999999,3343.5599999999999
6789.0,16321.9,-17572.5,254.881,-9215.6100000000006,-1668.4400000000001,894.29899999999998,2379.1900000000001
6790.0,15145.5,-11524.0,5289.9499999999998,-5101.1999999999998,-354.84800000000001,-295.733,2063.7399999999998
6791.0,12659.6,-6375.9499999999998,6840.7600000000002,-2039.79,907.04999999999995,-902.89800000000002,2528.3600000000001
6792.0,9856.5799999999999,-4244.1700000000001,5113.1400000000003,-1689.8499999999999,635.13999999999999,-1160.0,2690.9000000000001
6793.0,8711.2000000000007,-2468.5799999999999,5040.7399999999998,-846.39999999999998,-115.97799999999999,-1432.6300000000001,2759.6700000000001
6794.0,7819.9200000000001,-927.75999999999999,5111.29,106.413,-286.26299999999998,-1430.2,2797.3000000000002
6795.0,6149.5299999999997,351.87599999999998,4442.6800000000003,683.98699999999997,-325.19900000000001,-1326.6400000000001,2361.7199999999998
6796.0,4690.2700000000004,1042.5,3398.7800000000002,670.72699999999998,-562.66099999999994,-1440.8299999999999,1658.78
6797.0,4200.9300000000003,1859.6600000000001,2989.8499999999999,906.29700000000003,-811.73900000000003,-1652.8,1184.9100000000001
6798.0,4166.0600000000004,2545.8600000000001,2811.0300000000002,1143.3599999999999,-966.452,-1753.8499999999999,986.02200000000005
6799.0,4200.7299999999996,3120.7399999999998,2820.96,1370.7,-1063.0799999999999,-1765.3199999999999,871.53599999999994
6800.0,26334.900000000001,-44159.699999999997,-15864.1,-31805.099999999999,-5446.1800000000003,-266.11500000000001,459.28500000000003
6801.0,21366.099999999999,-30247.400000000001,-6555.6300000000001,-20793.400000000001,-2198.5,695.14400000000001,2149.8699999999999
6802.0,19479.599999999999,-20929.700000000001,522.51700000000005,-13267.1,-1658.72,548.13300000000004,2292.5300000000002
6803.0,18446.5,-13721.700000000001,6599.3199999999997,-7172.6800000000003,-317.25299999999999,-122.581,2392.8099999999999
6804.0,15402.5,-8367.6200000000008,7971.7299999999996,-3552.21,1246.5999999999999,-600.78899999999999,2582.5999999999999
6805.0,11790.0,-5877.6199999999999,5769.3800000000001,-2923.3299999999999,1336.26,-956.38199999999995,2641.3800000000001
6806.0,9502.5,-4447.4200000000001,4176.9799999999996,-2632.5799999999999,501.529,-1294.5699999999999,2738.1999999999998
6807.0,8260.7099999999991,-3112.5799999999999,3633.1999999999998,-1807.0899999999999,-178.23500000000001,-1399.9200000000001,2820.25
6808.0,6963.6400000000003,-1811.53,3307.2399999999998,-986.04300000000001,-533.35299999999995,-1323.8599999999999,2564.0700000000002
6809.0,5686.1400000000003,-649.89599999999996,3078.25,-479.60500000000002,-785.41800000000001,-1338.0799999999999,1984.6900000000001
6810.0,4864.7399999999998,499.05599999999998,3073.0900000000001,13.892300000000001,-902.83000000000004,-1491.74,1464.55
6811.0,4462.6599999999999,1519.6800000000001,3081.7199999999998,478.15499999999997,-953.84500000000003,-1632.49,1160.3299999999999
6812.0,4370.9799999999996,2143.5500000000002,3025.0700000000002,681.20799999999997,-1022.04,-1701.29,1013.9
6813.0,30177.599999999999,-44589.900000000001,-13005.700000000001,-36802.300000000003,-4866.1999999999998,658.96500000000003,2949.6799999999998
6814.0,25525.599999999999,-32293.0,-4786.29,-24531.0,-1615.6500000000001,1219.5799999999999,3459.5300000000002
6815.0,22519.799999999999,-23266.400000000001,929.71299999999997,-16247.0,-1323.3099999999999,837.44799999999998,3410.8499999999999
6816.0,21504.400000000001,-16491.700000000001,6624.4200000000001,-9760.1399999999994,-505.13099999999997,250.238,3532.02
6817.0,18779.5,-10451.299999999999,9317.6900000000005,-5084.04,1106.48,-61.375500000000002,3438.4899999999998
6818.0,14876.9,-7470.79,7415.3999999999996,-4006.3099999999999,1808.73,-452.35199999999998,3101.9200000000001
6819.0,11372.1,-5921.71,4702.6999999999998,-3973.04,1267.6700000000001,-869.92700000000002,2958.6300000000001
6820.0,9093.4300000000003,-5236.21,2671.0100000000002,-3944.4299999999998,247.04900000000001,-1096.0,2882.4299999999998
6821.0,7650.4700000000003,-4012.8600000000001,2192.23,-2996.3099999999999,-514.85799999999995,-1219.3299999999999,2584.9200000000001
6822.0,6542.5200000000004,-2590.3499999999999,2269.1799999999998,-2043.1400000000001,-930.55200000000002,-1334.6900000000001,2129.73
6823.0,5736.3199999999997,-1079.0799999999999,2713.73,-1131.78,-1107.3699999999999,-1449.0999999999999,1667.21
6824.0,5135.8900000000003,195.125,3078.5799999999999,-436.83199999999999,-1056.6300000000001,-1563.8199999999999,1310.9000000000001
6825.0,4787.54,1077.9100000000001,3161.52,-60.750399999999999,-992.16200000000003,-1646.6400000000001,1128.8099999999999
6826.0,68900.100000000006,-185368.0,-127719.0,-163633.0,-24655.599999999999,2262.1300000000001,11034.5
6827.0,69742.800000000003,-159122.0,-101014.0,-159949.0,-17324.299999999999,-2777.8099999999999,13105.200000000001
6828.0,85151.300000000003,-142282.0,-72176.399999999994,-151618.0,-16176.799999999999,-15299.1,5972.5200000000004
6829.0,106193.0,-146473.0,-59896.900000000001,-145721.0,-21009.900000000001,-27803.799999999999,-8220.4200000000001
6830.0,121240.0,-171941.0,-74956.800000000003,-138114.0,-30711.400000000001,-34015.800000000003,-19397.200000000001
6831.0,124612.0,-192603.0,-89239.300000000003,-118529.0,-39784.300000000003,-25500.5,-10240.799999999999
6832.0,121486.0,-185862.0,-75642.199999999997,-99361.100000000006,-37864.300000000003,-6198.2799999999997,9050.3600000000006
6833.0,109191.0,-151958.0,-43867.0,-85397.899999999994,-26735.5,7969.8400000000001,14925.9
6834.0,87212.899999999994,-118208.0,-28304.200000000001,-76263.600000000006,-18481.400000000001,10835.9,7258.8500000000004
6835.0,65425.5,-94942.199999999997,-30564.599999999999,-66488.0,-16204.0,10464.4,3740.5
6836.0,50844.699999999997,-76197.399999999994,-30365.700000000001,-59040.599999999999,-12876.6,10374.299999999999,7218.0200000000004
6837.0,40853.900000000001,-61146.900000000001,-24088.299999999999,-53552.800000000003,-8103.96,7069.3100000000004,7583.0500000000002
6838.0,33836.0,-50821.099999999999,-17644.099999999999,-44736.599999999999,-5760.1400000000003,2886.96,5306.2399999999998
6839.0,53751.599999999999,-162998.0,-110750.0,-142205.0,-14173.6,-3333.2800000000002,7691.8000000000002
6840.0,56451.900000000001,-140845.0,-87526.300000000003,-128289.0,-10946.299999999999,-3350.6599999999999,12417.6
6841.0,65933.100000000006,-121304.0,-58957.300000000003,-113463.0,-6876.0600000000004,-8113.3699999999999,13517.4
6842.0,78023.800000000003,-116607.0,-39440.5,-105195.0,-4652.5699999999997,-14983.299999999999,6952.1700000000001
6843.0,83425.699999999997,-124821.0,-39507.599999999999,-97239.0,-6970.6199999999999,-19293.799999999999,-1938.1700000000001
6844.0,79948.300000000003,-134363.0,-50194.900000000001,-87096.300000000003,-11757.4,-14568.4,-315.84199999999998
6845.0,73464.0,-123062.0,-44422.699999999997,-71740.199999999997,-11551.0,-3235.75,7813.3100000000004
6846.0,65064.0,-95807.100000000006,-25965.200000000001,-56524.300000000003,-6520.0,4643.6899999999996,11009.799999999999
6847.0,55709.099999999999,-75831.0,-15229.0,-49756.800000000003,-3298.52,5702.1199999999999,8185.4700000000003
6848.0,47816.800000000003,-65574.5,-13138.6,-45612.599999999999,-3692.54,4717.8000000000002,5082.3699999999999
6849.0,40901.300000000003,-56276.5,-12293.299999999999,-39917.400000000001,-4091.2199999999998,4682.8900000000003,4976.4499999999998
6850.0,34721.699999999997,-44492.400000000001,-8156.0799999999999,-32777.199999999997,-2985.1300000000001,4088.1599999999999,5681.5500000000002
6851.0,29768.200000000001,-35886.900000000001,-4762.1899999999996,-27364.5,-1873.29,2597.5700000000002,5139.79
6852.0,48451.900000000001,-135533.0,-86191.899999999994,-116357.0,-9493.7399999999998,-4543.8199999999997,7283.0
6853.0,50640.099999999999,-122824.0,-71056.300000000003,-105610.0,-7193.6199999999999,-3419.3699999999999,9814.7600000000002
6854.0,53113.599999999999,-106106.0,-52344.099999999999,-91527.5,-2643.0300000000002,-3440.5500000000002,12186.200000000001
6855.0,55574.599999999999,-90888.199999999997,-34397.300000000003,-78441.199999999997,2466.1100000000001,-5756.0299999999997,10454.299999999999
6856.0,55083.599999999999,-84542.0,-26562.799999999999,-67404.600000000006,3119.9699999999998,-8683.7299999999996,6247.9200000000001
6857.0,53620.900000000001,-82622.899999999994,-23653.099999999999,-56635.099999999999,-17.287099999999999,-7377.4499999999998,5526.0200000000004
6858.0,51689.699999999997,-80402.800000000003,-22790.299999999999,-51160.199999999997,-1759.1500000000001,-2538.8000000000002,7155.9499999999998
6859.0,47965.0,-71538.899999999994,-18863.799999999999,-46186.0,-1500.48,1405.8599999999999,8286.2999999999993
6860.0,43661.199999999997,-58253.800000000003,-10999.4,-39227.400000000001,-724.37599999999998,3038.3899999999999,7770.29
6861.0,38444.099999999999,-46448.5,-4731.7399999999998,-32056.0,-91.1798,3038.1399999999999,5865.5100000000002
6862.0,32766.400000000001,-39384.099999999999,-3801.8299999999999,-27432.5,-191.43299999999999,2512.6900000000001,4861.9700000000003
6863.0,28560.900000000001,-34403.400000000001,-3907.77,-24571.400000000001,-694.92100000000005,2098.4899999999998,4974.8900000000003
6864.0,25439.700000000001,-28947.799999999999,-2068.02,-21135.900000000001,-1025.5699999999999,1552.9100000000001,4590.71
6865.0,44402.300000000003,-121204.0,-74243.800000000003,-102559.0,-5689.1300000000001,-4018.1100000000001,7039.79
6866.0,45306.699999999997,-106164.0,-58115.5,-89774.600000000006,-3023.5,-2830.6599999999999,8394.8500000000004
6867.0,44270.0,-94023.0,-47548.099999999999,-79977.199999999997,-502.61000000000001,-2208.8299999999999,8944.5300000000007
6868.0,42472.300000000003,-83799.0,-39660.599999999999,-72010.699999999997,1245.26,-2735.0599999999999,8365.75
6869.0,41405.300000000003,-76866.399999999994,-33356.0,-63909.599999999999,1255.71,-3608.5900000000001,7600.9300000000003
6870.0,41305.900000000001,-72624.0,-28226.799999999999,-56774.599999999999,665.601,-3015.5599999999999,7278.1899999999996
6871.0,39950.5,-63513.699999999997,-20046.5,-46111.800000000003,286.80799999999999,-1329.1199999999999,7180.6000000000004
6872.0,38250.099999999999,-52496.5,-11339.9,-35908.5,157.18600000000001,547.096,7654.4799999999996
6873.0,36159.599999999999,-43879.300000000003,-5374.0699999999997,-30395.200000000001,573.49699999999996,1679.3599999999999,7136.8400000000001
6874.0,31986.900000000001,-36701.400000000001,-2398.7399999999998,-26118.900000000001,703.02999999999997,1588.24,5430.1199999999999
6875.0,27708.400000000001,-31230.599999999999,-1464.48,-21961.5,126.398,1192.54,4740.1400000000003
6876.0,25276.400000000001,-25227.299999999999,1537.3499999999999,-16908.799999999999,-378.56400000000002,952.86800000000005,4927.4700000000003
6877.0,23630.700000000001,-20041.299999999999,4888.7600000000002,-12685.799999999999,-575.60299999999995,632.02200000000005,4618.0200000000004
6878.0,37249.599999999999,-103991.0,-63822.5,-88189.399999999994,-2228.04,-3081.3400000000001,6210.1099999999997
6879.0,37672.599999999999,-93913.800000000003,-54005.800000000003,-80790.199999999997,-409.66000000000003,-1761.0,7489.4099999999999
6880.0,36868.099999999999,-83929.0,-45424.599999999999,-72577.0,729.33600000000001,-1644.73,7641.7299999999996
6881.0,36439.599999999999,-74764.899999999994,-37164.199999999997,-64117.800000000003,923.19500000000005,-1846.3299999999999,7920.9300000000003
6882.0,36174.599999999999,-65838.100000000006,-28429.5,-55000.900000000001,753.91700000000003,-1635.55,7904.1300000000001
6883.0,35184.099999999999,-56201.300000000003,-19378.200000000001,-44857.699999999997,667.13599999999997,-1072.4200000000001,7443.6599999999999
6884.0,33800.0,-50010.699999999997,-14325.4,-38107.599999999999,450.46600000000001,-358.11799999999999,7096.4700000000003
6885.0,32415.700000000001,-43620.599999999999,-9570.2299999999996,-32175.599999999999,510.74000000000001,560.053,7031.9700000000003
6886.0,30323.599999999999,-35315.5,-3698.8299999999999,-25742.799999999999,914.78200000000004,991.98699999999997,6467.0
6887.0,27551.799999999999,-28349.700000000001,534.36400000000003,-20251.599999999999,835.52599999999995,726.43600000000004,5460.7399999999998
6888.0,25012.400000000001,-23617.400000000001,2777.3400000000001,-15937.200000000001,329.89100000000002,474.072,4887.6599999999999
6889.0,23053.400000000001,-19181.5,5004.1499999999996,-11862.0,134.233,421.07299999999998,4809.04
6890.0,21338.0,-14716.9,7535.8800000000001,-8293.1900000000005,510.70999999999998,325.76299999999998,4498.29
6891.0,31137.099999999999,-93802.199999999997,-60098.099999999999,-81644.100000000006,-2236.21,-2466.8099999999999,4555.3500000000004
6892.0,31261.0,-85108.899999999994,-51833.900000000001,-74669.100000000006,-1364.27,-1128.79,5744.9499999999998
6893.0,30347.0,-75989.399999999994,-44176.900000000001,-66519.100000000006,-799.57899999999995,-920.13599999999997,6219.1000000000004
6894.0,30780.099999999999,-67516.800000000003,-36143.900000000001,-58532.599999999999,-981.18600000000004,-745.29999999999995,7297.0799999999999
6895.0,31381.799999999999,-58568.199999999997,-26599.400000000001,-50165.0,-1030.3,-374.70999999999998,7239.6000000000004
6896.0,30502.900000000001,-51445.300000000003,-19829.700000000001,-42851.300000000003,-689.44100000000003,-55.918399999999998,6513.9700000000003
6897.0,29154.700000000001,-43360.400000000001,-13057.799999999999,-34617.599999999999,-65.767600000000002,323.483,6322.3299999999999
6898.0,27620.5,-35058.5,-6616.6099999999997,-26945.099999999999,487.11900000000003,626.75999999999999,6244.8699999999999
6899.0,25911.400000000001,-28702.400000000001,-2214.4299999999998,-21551.099999999999,639.34500000000003,676.90599999999995,5929.3299999999999
6900.0,24150.0,-23088.599999999999,1677.3599999999999,-16660.299999999999,657.34299999999996,560.58399999999995,5338.8599999999997
6901.0,22179.700000000001,-18447.200000000001,4450.7399999999998,-12286.299999999999,844.78499999999997,387.14499999999998,4766.1899999999996
6902.0,20158.599999999999,-13720.200000000001,6958.54,-7931.3900000000003,1216.26,248.429,4484.4799999999996
6903.0,17934.299999999999,-10011.0,8079.8699999999999,-5349.7700000000004,1670.29,47.616799999999998,4024.0599999999999
6904.0,29264.900000000001,-84038.399999999994,-52583.300000000003,-73906.5,-2962.0900000000001,-2368.6300000000001,3646.9499999999998
6905.0,29540.900000000001,-77147.5,-45534.5,-67782.199999999997,-2783.9499999999998,-1343.97,4202.0500000000002
6906.0,28440.900000000001,-69448.600000000006,-39274.800000000003,-60222.699999999997,-2576.1900000000001,-1079.8099999999999,4770.9200000000001
6907.0,29262.0,-60651.599999999999,-30743.700000000001,-51842.199999999997,-2587.48,-601.62800000000004,6492.96
6908.0,29909.599999999999,-51284.699999999997,-20811.700000000001,-43744.300000000003,-1859.55,-24.051500000000001,6545.3599999999997
6909.0,27997.599999999999,-41983.400000000001,-12957.299999999999,-34954.300000000003,-940.39700000000005,194.23699999999999,5573.8900000000003
6910.0,25671.799999999999,-35822.800000000003,-9282.7800000000007,-29206.400000000001,-527.52999999999997,398.029,5328.5699999999997
6911.0,23797.799999999999,-29982.400000000001,-5661.4700000000003,-23990.200000000001,-329.74900000000002,596.08199999999999,5268.25
6912.0,22353.200000000001,-23978.400000000001,-1384.71,-18498.200000000001,11.4785,692.54200000000003,5213.29
6913.0,20858.700000000001,-18418.200000000001,2664.52,-13561.700000000001,604.16200000000003,656.04100000000005,4726.4700000000003
6914.0,18510.599999999999,-14251.299999999999,4519.8900000000003,-9841.8700000000008,1253.9300000000001,453.16899999999998,4011.6500000000001
6915.0,15963.299999999999,-11076.700000000001,4736.6400000000003,-7261.6899999999996,1689.46,138.34200000000001,3737.9699999999998
6916.0,13739.1,-8400.0499999999993,4667.0500000000002,-5668.0600000000004,1718.1500000000001,-301.74200000000002,3517.54
6917.0,27842.599999999999,-75449.0,-45583.199999999997,-66194.199999999997,-2980.8400000000001,-1978.74,3444.46
6918.0,28374.5,-68385.5,-37967.900000000001,-59775.199999999997,-2416.7399999999998,-1520.9100000000001,3794.0700000000002
6919.0,26972.5,-61192.300000000003,-32559.299999999999,-52648.800000000003,-2311.0999999999999,-1343.49,4391.8100000000004
6920.0,27344.400000000001,-52989.800000000003,-25205.099999999999,-45165.400000000001,-2422.1500000000001,-494.65300000000002,6152.8000000000002
6921.0,27204.400000000001,-43727.0,-16288.6,-37783.5,-1736.3800000000001,259.59100000000001,5936.4099999999999
6922.0,24733.599999999999,-36529.199999999997,-11206.5,-31419.0,-1272.73,300.649,4784.4099999999999
6923.0,22840.700000000001,-30487.200000000001,-7186.1199999999999,-25574.700000000001,-1303.8900000000001,346.75900000000001,4605.3500000000004
6924.0,21482.0,-24418.700000000001,-2542.6500000000001,-19804.700000000001,-1140.8599999999999,494.678,4394.0
6925.0,19710.599999999999,-19106.400000000001,985.69000000000005,-14844.9,-631.76900000000001,601.54600000000005,4082.1900000000001
6926.0,17589.299999999999,-14883.4,3000.79,-11466.5,186.053,534.80999999999995,3559.48
6927.0,14659.5,-11839.200000000001,3024.4899999999998,-9190.3999999999996,827.09100000000001,182.46199999999999,2838.6900000000001
6928.0,11787.299999999999,-9366.1800000000003,2239.52,-7146.2200000000003,921.05700000000002,-248.56299999999999,2729.6500000000001
6929.0,10198.6,-7215.3299999999999,2138.0,-5537.3599999999997,651.18700000000001,-653.24199999999996,2991.8000000000002
6930.0,24971.599999999999,-67212.899999999994,-40021.900000000001,-58523.099999999999,-2270.4000000000001,-1405.1400000000001,2805.71
6931.0,24449.299999999999,-60928.099999999999,-34877.5,-53609.199999999997,-1497.6099999999999,-1258.05,3862.3099999999999
6932.0,23691.0,-53506.0,-29143.299999999999,-47001.900000000001,-2144.0100000000002,-1069.0999999999999,4713.6199999999999
6933.0,24396.799999999999,-45396.900000000001,-21346.200000000001,-39673.599999999999,-2842.8600000000001,-86.975800000000007,5697.79
6934.0,24198.599999999999,-36986.699999999997,-13061.200000000001,-32618.599999999999,-2501.2600000000002,507.78399999999999,5132.4200000000001
6935.0,22563.200000000001,-29530.299999999999,-6788.6899999999996,-25513.900000000001,-2252.1599999999999,355.70699999999999,4144.3500000000004
6936.0,21326.700000000001,-24038.799999999999,-2413.3499999999999,-19936.099999999999,-2133.0300000000002,326.52499999999998,3876.7800000000002
6937.0,19887.299999999999,-19107.799999999999,1239.53,-15350.200000000001,-1514.24,365.27499999999998,3490.3200000000002
6938.0,17590.400000000001,-15007.9,3111.8699999999999,-11839.1,-677.47900000000004,254.38499999999999,2994.54
6939.0,14951.6,-11616.1,3667.27,-9390.0400000000009,-41.936700000000002,7.5181800000000001,2518.5900000000001
6940.0,12098.5,-9539.3500000000004,2706.3400000000001,-8039.5299999999997,116.432,-428.899,1995.1300000000001
6941.0,9608.0599999999995,-8014.8400000000001,1473.3699999999999,-6612.3199999999997,-146.06800000000001,-825.39499999999998,1959.6900000000001
6942.0,8334.75,-6385.3400000000001,1148.77,-5085.8999999999996,-405.09699999999998,-1035.6199999999999,2387.2600000000002
6943.0,20695.400000000001,-60238.800000000003,-37457.900000000001,-53024.599999999999,-1906.48,-1153.97,1498.28
6944.0,19681.200000000001,-54449.5,-34035.0,-48463.300000000003,-2344.8600000000001,-940.08100000000002,3550.71
6945.0,21708.700000000001,-46979.199999999997,-26113.799999999999,-41909.599999999999,-3662.9099999999999,-524.85299999999995,4996.8299999999999
6946.0,23549.599999999999,-38369.599999999999,-15849.799999999999,-33819.599999999999,-4222.2399999999998,214.059,5019.5200000000004
6947.0,23184.900000000001,-30112.900000000001,-7192.5100000000002,-25999.599999999999,-3623.8899999999999,519.83600000000001,4055.5799999999999
6948.0,21691.5,-24056.400000000001,-2022.6900000000001,-20003.900000000001,-2770.9000000000001,315.358,3394.8499999999999
6949.0,20178.900000000001,-18630.099999999999,2069.9200000000001,-14914.4,-1896.9200000000001,165.52799999999999,3210.8499999999999
6950.0,17947.0,-14054.299999999999,4417.25,-11251.700000000001,-963.33500000000004,45.168199999999999,2709.29
6951.0,15056.200000000001,-10725.1,4643.0900000000001,-8878.3299999999999,-407.613,-205.75399999999999,2224.9400000000001
6952.0,12502.299999999999,-8649.3500000000004,3851.4000000000001,-7622.8500000000004,-285.16399999999999,-514.38499999999999,1895.5999999999999
6953.0,10247.5,-7239.3000000000002,2811.4499999999998,-6568.8900000000003,-363.303,-886.81700000000001,1584.0699999999999
6954.0,8353.9200000000001,-6075.5900000000001,1793.25,-5332.3400000000001,-579.10299999999995,-1207.72,1610.75
6955.0,7219.5699999999997,-4526.3599999999997,1597.5,-3766.2199999999998,-831.27099999999996,-1329.8099999999999,1942.46
6956.0,17600.0,-53619.900000000001,-34949.800000000003,-48171.699999999997,-3048.9699999999998,-1287.52,347.08300000000003
6957.0,18419.400000000001,-48822.699999999997,-31023.799999999999,-43171.400000000001,-4633.5699999999997,-832.36300000000006,2865.6100000000001
6958.0,22027.5,-40634.0,-20357.5,-35312.599999999999,-5340.0900000000001,-20.383900000000001,4764.6000000000004
6959.0,23545.900000000001,-31155.799999999999,-8421.7399999999998,-26499.299999999999,-4500.3400000000001,482.262,4483.1099999999997
6960.0,22259.099999999999,-23650.5,-994.39300000000003,-19446.400000000001,-2953.21,452.12200000000001,3314.8200000000002
6961.0,19717.200000000001,-17758.900000000001,2737.1500000000001,-14017.9,-1587.3599999999999,200.941,2809.5599999999999
6962.0,17423.400000000001,-13301.4,4553.0699999999997,-10653.200000000001,-708.45500000000004,7.7709000000000001,2802.2399999999998
6963.0,15084.9,-9868.4200000000001,5272.1700000000001,-8533.5300000000007,-314.87900000000002,-282.41000000000003,2324.4400000000001
6964.0,12687.5,-7469.4099999999999,5006.5900000000001,-6876.96,-411.54199999999997,-638.09400000000005,1882.6900000000001
6965.0,10782.299999999999,-5903.8999999999996,4413.4899999999998,-5780.7799999999997,-590.77300000000002,-916.76599999999996,1580.6600000000001
6966.0,8858.6800000000003,-4700.0900000000001,3504.1399999999999,-4749.8199999999997,-722.846,-1203.3800000000001,1270.76
6967.0,7240.6000000000004,-3781.4099999999999,2444.1199999999999,-3732.9899999999998,-947.81299999999999,-1429.47,1309.3299999999999
6968.0,6389.5200000000004,-2661.6199999999999,2172.4000000000001,-2551.3099999999999,-1142.53,-1484.71,1575.8599999999999
6969.0,18052.200000000001,-46638.699999999997,-29322.0,-41840.900000000001,-5148.8100000000004,-1447.28,-294.89699999999999
6970.0,19862.700000000001,-41574.599999999999,-23281.599999999999,-35488.900000000001,-6297.9899999999998,-717.87400000000002,2132.5700000000002
6971.0,21932.400000000001,-32971.800000000003,-12304.200000000001,-27049.700000000001,-5647.5799999999999,376.59399999999999,3877.0700000000002
6972.0,21478.400000000001,-23966.900000000001,-2511.9000000000001,-19383.799999999999,-3516.3699999999999,868.66399999999999,3604.2800000000002
6973.0,18858.200000000001,-17370.200000000001,2142.6300000000001,-14081.9,-1504.51,636.63099999999997,2596.3899999999999
6974.0,15783.9,-13309.700000000001,2955.27,-11047.799999999999,-543.20399999999995,221.08799999999999,2252.5599999999999
6975.0,13694.4,-9788.8299999999999,3764.9099999999999,-8682.9699999999993,-325.24599999999998,-71.899299999999997,2398.9499999999998
6976.0,12156.1,-6987.4300000000003,4591.9799999999996,-6899.6999999999998,-331.03199999999998,-426.64100000000002,2146.4899999999998
6977.0,10614.799999999999,-4899.3999999999996,4946.4200000000001,-5243.3199999999997,-456.71699999999998,-806.82899999999995,1793.51
6978.0,9200.4899999999998,-3673.77,4559.6899999999996,-4286.96,-573.47500000000002,-1127.3199999999999,1487.22
6979.0,7778.9200000000001,-2677.5,3890.8299999999999,-3357.5900000000001,-781.54399999999998,-1441.53,1207.27
6980.0,6661.6099999999997,-2017.79,3096.0300000000002,-2516.23,-1058.6800000000001,-1611.5799999999999,1193.6600000000001
6981.0,5893.2299999999996,-1008.45,2986.9699999999998,-1431.75,-1158.73,-1597.5899999999999,1318.02
6982.0,20259.400000000001,-38344.199999999997,-19709.400000000001,-33175.800000000003,-6443.9799999999996,-1558.8900000000001,-554.63599999999997
6983.0,20769.700000000001,-32764.0,-13132.1,-26421.700000000001,-6424.96,-585.12800000000004,1340.1300000000001
6984.0,20377.0,-25186.5,-4975.4200000000001,-19509.0,-4793.04,536.75599999999997,2547.21
6985.0,18186.299999999999,-17775.099999999999,923.45399999999995,-14072.4,-2537.2399999999998,907.50800000000004,2224.6799999999998
6986.0,14937.9,-12897.700000000001,2516.2600000000002,-10919.5,-1129.1099999999999,562.21000000000004,1566.03
6987.0,12225.0,-9775.8199999999997,2496.3299999999999,-8840.9200000000001,-788.06899999999996,119.715,1585.1700000000001
6988.0,10801.799999999999,-7183.0900000000001,3053.0700000000002,-7091.7399999999998,-791.66999999999996,-164.84299999999999,1903.0799999999999
6989.0,9774.9400000000005,-4735.2299999999996,4034.52,-5407.1999999999998,-707.24099999999999,-458.69099999999997,1840.71
6990.0,8522.3299999999999,-2827.5799999999999,4440.3500000000004,-3942.3099999999999,-617.99199999999996,-804.53200000000004,1567.95
6991.0,7340.1199999999999,-1594.5599999999999,4221.8299999999999,-2907.3000000000002,-627.69500000000005,-1148.6500000000001,1359.9200000000001
6992.0,6451.6199999999999,-759.52099999999996,3881.8800000000001,-2025.79,-765.62300000000005,-1441.8699999999999,1238.9000000000001
6993.0,5812.7399999999998,-249.28899999999999,3517.4099999999999,-1308.52,-923.88199999999995,-1591.05,1201.8199999999999
6994.0,5292.1700000000001,373.72500000000002,3394.46,-585.99699999999996,-987.65700000000004,-1619.6900000000001,1192.4200000000001
6995.0,1779.24,1789.1800000000001,406.67200000000003,544.85500000000002,-458.25099999999998,501.52300000000002,117.958
6996.0,1790.55,1837.4100000000001,387.005,475.44400000000002,-449.69799999999998,430.49599999999998,141.602
6997.0,1799.4000000000001,1888.71,381.17700000000002,421.31400000000002,-438.25400000000002,350.404,162.822
6998.0,1808.0699999999999,1917.75,363.76100000000002,357.61000000000001,-423.99700000000001,261.70499999999998,182.453
6999.0,1814.4300000000001,1940.45,354.83499999999998,305.69099999999997,-406.85899999999998,164.13,200.16499999999999
7000.0,1818.0999999999999,1941.45,341.274,254.42400000000001,-386.565,58.890599999999999,215.79900000000001
7001.0,1818.71,1923.0899999999999,328.41199999999998,210.12100000000001,-363.34199999999998,-52.157800000000002,229.39099999999999
7002.0,1815.8800000000001,1879.6400000000001,312.02699999999999,170.27600000000001,-337.10199999999998,-166.75399999999999,240.40199999999999
7003.0,1809.97,1817.1700000000001,299.19400000000002,142.816,-308.476,-282.15800000000002,248.71600000000001
7004.0,1800.96,1724.6199999999999,279.197,117.319,-277.29899999999998,-395.52999999999997,254.304
7005.0,1789.72,1616.8699999999999,266.07299999999998,108.492,-245.49799999999999,-504.11099999999999,256.61200000000002
7006.0,1773.6300000000001,1489.6199999999999,255.92500000000001,111.68899999999999,-209.70500000000001,-605.26700000000005,254.32900000000001
7007.0,1767.8199999999999,1331.72,214.333,104.101,-169.196,-699.87400000000002,248.971
7008.0,1770.3099999999999,1130.1800000000001,138.75299999999999,73.957899999999995,-143.691,-782.58500000000004,247.251
7009.0,1759.0,960.02300000000002,124.739,102.828,-122.669,-847.68299999999999,242.721
7010.0,1748.73,803.18399999999997,125.82899999999999,158.77000000000001,-93.241299999999995,-900.52099999999996,232.08699999999999
7011.0,1746.3499999999999,633.96299999999997,111.458,209.173,-66.598100000000002,-940.96199999999999,222.63499999999999
7012.0,1745.0599999999999,470.822,103.98699999999999,271.68000000000001,-41.579099999999997,-966.95399999999995,211.23500000000001
7013.0,1745.1700000000001,315.721,100.488,344.29899999999998,-19.398599999999998,-978.78700000000003,197.583
7014.0,1745.45,175.37299999999999,107.68600000000001,429.95600000000002,0.39477299999999999,-976.43600000000004,182.297
7015.0,1746.1800000000001,27.457000000000001,101.98,502.70600000000002,18.613199999999999,-960.73599999999999,166.381
7016.0,1746.79,-106.297,104.068,581.65200000000004,35.1404,-932.27800000000002,149.827
7017.0,1747.04,-244.16200000000001,94.574299999999994,645.93399999999997,49.7577,-891.88699999999994,132.67599999999999
7018.0,1746.8499999999999,-363.53699999999998,95.0518,715.91999999999996,62.5398,-840.54600000000005,115.04000000000001
7019.0,1745.9300000000001,-485.32400000000001,83.640799999999999,768.79499999999996,72.809600000000003,-779.15800000000002,96.819000000000003
7020.0,1744.3599999999999,-575.15499999999997,93.758899999999997,837.12,80.563000000000002,-708.92999999999995,78.132400000000004
7021.0,1742.6800000000001,-676.82799999999997,81.638000000000005,876.32500000000005,86.371700000000004,-630.96600000000001,59.5961
7022.0,1740.46,-743.39200000000005,93.368200000000002,932.15700000000004,89.966999999999999,-545.97699999999998,41.029699999999998
7023.0,1545.8399999999999,1028.6199999999999,220.18100000000001,-431.149,-204.99000000000001,437.16500000000002,-169.15799999999999
7024.0,1552.28,1065.5,209.548,-494.53500000000003,-215.67500000000001,352.62,-148.27500000000001
7025.0,1560.99,1112.3699999999999,220.33699999999999,-532.32000000000005,-223.99299999999999,260.47300000000001,-127.846
7026.0,1570.23,1118.3599999999999,203.62700000000001,-591.06799999999998,-228.76499999999999,161.732,-107.935
7027.0,1580.4300000000001,1135.8900000000001,213.089,-616.18499999999995,-230.602,57.624200000000002,-88.979799999999997
7028.0,1591.22,1105.5899999999999,190.702,-664.65099999999995,-229.47200000000001,-50.420299999999997,-71.102000000000004
7029.0,1602.05,1092.0599999999999,202.232,-669.59500000000003,-225.416,-160.678,-54.786299999999997
7030.0,1612.8099999999999,1030.1400000000001,183.01499999999999,-695.13,-218.69399999999999,-270.90699999999998,-40.112400000000001
7031.0,1622.47,980.38300000000004,195.16499999999999,-679.36900000000003,-209.251,-378.90800000000002,-27.534600000000001
7032.0,1631.6800000000001,887.75400000000002,181.49000000000001,-678.79399999999998,-197.678,-482.279,-17.0486
7033.0,1638.5599999999999,804.02999999999997,199.352,-640.00800000000004,-184.809,-578.64200000000005,-8.8184299999999993
7034.0,1645.77,664.44299999999998,172.14599999999999,-635.21900000000005,-163.62299999999999,-667.46600000000001,-3.3934199999999999
7035.0,1658.98,512.495,127.756,-629.81500000000005,-146.02000000000001,-747.17899999999997,1.4442200000000001
7036.0,1668.5999999999999,334.85500000000002,75.8172,-628.44500000000005,-141.81999999999999,-812.04100000000005,7.1679500000000003
7037.0,1672.9000000000001,196.36799999999999,81.236900000000006,-567.44399999999996,-133.50700000000001,-863.34000000000003,10.278700000000001
7038.0,1679.29,42.518799999999999,67.138599999999997,-514.10199999999998,-121.06399999999999,-903.97299999999996,11.835900000000001
7039.0,1685.6300000000001,-71.529899999999998,88.162199999999999,-417.70499999999998,-111.209,-931.50599999999997,12.926399999999999
7040.0,1690.5599999999999,-212.084,79.523200000000003,-345.822,-101.971,-945.93399999999997,13.1693
7041.0,1694.6099999999999,-327.34899999999999,91.521900000000002,-250.465,-93.501499999999993,-947.95100000000002,12.883900000000001
7042.0,1697.0699999999999,-472.21899999999999,68.776300000000006,-189.05199999999999,-85.834699999999998,-937.70000000000005,11.8567
7043.0,1697.6199999999999,-573.15999999999997,83.652600000000007,-90.569299999999998,-79.305499999999995,-915.68399999999997,9.9509299999999996
7044.0,1696.4200000000001,-697.53200000000004,68.133899999999997,-24.91,-73.967100000000002,-882.72199999999998,7.31128
7045.0,1693.54,-779.56600000000003,87.292000000000002,71.558999999999997,-69.908799999999999,-839.70500000000004,4.0760199999999998
7046.0,1689.25,-884.55200000000002,75.221800000000002,131.85599999999999,-67.138400000000004,-787.67700000000002,0.43712099999999998
7047.0,1683.8199999999999,-947.40700000000004,96.667100000000005,219.53999999999999,-65.6066,-727.74300000000005,-3.37005
7048.0,1677.5599999999999,-1042.9000000000001,76.554100000000005,258.983,-65.202100000000002,-660.96299999999997,-7.2466699999999999
7049.0,1670.23,-1086.24,99.006,333.53500000000003,-66.238699999999994,-588.32399999999996,-11.023099999999999
7050.0,1662.51,-1162.72,78.739800000000002,357.17599999999999,-68.560100000000006,-511.45800000000003,-14.625400000000001
7051.0,1500.3599999999999,583.12699999999995,123.889,-811.78700000000003,-44.773600000000002,341.33600000000001,-355.63799999999998
7052.0,1504.8599999999999,632.65200000000004,146.351,-846.43399999999997,-67.148700000000005,261.32799999999997,-337.29199999999997
7053.0,1511.6199999999999,645.43399999999997,141.06800000000001,-900.51499999999999,-87.324100000000001,176.00399999999999,-318.62700000000001
7054.0,1519.6800000000001,674.02200000000005,163.09100000000001,-919.154,-104.523,85.3429,-299.75
7055.0,1528.73,661.79499999999996,156.179,-957.05700000000002,-119.069,-9.1692800000000005,-280.71600000000001
7056.0,1538.47,667.97299999999996,180.452,-953.30499999999995,-131.10599999999999,-105.992,-261.92200000000003
7057.0,1548.5999999999999,625.76999999999998,169.82400000000001,-973.74099999999999,-140.30699999999999,-203.441,-243.51900000000001
7058.0,1558.8900000000001,600.03700000000003,188.982,-953.17899999999997,-147.16,-299.52100000000002,-225.874
7059.0,1568.4300000000001,529.25300000000004,178.64500000000001,-952.22500000000002,-150.91499999999999,-392.30500000000001,-209.494
7060.0,1577.6400000000001,467.68799999999999,189.38300000000001,-919.27999999999997,-152.62799999999999,-479.82799999999997,-194.25899999999999
7061.0,1583.79,365.98200000000003,182.65700000000001,-899.19100000000003,-152.13800000000001,-559.23099999999999,-181.10599999999999
7062.0,1590.3399999999999,265.22699999999998,174.161,-863.82299999999998,-139.93899999999999,-633.15300000000002,-170.82300000000001
7063.0,1599.29,101.259,98.546099999999996,-883.79499999999996,-140.53299999999999,-696.95399999999995,-156.624
7064.0,1603.6900000000001,-21.9693,93.560199999999995,-840.31899999999996,-149.29400000000001,-745.08000000000004,-143.68100000000001
7065.0,1605.8599999999999,-136.881,97.263400000000004,-776.43499999999995,-146.798,-784.25599999999997,-135.85300000000001
7066.0,1605.98,-228.14099999999999,115.167,-686.73000000000002,-146.251,-812.88699999999994,-125.23099999999999
7067.0,1603.29,-351.21800000000002,98.748099999999994,-626.298,-145.29900000000001,-829.75800000000004,-115.15600000000001
7068.0,1598.8900000000001,-439.93299999999999,110.371,-532.20699999999999,-144.517,-836.32799999999997,-105.434
7069.0,1591.71,-543.404,101.714,-456.30099999999999,-143.714,-831.88699999999994,-96.440399999999997
7070.0,1582.3499999999999,-608.02800000000002,125.809,-346.887,-142.953,-817.33000000000004,-88.254099999999994
7071.0,1571.23,-703.29899999999998,113.28700000000001,-275.99299999999999,-142.298,-793.29399999999998,-80.8399
7072.0,1558.5,-764.25099999999998,128.78100000000001,-180.23599999999999,-141.86500000000001,-760.47900000000004,-74.206500000000005
7073.0,1544.5899999999999,-851.38599999999997,111.357,-121.732,-141.76900000000001,-719.88800000000003,-68.173699999999997
7074.0,1529.73,-902.78800000000001,122.735,-39.900500000000001,-142.155,-672.38,-62.754399999999997
7075.0,1514.1700000000001,-978.13,102.56699999999999,4.6813900000000004,-143.07900000000001,-619.03200000000004,-57.737000000000002
7076.0,1498.01,-1006.87,121.48399999999999,81.548100000000005,-144.666,-560.678,-53.110100000000003
7077.0,1481.8900000000001,-1068.49,99.543000000000006,111.327,-146.73599999999999,-498.69999999999999,-48.639200000000002
7078.0,1466.0,-1082.1400000000001,118.81399999999999,174.977,-149.66300000000001,-433.31700000000001,-43.8386
7079.0,1328.1600000000001,358.262,45.570599999999999,-802.04600000000005,18.738700000000001,247.715,-407.262
7080.0,1336.1800000000001,437.70600000000002,111.334,-791.31700000000001,-6.3275399999999999,182.71899999999999,-395.47699999999998
7081.0,1344.01,400.57299999999998,67.913300000000007,-881.64599999999996,-29.3521,112.68899999999999,-381.86700000000002
7082.0,1351.71,459.86399999999998,129.29599999999999,-858.09900000000005,-50.642699999999998,38.515500000000003,-367.12700000000001
7083.0,1359.3,405.17399999999998,85.586600000000004,-930.24800000000005,-69.903499999999994,-38.543500000000002,-351.12299999999999
7084.0,1366.5899999999999,440.12299999999999,140.72200000000001,-893.04899999999998,-87.354799999999997,-117.22799999999999,-334.46800000000002
7085.0,1373.3399999999999,369.56,100.02500000000001,-941.23500000000001,-102.474,-196.054,-317.14100000000002
7086.0,1379.53,386.19600000000003,155.797,-881.98699999999997,-115.675,-273.38200000000001,-299.76100000000002
7087.0,1384.5699999999999,296.20600000000002,116.658,-908.44399999999996,-125.967,-347.524,-282.827
7088.0,1388.6700000000001,294.291,173.24700000000001,-828.71000000000004,-134.17400000000001,-416.96600000000001,-266.43400000000003
7089.0,1389.8199999999999,185.81399999999999,142.852,-832.99699999999996,-140.41800000000001,-478.06700000000001,-252.149
7090.0,1390.79,133.72399999999999,163.62799999999999,-768.55399999999997,-134.87299999999999,-536.08399999999995,-241.922
7091.0,1393.24,-49.155500000000004,48.658000000000001,-830.69100000000003,-142.59999999999999,-586.07899999999995,-225.71799999999999
7092.0,1390.78,-100.643,93.495099999999994,-744.86599999999999,-155.767,-620.16600000000005,-208.072
7093.0,1384.6600000000001,-228.946,56.427799999999998,-728.50699999999995,-156.08699999999999,-647.16300000000001,-195.08000000000001
7094.0,1376.74,-268.233,97.962199999999996,-622.02700000000004,-160.28,-666.39700000000005,-180.06
7095.0,1365.6600000000001,-371.69799999999998,71.648099999999999,-578.41700000000003,-163.07400000000001,-676.22400000000005,-165.81399999999999
7096.0,1351.47,-394.57499999999999,118.092,-456.39600000000002,-165.34999999999999,-677.572,-151.428
7097.0,1335.2,-496.82999999999998,80.365499999999997,-416.90699999999998,-166.80699999999999,-670.59000000000003,-137.61000000000001
7098.0,1317.1500000000001,-525.56899999999996,110.559,-309.34100000000001,-167.67699999999999,-655.73299999999995,-124.79000000000001
7099.0,1297.45,-614.21100000000001,75.5488,-268.524,-167.95500000000001,-633.45299999999997,-112.72799999999999
7100.0,1276.77,-627.92700000000002,110.271,-161.178,-168.102,-604.43600000000004,-101.812
7101.0,1255.3199999999999,-700.61000000000001,80.215100000000007,-122.5,-167.99700000000001,-569.62900000000002,-91.711500000000001
7102.0,1233.4000000000001,-702.54399999999998,115.45099999999999,-23.751200000000001,-168.02000000000001,-529.62199999999996,-82.578299999999999
7103.0,1211.4100000000001,-760.52700000000004,88.526799999999994,7.7993399999999999,-167.988,-485.63999999999999,-74.070599999999999
7104.0,1189.6099999999999,-760.86800000000005,113.974,85.218199999999996,-168.31399999999999,-438.17399999999998,-66.276799999999994
7105.0,1168.1700000000001,-805.38499999999999,88.755499999999998,107.18600000000001,-168.625,-388.38900000000001,-59.1004
7106.0,1146.6199999999999,-794.33600000000001,113.876,171.649,-169.666,-336.488,-51.786299999999997
7107.0,1087.49,305.476,45.092700000000001,-605.55600000000004,29.2972,179.37899999999999,-375.48899999999998
7108.0,1097.8,333.70800000000003,66.918999999999997,-632.00999999999999,6.8963400000000004,129.38300000000001,-369.08199999999999
7109.0,1107.03,332.803,65.308599999999998,-675.11599999999999,-13.7803,74.930000000000007,-360.67399999999998
7110.0,1115.3299999999999,351.03899999999999,88.561800000000005,-685.60900000000004,-33.801600000000001,17.2653,-350.33300000000003
7111.0,1122.3800000000001,337.63099999999997,86.774900000000002,-712.51400000000001,-52.505099999999999,-42.8416,-338.45499999999998
7112.0,1128.23,345.71100000000001,112.643,-702.553,-70.034800000000004,-104.16800000000001,-324.95100000000002
7113.0,1132.76,316.81200000000001,108.36199999999999,-713.17200000000003,-85.952299999999994,-165.62700000000001,-310.41699999999997
7114.0,1136.0699999999999,306.87,129.18899999999999,-689.06700000000001,-100.271,-225.95599999999999,-294.851
7115.0,1137.8599999999999,264.245,125.539,-680.84500000000003,-112.377,-283.64499999999998,-279.36500000000001
7116.0,1138.5,231.79599999999999,137.53299999999999,-648.22500000000002,-122.154,-337.76999999999998,-263.80599999999998
7117.0,1137.0899999999999,172.21100000000001,135.97800000000001,-626.38900000000001,-130.78999999999999,-384.75200000000001,-249.94
7118.0,1134.1199999999999,118.855,141.90700000000001,-585.476,-130.03399999999999,-428.22000000000003,-239.81899999999999
7119.0,1131.26,3.0900500000000002,77.826800000000006,-602.70500000000004,-133.85300000000001,-467.49200000000002,-225.465
7120.0,1125.8299999999999,-89.583299999999994,53.416600000000003,-589.31600000000003,-146.82300000000001,-494.34800000000001,-206.59
7121.0,1116.75,-154.17599999999999,59.750500000000002,-541.11300000000006,-152.47800000000001,-512.25,-193.15700000000001
7122.0,1104.24,-194.02799999999999,78.321100000000001,-468.05200000000002,-155.55199999999999,-524.93899999999996,-179.06299999999999
7123.0,1088.8299999999999,-262.62400000000002,63.289499999999997,-423.529,-158.69900000000001,-530.96600000000001,-162.96700000000001
7124.0,1071.5899999999999,-299.31099999999998,74.539299999999997,-348.49000000000001,-160.55199999999999,-530.71600000000001,-147.684
7125.0,1052.23,-348.58699999999999,67.941900000000004,-288.85700000000003,-161.398,-524.05499999999995,-132.84999999999999
7126.0,1031.22,-365.31999999999999,89.526399999999995,-200.87700000000001,-161.24600000000001,-511.17899999999997,-118.836
7127.0,1009.49,-410.31700000000001,78.862200000000001,-146.364,-160.49000000000001,-492.67500000000001,-106.09699999999999
7128.0,987.17499999999995,-428.221,91.2624,-71.6083,-159.047,-469.089,-94.360500000000002
7129.0,964.82399999999996,-470.91899999999998,75.035700000000006,-29.142199999999999,-157.35300000000001,-441.01600000000002,-83.819999999999993
7130.0,942.77300000000002,-484.73399999999998,83.7256,33.764499999999998,-155.441,-409.27499999999998,-74.331500000000005
7131.0,921.16600000000005,-522.63999999999999,64.108599999999996,63.694899999999997,-153.58799999999999,-374.48700000000002,-65.889499999999998
7132.0,899.96100000000001,-520.63599999999997,80.257400000000004,124.09,-151.727,-337.31700000000001,-58.268999999999998
7133.0,879.36400000000003,-552.64700000000005,57.807499999999997,141.29900000000001,-149.90100000000001,-298.49099999999999,-51.593899999999998
7134.0,859.42899999999997,-542.255,74.4011,191.26900000000001,-148.52199999999999,-258.447,-44.966099999999997
7135.0,841.25300000000004,388.92099999999999,136.87200000000001,-306.38200000000001,14.428599999999999,135.07400000000001,-305.84500000000003
7136.0,851.83699999999999,245.042,-10.897,-493.50700000000001,-3.3344299999999998,97.479500000000002,-302.84699999999998
7137.0,860.93899999999996,407.36700000000002,151.762,-364.92200000000003,-19.725300000000001,56.009799999999998,-297.923
7138.0,868.78499999999997,254.49799999999999,3.2267000000000001,-541.33699999999999,-36.055399999999999,12.1655,-290.93200000000002
7139.0,875.10900000000004,407.02800000000002,164.99799999999999,-400.48099999999999,-51.562600000000003,-33.7286,-282.38299999999998
7140.0,879.93200000000002,242.01900000000001,13.4407,-565.49900000000002,-66.331299999999999,-80.652500000000003,-271.916
7141.0,883.12400000000002,387.25700000000001,176.84299999999999,-407.41399999999999,-80.076300000000003,-127.818,-260.18799999999999
7142.0,884.77999999999997,216.96100000000001,28.900500000000001,-552.64800000000002,-92.549199999999999,-174.28700000000001,-247.036
7143.0,884.88400000000001,351.315,190.78200000000001,-380.279,-103.459,-218.93100000000001,-233.49600000000001
7144.0,883.58699999999999,176.47900000000001,48.090899999999998,-505.36799999999999,-112.298,-260.92500000000001,-219.68899999999999
7145.0,880.77200000000005,299.40699999999998,210.64099999999999,-321.14999999999998,-119.76900000000001,-298.11900000000003,-206.733
7146.0,875.92499999999995,103.58,60.063400000000001,-444.63499999999999,-122.46599999999999,-330.39400000000001,-196.80199999999999
7147.0,869.87800000000004,175.99600000000001,171.80199999999999,-292.54000000000002,-122.916,-359.44600000000003,-188.13
7148.0,862.54499999999996,-62.765500000000003,-23.4528,-448.928,-129.75,-382.21300000000002,-172.59800000000001
7149.0,853.47199999999998,19.6615,113.03700000000001,-282.68799999999999,-135.97399999999999,-396.67000000000002,-155.5
7150.0,842.65700000000004,-168.92599999999999,-28.495100000000001,-386.52199999999999,-138.244,-405.63499999999999,-143.16900000000001
7151.0,829.80499999999995,-47.832900000000002,131.34100000000001,-178.441,-140.00200000000001,-410.53899999999999,-131.12799999999999
7152.0,814.80600000000004,-222.643,-9.7795900000000007,-268.72199999999998,-140.25800000000001,-410.82900000000001,-117.34099999999999
7153.0,797.86500000000001,-106.52200000000001,136.643,-69.586600000000004,-139.81,-405.637,-104.58199999999999
7154.0,780.25199999999995,-286.66300000000001,-16.061900000000001,-168.291,-137.83799999999999,-396.18599999999998,-92.556100000000001
7155.0,762.15899999999999,-166.53999999999999,128.768,28.717700000000001,-135.44,-382.26999999999998,-81.222200000000001
7156.0,743.78399999999999,-332.642,-15.350199999999999,-64.929599999999994,-132.44,-364.22199999999998,-71.225499999999997
7157.0,725.51300000000003,-205.887,130.37700000000001,128.59999999999999,-129.33099999999999,-342.553,-62.403700000000001
7158.0,707.61699999999996,-362.49299999999999,-10.1859,32.5242,-125.86199999999999,-317.94,-54.614400000000003
7159.0,690.41899999999998,-230.68799999999999,134.84200000000001,217.988,-122.53700000000001,-290.87400000000002,-47.925400000000003
7160.0,674.21299999999997,-387.76600000000002,-11.6447,107.566,-119.28400000000001,-262.06200000000001,-42.152900000000002
7161.0,659.09000000000003,-251.24799999999999,132.62899999999999,283.55099999999999,-116.413,-231.99000000000001,-37.466000000000001
7162.0,644.30499999999995,-399.74299999999999,-10.8888,166.46700000000001,-113.81399999999999,-201.09899999999999,-33.260100000000001
7163.0,649.38699999999994,237.952,-10.9689,-301.22699999999998,-3.5873900000000001,108.798,-236.42599999999999
7164.0,658.17600000000004,379.892,126.767,-193.761,-16.9236,79.773899999999998,-234.73500000000001
7165.0,665.77800000000002,255.02000000000001,0.98519000000000001,-346.09699999999998,-29.471399999999999,47.840800000000002,-231.386
7166.0,672.33199999999999,392.37,140.58500000000001,-228.238,-41.981000000000002,13.9108,-226.47499999999999
7167.0,677.529,261.10899999999998,15.1629,-370.17599999999999,-53.986899999999999,-21.609000000000002,-219.964
7168.0,681.34799999999996,394.738,157.90299999999999,-237.94999999999999,-65.472399999999993,-58.068800000000003,-211.90899999999999
7169.0,683.745,255.00200000000001,30.5199,-369.55000000000001,-76.255300000000005,-94.818600000000004,-202.34800000000001
7170.0,684.69100000000003,378.27199999999999,169.405,-228.239,-86.099199999999996,-131.22200000000001,-191.57599999999999
7171.0,684.30100000000004,232.78800000000001,42.611699999999999,-346.04500000000002,-94.750100000000003,-166.50700000000001,-179.839
7172.0,682.49599999999998,342.33300000000003,175.05099999999999,-198.755,-101.887,-199.84800000000001,-167.923
7173.0,679.49199999999996,187.19300000000001,46.157299999999999,-307.61000000000001,-107.187,-230.25399999999999,-156.26400000000001
7174.0,675.22400000000005,291.697,183.482,-148.10599999999999,-111.34399999999999,-256.108,-146.535
7175.0,670.70899999999995,127.485,52.239800000000002,-250.71100000000001,-110.911,-279.18000000000001,-140.10300000000001
7176.0,664.83000000000004,182.84200000000001,134.072,-130.89400000000001,-113.127,-297.80900000000003,-131.69
7177.0,653.71900000000005,-13.2479,-27.1889,-257.12700000000001,-118.959,-308.77600000000001,-119.157
7178.0,643.46400000000006,72.813900000000004,95.731800000000007,-103.20699999999999,-118.166,-317.63099999999997,-106.375
7179.0,635.08399999999995,-90.820999999999998,-35.960000000000001,-203.91200000000001,-118.423,-322.98899999999998,-93.614400000000003
7180.0,624.67600000000004,4.8126199999999999,90.379199999999997,-40.8842,-117.342,-323.59100000000001,-84.575699999999998
7181.0,615.66600000000005,-143.63800000000001,-32.1008,-122.624,-114.31399999999999,-322.70999999999998,-75.008899999999997
7182.0,604.904,-33.544600000000003,102.242,49.736499999999999,-112.76600000000001,-316.75,-65.069299999999998
7183.0,591.88900000000001,-178.89500000000001,-21.0505,-33.662999999999997,-109.333,-306.27499999999998,-57.663899999999998
7184.0,579.13999999999999,-75.622600000000006,102.15900000000001,129.04499999999999,-105.685,-292.88600000000002,-49.7988
7185.0,566.61500000000001,-220.97399999999999,-24.781099999999999,39.032699999999998,-101.804,-276.45100000000002,-43.206000000000003
7186.0,554.78099999999995,-118.13,94.160799999999995,192.88499999999999,-98.203100000000006,-257.46100000000001,-37.501100000000001
7187.0,543.697,-260.41699999999997,-34.2836,96.456000000000003,-94.773099999999999,-236.37700000000001,-32.891399999999997
7188.0,533.20699999999999,-147.71799999999999,89.692400000000006,249.209,-91.503299999999996,-213.67500000000001,-29.095600000000001
7189.0,523.17600000000004,-286.71800000000002,-40.594200000000001,144.364,-88.258300000000006,-189.732,-26.081499999999998
7190.0,513.70299999999997,-171.857,80.933899999999994,287.09199999999998,-85.612200000000001,-165.04300000000001,-23.559100000000001
7191.0,516.10599999999999,365.03500000000003,122.718,-67.493200000000002,-16.959099999999999,92.820899999999995,-181.35300000000001
7192.0,522.73599999999999,266.38999999999999,18.945799999999998,-194.434,-27.187200000000001,69.731099999999998,-179.71199999999999
7193.0,528.51900000000001,380.26299999999998,130.23699999999999,-103.471,-36.852600000000002,44.270099999999999,-176.83600000000001
7194.0,533.56399999999996,276.05900000000003,26.082899999999999,-224.386,-46.361199999999997,17.209599999999998,-172.74299999999999
7195.0,537.65899999999999,383.65199999999999,136.58699999999999,-126.67400000000001,-55.444499999999998,-11.1846,-167.42099999999999
7196.0,540.745,271.41199999999998,29.953499999999998,-241.566,-64.070800000000006,-40.406300000000002,-160.83699999999999
7197.0,542.779,375.54399999999998,142.209,-132.58699999999999,-72.161799999999999,-69.9816,-152.989
7198.0,543.65200000000004,261.964,39.366900000000001,-233.46299999999999,-79.493799999999993,-99.418999999999997,-144.02600000000001
7199.0,543.53399999999999,359.89699999999999,150.19399999999999,-115.151,-85.952200000000005,-128.209,-134.072
7200.0,542.04300000000001,246.822,53.336399999999998,-199.53200000000001,-91.209100000000007,-155.589,-123.72499999999999
7201.0,539.95100000000002,338.69099999999997,163.172,-72.084000000000003,-94.967399999999998,-181.203,-113.348
7202.0,536.18200000000002,214.69800000000001,63.104199999999999,-152.96600000000001,-98.091999999999999,-203.28299999999999,-103.65300000000001
7203.0,531.41399999999999,289.41800000000001,161.88999999999999,-30.0107,-96.788200000000003,-222.92699999999999,-95.995900000000006
7204.0,529.495,154.369,48.415399999999998,-115.443,-99.523700000000005,-238.87,-89.5107
7205.0,524.59100000000001,226.52500000000001,150.05799999999999,14.1675,-102.718,-249.61500000000001,-85.470500000000001
7206.0,517.92999999999995,65.876999999999995,10.725300000000001,-87.312299999999993,-99.384,-259.32999999999998,-79.169799999999995
7207.0,510.39999999999998,125.358,93.113799999999998,24.4102,-101.861,-263.404,-66.485100000000003
7208.0,500.93400000000003,6.0066100000000002,4.8679800000000002,-39.180300000000003,-98.067400000000006,-264.18599999999998,-59.744799999999998
7209.0,495.64499999999998,58.4938,79.893199999999993,69.216499999999996,-91.554299999999998,-265.74200000000002,-52.653100000000002
7210.0,489.81099999999998,-87.051299999999998,-40.267600000000002,-24.959900000000001,-90.043000000000006,-262.66300000000001,-42.728400000000001
7211.0,483.25099999999998,-5.8398500000000002,67.558800000000005,108.249,-86.981700000000004,-255.87799999999999,-38.228000000000002
7212.0,476.54700000000003,-129.506,-34.638199999999998,34.287700000000001,-84.474500000000006,-246.244,-34.116900000000001
7213.0,468.214,-45.368000000000002,69.305199999999999,165.988,-81.434299999999993,-233.08099999999999,-30.356999999999999
7214.0,460.61200000000002,-163.35900000000001,-31.177800000000001,92.796000000000006,-78.290499999999994,-217.904,-26.461300000000001
7215.0,453.49900000000002,-74.831199999999995,72.980900000000005,222.125,-75.2851,-200.75899999999999,-23.145299999999999
7216.0,447.42200000000003,-194.11699999999999,-33.405700000000003,139.375,-72.747600000000006,-182.191,-20.654800000000002
7217.0,442.01299999999998,-99.264600000000002,72.052800000000005,265.63400000000001,-71.004499999999993,-162.453,-19.064699999999998
7218.0,436.96600000000001,-212.09200000000001,-32.051099999999998,179.059,-69.430700000000002,-141.99100000000001,-18.2789
7219.0,431.11500000000001,238.22300000000001,7.63286,-123.81100000000001,-23.610900000000001,81.461100000000002,-145.511
7220.0,435.952,342.637,106.318,-43.237900000000003,-31.976900000000001,62.271700000000003,-143.524
7221.0,440.40199999999999,256.00599999999997,15.862500000000001,-149.61500000000001,-39.845599999999997,41.205100000000002,-140.602
7222.0,444.35000000000002,356.60500000000002,115.026,-63.688499999999998,-47.433999999999997,18.746200000000002,-136.833
7223.0,447.66899999999998,265.83199999999999,25.207000000000001,-163.63,-54.573999999999998,-4.8658099999999997,-132.166
7224.0,450.32299999999998,364.02699999999999,126.69199999999999,-68.757999999999996,-61.270800000000001,-29.215199999999999,-126.559
7225.0,452.279,266.90800000000002,35.086300000000001,-163.11799999999999,-67.463899999999995,-53.951900000000002,-119.994
7226.0,453.45100000000002,357.12099999999998,132.97999999999999,-63.819099999999999,-73.024299999999997,-78.665300000000002,-112.51000000000001
7227.0,453.863,256.73099999999999,42.255499999999998,-148.714,-77.879999999999995,-102.992,-104.157
7228.0,453.34199999999998,336.91899999999998,134.45699999999999,-46.402999999999999,-81.768900000000002,-126.358,-95.293999999999997
7229.0,452.09399999999999,230.86600000000001,42.314799999999998,-123.928,-84.633399999999995,-148.476,-86.084999999999994
7230.0,449.36599999999999,310.60700000000003,139.19800000000001,-9.4190900000000006,-86.423299999999998,-168.00399999999999,-77.253100000000003
7231.0,446.82900000000001,204.261,49.954999999999998,-76.404799999999994,-86.609700000000004,-185.48500000000001,-69.912400000000005
7232.0,444.47000000000003,271.09199999999998,137.405,32.823599999999999,-87.727400000000003,-200.11699999999999,-62.006700000000002
7233.0,440.65600000000001,167.59899999999999,58.462800000000001,-26.207899999999999,-86.249300000000005,-211.53399999999999,-55.680999999999997
7234.0,439.19099999999997,236.976,146.58199999999999,90.831500000000005,-84.724599999999995,-221.11600000000001,-52.7836
7235.0,436.76999999999998,106.245,35.587000000000003,10.4519,-85.777000000000001,-226.83600000000001,-48.065899999999999
7236.0,430.66800000000001,154.61799999999999,106.283,107.863,-83.563500000000005,-228.535,-43.121600000000001
7237.0,424.93200000000002,26.417000000000002,-1.96532,28.993500000000001,-80.4011,-227.55500000000001,-40.601700000000001
7238.0,420.82999999999998,67.504000000000005,60.4465,119.301,-76.924099999999996,-225.36699999999999,-35.944400000000002
7239.0,415.65899999999999,-65.287199999999999,-45.846499999999999,31.050699999999999,-74.290300000000002,-220.541,-28.9529
7240.0,410.67000000000002,-4.0194599999999996,43.469299999999997,136.15100000000001,-71.598500000000001,-212.88399999999999,-26.2393
7241.0,407.88299999999998,-120.745,-48.977600000000002,62.417099999999998,-69.781499999999994,-203.63399999999999,-24.532900000000001
7242.0,403.935,-54.836199999999998,37.498699999999999,166.977,-69.303700000000006,-191.50200000000001,-22.2836
7243.0,399.40499999999997,-164.97999999999999,-56.200200000000002,92.780500000000004,-68.215900000000005,-177.03899999999999,-20.826499999999999
7244.0,395.26600000000002,-87.484499999999997,34.464700000000001,203.154,-66.445599999999999,-161.27199999999999,-18.8401
7245.0,391.18400000000003,-195.92400000000001,-64.109300000000005,123.328,-63.345799999999997,-144.77099999999999,-17.286899999999999
7246.0,386.32900000000001,-115.97799999999999,22.974,226.477,-61.023099999999999,-127.003,-15.1739
7247.0,374.23200000000003,320.495,103.456,8.3966200000000004,-25.841999999999999,71.951800000000006,-123.47799999999999
7248.0,378.18700000000001,239.446,16.595800000000001,-93.641499999999994,-33.048699999999997,55.550800000000002,-121.25700000000001
7249.0,381.928,336.07400000000001,108.947,-14.5328,-39.834499999999998,37.575499999999998,-118.313
7250.0,385.30000000000001,250.33600000000001,21.072199999999999,-113.47,-46.264000000000003,18.333600000000001,-114.771
7251.0,388.279,341.28199999999998,111.974,-31.138999999999999,-52.207700000000003,-1.9556899999999999,-110.592
7252.0,390.85899999999998,249.167,21.916899999999998,-126.964,-57.714700000000001,-22.936,-105.764
7253.0,392.96199999999999,337.22300000000001,114.059,-37.481000000000002,-62.712699999999998,-44.308300000000003,-100.24299999999999
7254.0,394.572,244.595,27.441299999999998,-123.399,-67.183899999999994,-65.732200000000006,-94.020499999999998
7255.0,395.56799999999998,327.42099999999999,118.19799999999999,-28.379899999999999,-71.014499999999998,-86.880099999999999,-87.127300000000005
7256.0,395.94499999999999,236.41399999999999,36.902299999999997,-101.678,-74.127399999999994,-107.381,-79.661699999999996
7257.0,395.46100000000001,315.75400000000002,127.967,1.0291600000000001,-76.377499999999998,-126.749,-71.829300000000003
7258.0,394.49799999999999,216.23099999999999,41.7318,-70.234200000000001,-77.672799999999995,-144.572,-64.036199999999994
7259.0,393.05099999999999,285.97699999999998,127.092,32.524799999999999,-78.241699999999994,-160.65299999999999,-56.222900000000003
7260.0,390.36500000000001,191.17400000000001,48.923200000000001,-25.015699999999999,-77.682299999999998,-174.03200000000001,-48.987699999999997
7261.0,387.863,252.81999999999999,126.89,76.248599999999996,-76.725200000000001,-184.89699999999999,-42.492199999999997
7262.0,385.79000000000002,149.49700000000001,43.207900000000002,13.470499999999999,-75.333799999999997,-193.636,-36.428100000000001
7263.0,384.22699999999998,222.43700000000001,136.04900000000001,129.31200000000001,-72.768199999999993,-200.31899999999999,-33.020800000000001
7264.0,384.072,116.152,47.932600000000001,67.430400000000006,-72.285899999999998,-204.41499999999999,-30.416499999999999
7265.0,380.86500000000001,175.23400000000001,129.93600000000001,171.34100000000001,-72.054000000000002,-204.08000000000001,-29.700500000000002
7266.0,378.99400000000003,43.075899999999997,16.031600000000001,85.648499999999999,-68.950999999999993,-202.21799999999999,-31.633600000000001
7267.0,375.26600000000002,73.764499999999998,64.880600000000001,157.71299999999999,-70.108199999999997,-196.48500000000001,-28.209
7268.0,367.38600000000002,-51.7012,-33.704300000000003,73.826999999999998,-67.621300000000005,-187.268,-27.231400000000001
7269.0,365.23899999999998,-17.810700000000001,24.862100000000002,147.86099999999999,-63.253300000000003,-180.12,-24.956299999999999
7270.0,362.15699999999998,-131.38800000000001,-65.580399999999997,66.550200000000004,-62.839399999999998,-170.93100000000001,-19.7837
7271.0,358.16399999999999,-59.271999999999998,24.631499999999999,169.44200000000001,-61.949199999999998,-158.77500000000001,-18.072700000000001
7272.0,354.16899999999998,-155.28999999999999,-60.732799999999997,101.36499999999999,-61.303400000000003,-144.709,-16.276900000000001
7273.0,351.73700000000002,-74.826099999999997,23.055099999999999,207.61199999999999,-59.9651,-129.642,-16.375599999999999
7274.0,348.44099999999997,-155.697,-57.357500000000002,144.815,-61.744599999999998,-114.021,-13.488300000000001
7275.0,333.18099999999998,200.035,-3.8112200000000001,-73.861699999999999,-25.626999999999999,63.159399999999998,-110.04900000000001
7276.0,336.63799999999998,293.72800000000001,84.400000000000006,1.11937,-32.215200000000003,48.934100000000001,-107.767
7277.0,340.02100000000002,216.85900000000001,3.3498600000000001,-91.4786,-38.346899999999998,33.281199999999998,-104.967
7278.0,343.16800000000001,306.77800000000002,90.949600000000004,-13.561299999999999,-44.090400000000002,16.426100000000002,-101.754
7279.0,346.065,227.00999999999999,10.727,-101.36,-49.362099999999998,-1.3873899999999999,-98.082899999999995
7280.0,348.69299999999998,314.44299999999998,99.617099999999994,-17.693000000000001,-54.197000000000003,-19.853899999999999,-93.949200000000005
7281.0,351.03800000000001,229.286,17.776299999999999,-102.205,-58.5458,-38.704500000000003,-89.333299999999994
7282.0,353.03300000000002,309.22699999999998,102.864,-17.033000000000001,-62.409599999999998,-57.641599999999997,-84.214399999999998
7283.0,354.61500000000001,221.62799999999999,22.1694,-94.725499999999997,-65.712400000000002,-76.377899999999997,-78.598100000000002
7284.0,355.68200000000002,292.45800000000003,101.646,-9.20566,-68.420100000000005,-94.597200000000001,-72.504400000000004
7285.0,356.18099999999998,200.93799999999999,20.422899999999998,-81.319599999999994,-70.427400000000006,-111.94,-66.055899999999994
7286.0,356.05000000000001,272.36900000000003,103.72199999999999,14.224600000000001,-71.754300000000001,-128.10599999999999,-59.293500000000002
7287.0,354.94299999999998,183.209,27.747299999999999,-46.377000000000002,-72.226399999999998,-142.47300000000001,-52.449300000000001
7288.0,353.755,243.697,102.491,45.726500000000001,-72.021900000000002,-155.01599999999999,-45.8795
7289.0,352.44299999999998,155.846,30.425899999999999,-7.2090100000000001,-71.221999999999994,-165.72300000000001,-39.746699999999997
7290.0,350.49900000000002,220.16999999999999,110.41800000000001,94.853200000000001,-69.854200000000006,-173.92599999999999,-33.9816
7291.0,348.54399999999998,118.637,25.6282,31.932099999999998,-68.158600000000007,-179.73599999999999,-29.018599999999999
7292.0,347.62299999999999,176.917,102.398,130.09399999999999,-66.016099999999994,-184.05699999999999,-25.0352
7293.0,345.72899999999998,82.115600000000001,28.137699999999999,75.554699999999997,-64.204899999999995,-185.34100000000001,-22.400300000000001
7294.0,344.67500000000001,143.99600000000001,109.541,178.506,-62.458100000000002,-184.34999999999999,-22.9193
7295.0,343.47699999999998,41.3551,26.4907,114.833,-64.065399999999997,-180.08099999999999,-23.543700000000001
7296.0,337.89999999999998,85.980000000000004,92.175600000000003,198.107,-63.922800000000002,-171.17599999999999,-26.446100000000001
7297.0,333.44,-54.614699999999999,-33.081000000000003,94.3172,-61.772100000000002,-161.23099999999999,-27.755099999999999
7298.0,329.41000000000003,-33.647300000000001,1.60544,144.41,-61.589700000000001,-151.54900000000001,-22.796800000000001
7299.0,323.916,-133.90000000000001,-85.496399999999994,67.581500000000005,-62.566200000000002,-140.25299999999999,-18.0761
7300.0,319.96499999999997,-48.999000000000002,9.6549499999999995,176.172,-62.6265,-127.48399999999999,-17.5105
7301.0,321.85399999999998,-128.84899999999999,-63.286999999999999,122.785,-61.272300000000001,-115.98,-16.8566
7302.0,321.13,-26.6785,47.466900000000003,243.78800000000001,-62.370100000000001,-103.905,-12.5084
7303.0,299.52199999999999,270.12900000000002,78.387,28.3263,-24.9268,55.400100000000002,-99.619299999999996
7304.0,302.87900000000002,201.28800000000001,4.3845099999999997,-57.397599999999997,-31.021100000000001,42.869900000000001,-97.607799999999997
7305.0,306.149,282.58499999999998,81.7654,9.6640800000000002,-36.666800000000002,29.039899999999999,-95.144599999999997
7306.0,309.25200000000001,210.57599999999999,7.50657,-73.3292,-41.905999999999999,14.110200000000001,-92.347800000000007
7307.0,312.19499999999999,286.63799999999998,82.986099999999993,-4.7489299999999997,-46.716299999999997,-1.71722,-89.2012
7308.0,314.97000000000003,209.453,6.9523299999999999,-85.656400000000005,-51.107599999999998,-18.1646,-85.721400000000003
7309.0,317.55200000000002,282.89100000000002,83.235600000000005,-12.0289,-55.056399999999996,-34.985700000000001,-81.886700000000005
7310.0,319.89600000000002,205.44499999999999,10.3355,-85.250900000000001,-58.551699999999997,-51.902000000000001,-77.701300000000003
7311.0,321.92899999999997,273.791,84.877600000000001,-8.5603099999999994,-61.560200000000002,-68.663499999999999,-73.154300000000006
7312.0,323.56099999999998,198.09200000000001,16.994399999999999,-71.755499999999998,-64.049499999999995,-84.972800000000007,-68.260000000000005
7313.0,324.71199999999999,263.24000000000001,91.501499999999993,10.053699999999999,-65.977599999999995,-100.56999999999999,-63.034799999999997
7314.0,325.255,180.55199999999999,19.663499999999999,-51.946399999999997,-67.283299999999997,-115.09,-57.5565
7315.0,325.38200000000001,237.26499999999999,88.530100000000004,29.0898,-67.984399999999994,-128.33500000000001,-51.9694
7316.0,324.80200000000002,159.55099999999999,24.068899999999999,-20.623999999999999,-68.070800000000006,-139.98099999999999,-46.199800000000003
7317.0,323.57400000000001,211.14400000000001,89.528899999999993,61.750799999999998,-67.473500000000001,-149.65299999999999,-40.473999999999997
7318.0,322.505,125.169,18.3795,8.7322799999999994,-66.445700000000002,-157.61099999999999,-35.185200000000002
7319.0,321.19799999999998,185.45699999999999,94.128100000000003,104.514,-65.038700000000006,-163.53899999999999,-30.2362
7320.0,319.11900000000003,102.71599999999999,26.894300000000001,58.637900000000002,-63.270099999999999,-166.821,-25.757999999999999
7321.0,317.255,153.12899999999999,93.070599999999999,146.07900000000001,-61.3262,-167.95699999999999,-22.4057
7322.0,315.26999999999998,59.8874,17.465800000000002,90.044200000000004,-59.538699999999999,-166.934,-19.765499999999999
7323.0,312.327,111.70999999999999,88.813999999999993,177.49100000000001,-57.727800000000002,-163.46600000000001,-18.530899999999999
7324.0,309.11099999999999,22.4892,18.363600000000002,121.506,-57.388599999999997,-157.32900000000001,-19.8523
7325.0,305.70800000000003,67.967200000000005,78.6708,198.876,-58.308399999999999,-148.023,-23.630500000000001
7326.0,304.68900000000002,-39.259300000000003,-20.188199999999998,120.63500000000001,-59.840499999999999,-138.45599999999999,-23.821300000000001
7327.0,300.92599999999999,21.322700000000001,50.832599999999999,202.69999999999999,-62.677999999999997,-128.22800000000001,-18.501899999999999
7328.0,296.36200000000002,-45.059699999999999,-2.4921000000000002,159.34200000000001,-60.478900000000003,-116.869,-18.177600000000002
7329.0,295.94999999999999,21.178699999999999,71.662499999999994,250.10900000000001,-55.780099999999997,-106.646,-15.6166
7330.0,291.64400000000001,-47.592799999999997,12.383900000000001,199.14400000000001,-51.919499999999999,-94.736999999999995,-11.048
7331.0,270.06099999999998,171.58799999999999,-9.2743500000000001,-42.146599999999999,-24.502400000000002,48.685299999999998,-89.969999999999999
7332.0,273.39400000000001,244.304,58.637900000000002,15.229100000000001,-30.126300000000001,37.618299999999998,-88.242500000000007
7333.0,276.64100000000002,185.59800000000001,-3.7655500000000002,-56.4499,-35.304400000000001,25.321200000000001,-86.133300000000006
7334.0,279.73700000000002,254.85599999999999,63.300800000000002,2.7891900000000001,-40.125799999999998,12.0054,-83.753600000000006
7335.0,282.71899999999999,194.161,1.9024700000000001,-64.801299999999998,-44.544699999999999,-2.1339899999999998,-81.089600000000004
7336.0,285.58199999999999,261.15199999999999,69.741200000000006,-1.35029,-48.589100000000002,-16.8535,-78.150800000000004
7337.0,288.322,195.81399999999999,6.7929199999999996,-66.755700000000004,-52.218800000000002,-31.925999999999998,-74.9465
7338.0,290.89600000000002,256.09399999999999,71.017600000000002,-2.9481199999999999,-55.436199999999999,-47.105400000000003,-71.486800000000002
7339.0,293.24200000000002,188.767,9.1800800000000002,-63.099499999999999,-58.204599999999999,-62.150100000000002,-67.782700000000006
7340.0,295.28800000000001,240.702,68.129199999999997,-0.31898700000000002,-60.517400000000002,-76.815200000000004,-63.843000000000004
7341.0,296.92700000000002,170.011,5.9293399999999998,-56.520600000000002,-62.338900000000002,-90.831500000000005,-59.683999999999997
7342.0,298.10500000000002,222.48400000000001,68.250299999999996,13.962199999999999,-63.668100000000003,-103.952,-55.3155
7343.0,298.65600000000001,154.21899999999999,11.051,-32.899700000000003,-64.454400000000007,-115.892,-50.723700000000001
7344.0,298.72300000000001,197.226,66.164699999999996,34.413899999999998,-64.707599999999999,-126.434,-46.0839
7345.0,298.42099999999999,129.238,11.212300000000001,-6.4991199999999996,-64.516499999999994,-135.50999999999999,-41.410899999999998
7346.0,297.37599999999998,177.21799999999999,72.756699999999995,71.022900000000007,-63.7776,-142.73500000000001,-36.575400000000002
7347.0,295.97199999999998,98.595699999999994,8.0334800000000008,23.582699999999999,-62.533200000000001,-148.078,-31.897099999999998
7348.0,294.53300000000002,140.614,64.511899999999997,98.216499999999996,-60.989400000000003,-151.595,-27.5991
7349.0,292.73899999999998,68.9465,7.6121299999999996,60.375100000000003,-59.1464,-152.982,-23.673100000000002
7350.0,290.14999999999998,119.075,72.446899999999999,144.46000000000001,-57.135800000000003,-151.81299999999999,-20.411999999999999
7351.0,286.899,43.5839,11.2173,101.85899999999999,-55.112699999999997,-148.172,-18.293500000000002
7352.0,283.20800000000003,87.370099999999994,70.168999999999997,175.928,-53.544499999999999,-142.70400000000001,-16.836300000000001
7353.0,279.51400000000001,11.6684,10.248200000000001,127.849,-52.276000000000003,-135.881,-17.063800000000001
7354.0,277.83600000000001,53.4739,64.506,196.161,-51.864800000000002,-128.22999999999999,-17.195499999999999
7355.0,274.84899999999999,-21.3705,1.1457299999999999,144.38999999999999,-51.463900000000002,-119.327,-14.4725
7356.0,270.69499999999999,33.426299999999998,65.931399999999996,220.79499999999999,-48.3643,-109.018,-13.2927
7357.0,268.22000000000003,-39.689500000000002,-2.5760000000000001,166.97999999999999,-45.404800000000002,-98.131200000000007,-12.230499999999999
7358.0,265.07100000000003,15.251300000000001,56.281599999999997,237.77500000000001,-43.287799999999997,-86.021299999999997,-11.139900000000001
7359.0,243.36600000000001,226.80500000000001,56.230200000000004,37.678100000000001,-24.500699999999998,43.225000000000001,-80.034199999999998
7360.0,246.69900000000001,177.583,2.3548200000000001,-25.585699999999999,-29.6433,33.380699999999997,-78.527799999999999
7361.0,249.90700000000001,236.648,57.857700000000001,21.660699999999999,-34.368200000000002,22.399100000000001,-76.718000000000004
7362.0,253.0,184.941,3.91852,-39.242800000000003,-38.755699999999997,10.480399999999999,-74.672899999999998
7363.0,255.98099999999999,239.233,57.341700000000003,8.6835400000000007,-42.7791,-2.2011699999999998,-72.385300000000001
7364.0,258.89100000000002,183.488,2.09565,-50.433599999999998,-46.458399999999997,-15.422800000000001,-69.868200000000002
7365.0,261.70499999999998,235.75200000000001,56.242699999999999,1.58525,-49.763300000000001,-28.9801,-67.128200000000007
7366.0,264.39999999999998,180.017,3.79271,-51.173200000000001,-52.682000000000002,-42.644500000000001,-64.194199999999995
7367.0,266.91899999999998,227.64500000000001,56.117899999999999,2.7056399999999998,-55.189399999999999,-56.201000000000001,-61.090899999999998
7368.0,269.18599999999998,173.583,8.1588499999999993,-41.817700000000002,-57.275399999999998,-69.407799999999995,-57.841799999999999
7369.0,271.13099999999997,218.148,60.202300000000001,15.508599999999999,-58.9251,-82.043899999999994,-54.462299999999999
7370.0,272.65899999999999,157.87100000000001,8.7178199999999997,-28.888200000000001,-60.128500000000003,-93.867000000000004,-50.9694
7371.0,273.75299999999999,194.86799999999999,55.703000000000003,26.888500000000001,-60.894500000000001,-104.672,-47.402000000000001
7372.0,274.28899999999999,138.934,10.7859,-7.5195999999999996,-61.225099999999998,-114.255,-43.677999999999997
7373.0,274.17500000000001,172.125,55.776899999999998,49.549100000000003,-61.060600000000001,-122.38200000000001,-39.810400000000001
7374.0,273.68799999999999,108.35899999999999,4.4527200000000002,11.661300000000001,-60.505899999999997,-129.02799999999999,-35.951999999999998
7375.0,272.69799999999998,149.38,58.3842,80.416899999999998,-59.553899999999999,-134.03,-31.992999999999999
7376.0,271.14299999999997,90.424700000000001,12.4209,50.506300000000003,-58.123399999999997,-137.19999999999999,-27.975000000000001
7377.0,269.18700000000001,123.964,59.061100000000003,113.946,-56.312399999999997,-138.488,-24.145099999999999
7378.0,266.88900000000001,56.258899999999997,4.5989899999999997,76.348500000000001,-54.231699999999996,-137.84,-20.792100000000001
7379.0,264.25200000000001,92.0488,53.799799999999998,141.899,-52.099699999999999,-135.21799999999999,-18.0672
7380.0,260.89400000000001,29.775300000000001,4.24397,108.018,-49.985900000000001,-130.41200000000001,-16.083100000000002
7381.0,257.18700000000001,67.309700000000007,53.2622,171.517,-47.953000000000003,-123.95699999999999,-14.4931
7382.0,253.28899999999999,9.5387500000000003,6.4657299999999998,136.94900000000001,-45.875500000000002,-116.467,-13.0848
7383.0,250.03299999999999,52.484699999999997,58.346200000000003,200.852,-43.731200000000001,-108.236,-12.3367
7384.0,247.56100000000001,-9.9243000000000006,3.3605100000000001,157.77799999999999,-41.898099999999999,-99.253799999999998,-11.452199999999999
7385.0,245.226,37.295400000000001,58.474499999999999,222.63499999999999,-40.082999999999998,-89.600399999999993,-10.913600000000001
7386.0,243.702,-22.5364,6.0084400000000002,179.149,-38.685099999999998,-79.214200000000005,-10.6751
7387.0,219.345,154.416,-6.2379800000000003,-13.5023,-24.698499999999999,38.833599999999997,-70.068100000000001
7388.0,222.63300000000001,208.12100000000001,42.9373,27.3598,-29.402000000000001,30.065300000000001,-68.699299999999994
7389.0,225.79300000000001,166.27099999999999,-2.4807199999999998,-25.341000000000001,-33.693399999999997,20.212800000000001,-67.065799999999996
7390.0,228.82499999999999,216.809,45.704599999999999,16.759899999999998,-37.656599999999997,9.5042200000000001,-65.2393
7391.0,231.761,173.715,1.47096,-32.213500000000003,-41.282800000000002,-1.90846,-63.205800000000004
7392.0,234.63300000000001,222.24100000000001,50.080500000000001,13.1243,-44.587499999999999,-13.8187,-60.959699999999998
7393.0,237.44200000000001,175.279,4.4371299999999998,-34.220300000000002,-47.543799999999997,-26.047699999999999,-58.527799999999999
7394.0,240.16800000000001,218.05199999999999,49.783099999999997,11.061400000000001,-50.135899999999999,-38.395000000000003,-55.941200000000002
7395.0,242.75899999999999,169.697,5.2874100000000004,-31.831900000000001,-52.338000000000001,-50.655700000000003,-53.244799999999998
7396.0,245.161,204.995,45.739800000000002,11.870900000000001,-54.142200000000003,-62.6188,-50.476199999999999
7397.0,247.286,153.87299999999999,1.0496799999999999,-27.9391,-55.539000000000001,-74.0608,-47.665799999999997
7398.0,249.059,189.49600000000001,44.313699999999997,21.766999999999999,-56.5336,-84.767899999999997,-44.818100000000001
7399.0,250.36099999999999,140.42699999999999,4.0092600000000003,-10.603999999999999,-57.115200000000002,-94.530000000000001,-41.9116
7400.0,251.16399999999999,167.52099999999999,40.856200000000001,35.527999999999999,-57.292299999999997,-103.167,-38.981099999999998
7401.0,251.483,118.276,2.2311999999999999,7.4554499999999999,-57.119399999999999,-110.56999999999999,-36.015099999999997
7402.0,251.16800000000001,150.167,45.3795,62.345399999999998,-56.539200000000001,-116.56100000000001,-32.890000000000001
7403.0,250.34,91.805499999999995,-1.3146800000000001,28.423999999999999,-55.564100000000003,-121.075,-29.689499999999999
7404.0,249.136,117.791,36.681600000000003,80.102900000000005,-54.275399999999998,-124.08,-26.4678
7405.0,247.49100000000001,66.091999999999999,-2.88306,54.9499,-52.639000000000003,-125.437,-23.2577
7406.0,245.43000000000001,100.374,43.455300000000001,116.21299999999999,-50.6843,-125.057,-20.1614
7407.0,242.846,46.930799999999998,1.81497,89.456100000000006,-48.458300000000001,-122.82899999999999,-17.3795
7408.0,240.041,76.602999999999994,43.014800000000001,144.733,-46.174300000000002,-118.992,-15.1403
7409.0,237.03299999999999,22.490400000000001,-0.020445499999999998,114.745,-43.985399999999998,-113.643,-13.441700000000001
7410.0,233.87100000000001,51.285699999999999,38.6008,165.386,-41.847999999999999,-107.032,-12.2057
7411.0,231.17699999999999,-3.8843700000000001,-7.4997299999999996,130.05799999999999,-39.934199999999997,-99.720799999999997,-11.374000000000001
7412.0,229.01599999999999,32.234900000000003,37.201000000000001,184.685,-38.268300000000004,-91.645499999999998,-10.7943
7413.0,226.81200000000001,-23.637,-11.258100000000001,145.459,-36.778100000000002,-82.485699999999994,-10.333299999999999
7414.0,224.58199999999999,13.040100000000001,31.789899999999999,196.554,-35.542700000000004,-72.481499999999997,-9.9802
7415.0,197.99700000000001,198.11600000000001,47.287199999999999,48.377200000000002,-24.906500000000001,35.326599999999999,-60.5854
7416.0,201.24100000000001,159.874,4.5525700000000002,-1.7546299999999999,-29.1995,27.451799999999999,-59.259799999999998
7417.0,204.357,206.48400000000001,47.534599999999998,34.816200000000002,-33.092399999999998,18.589099999999998,-57.710999999999999
7418.0,207.31999999999999,166.232,4.7730800000000002,-13.2514,-36.6509,8.9231700000000007,-56.002099999999999
7419.0,210.18899999999999,208.441,45.561,23.460999999999999,-39.882599999999996,-1.39211,-54.110999999999997
7420.0,213.00800000000001,165.137,1.93485,-22.895099999999999,-42.809800000000003,-12.177099999999999,-52.044199999999996
7421.0,215.78800000000001,205.88800000000001,43.4542,17.331900000000001,-45.4099,-23.2714,-49.810099999999998
7422.0,218.50700000000001,162.88,2.3456899999999998,-23.578700000000001,-47.664999999999999,-34.491700000000002,-47.453400000000002
7423.0,221.13399999999999,199.50399999999999,42.021099999999997,17.813300000000002,-49.549900000000001,-45.657299999999999,-45.025100000000002
7424.0,223.60300000000001,158.22800000000001,4.9664900000000003,-16.014900000000001,-51.052999999999997,-56.558700000000002,-42.573799999999999
7425.0,225.84700000000001,191.94300000000001,44.061700000000002,27.756699999999999,-52.163800000000002,-66.994799999999998,-40.137
7426.0,227.77099999999999,145.30199999999999,3.9230299999999998,-6.3349200000000003,-52.880000000000003,-76.756600000000006,-37.737200000000001
7427.0,229.28999999999999,172.35900000000001,38.537100000000002,35.596200000000003,-53.211599999999997,-85.656800000000004,-35.391300000000001
7428.0,230.30000000000001,129.59700000000001,4.2918799999999999,9.8295999999999992,-53.172800000000002,-93.525999999999996,-33.049599999999998
7429.0,230.68700000000001,153.32300000000001,37.347000000000001,52.405099999999997,-52.740600000000001,-100.20099999999999,-30.660599999999999
7430.0,230.541,103.155,-2.7992499999999998,22.713999999999999,-51.993499999999997,-105.624,-28.259399999999999
7431.0,229.88399999999999,133.48500000000001,38.122199999999999,74.922799999999995,-50.960000000000001,-109.729,-25.791
7432.0,228.72800000000001,87.974900000000005,3.53539,52.329099999999997,-49.605899999999998,-112.435,-23.228000000000002
7433.0,227.22499999999999,111.501,38.196399999999997,99.565700000000007,-47.987900000000003,-113.72799999999999,-20.651
7434.0,225.41999999999999,58.115400000000001,-3.9610599999999998,70.289000000000001,-46.150599999999997,-113.54300000000001,-18.174800000000001
7435.0,223.40100000000001,83.549000000000007,32.622500000000002,119.779,-44.170000000000002,-111.869,-15.9156
7436.0,221.06399999999999,35.385399999999997,-4.7466799999999996,95.098799999999997,-42.061100000000003,-108.642,-13.8985
7437.0,218.47200000000001,63.379399999999997,33.409300000000002,145.203,-39.876100000000001,-104.024,-12.261699999999999
7438.0,216.018,18.1143,-2.26125,120.51300000000001,-37.860199999999999,-98.329999999999998,-11.1069
7439.0,213.67099999999999,49.690199999999997,38.151800000000001,171.03899999999999,-36.065800000000003,-91.605400000000003,-10.319800000000001
7440.0,211.428,-0.014047799999999999,-3.5659200000000002,138.40799999999999,-34.552799999999998,-83.992500000000007,-9.8438199999999991
7441.0,209.446,34.442399999999999,38.300899999999999,188.19300000000001,-33.521500000000003,-75.625399999999999,-9.6300899999999992
7442.0,207.51900000000001,-13.1106,-2.70519,153.96000000000001,-32.791200000000003,-66.552599999999998,-9.4596499999999999
7443.0,179.27500000000001,139.88499999999999,-1.2690600000000001,5.5844399999999998,-24.9313,32.367800000000003,-52.049700000000001
7444.0,182.506,184.00899999999999,38.386800000000001,38.645600000000002,-28.890899999999998,25.307099999999998,-50.711300000000001
7445.0,185.58000000000001,150.56899999999999,1.2544200000000001,-4.1555099999999996,-32.436599999999999,17.2989,-49.171900000000001
7446.0,188.488,191.733,39.732199999999999,29.7118,-35.637799999999999,8.5395299999999992,-47.507599999999996
7447.0,191.28800000000001,157.59899999999999,3.9052600000000002,-9.5791299999999993,-38.512099999999997,-0.82954499999999998,-45.693100000000001
7448.0,194.03999999999999,196.845,42.449800000000003,26.73,-41.089599999999997,-10.642099999999999,-43.722000000000001
7449.0,196.773,159.41,5.3018200000000002,-11.345599999999999,-43.354500000000002,-20.760899999999999,-41.615200000000002
7450.0,199.48500000000001,193.78100000000001,40.972499999999997,24.763999999999999,-45.294899999999998,-31.026399999999999,-39.419199999999996
7451.0,202.149,155.47399999999999,5.0054100000000004,-9.3749500000000001,-46.884500000000003,-41.267400000000002,-37.189100000000003
7452.0,204.72,183.27799999999999,36.197800000000001,25.019100000000002,-48.110900000000001,-51.292400000000001,-34.983400000000003
7453.0,207.114,142.90100000000001,0.232126,-6.40517,-48.954900000000002,-60.898099999999999,-32.839599999999997
7454.0,209.22,171.00200000000001,33.733400000000003,32.890099999999997,-49.406399999999998,-69.879499999999993,-30.774699999999999
7455.0,210.89099999999999,132.393,1.4632799999999999,7.5484499999999999,-49.446800000000003,-78.045699999999997,-28.7743
7456.0,211.999,152.86600000000001,29.185600000000001,43.195999999999998,-49.0852,-85.233699999999999,-26.837599999999998
7457.0,212.52699999999999,113.93000000000001,-1.61788,21.1692,-48.394399999999997,-91.346299999999999,-24.977
7458.0,212.40000000000001,138.74600000000001,32.095399999999998,64.360500000000002,-47.380800000000001,-96.268900000000002,-23.1052
7459.0,211.66499999999999,91.425600000000003,-5.7159199999999997,36.6614,-46.082000000000001,-99.950100000000006,-21.178100000000001
7460.0,210.51499999999999,110.22199999999999,23.093299999999999,76.146100000000004,-44.604999999999997,-102.39700000000001,-19.2257
7461.0,209.04400000000001,68.521900000000002,-8.2821999999999996,55.875,-42.963000000000001,-103.56999999999999,-17.264700000000001
7462.0,207.35400000000001,94.520700000000005,28.160399999999999,103.72799999999999,-41.181399999999996,-103.447,-15.328200000000001
7463.0,205.48599999999999,51.381300000000003,-4.5818399999999997,82.4696,-39.283900000000003,-101.996,-13.507199999999999
7464.0,203.52799999999999,73.297700000000006,27.521599999999999,125.767,-37.362499999999997,-99.258899999999997,-11.951700000000001
7465.0,201.56100000000001,28.8796,-7.0787300000000002,101.89,-35.526800000000001,-95.300799999999995,-10.719900000000001
7466.0,199.506,50.0458,23.296399999999998,142.28200000000001,-33.783799999999999,-90.1858,-9.7971900000000005
7467.0,197.50999999999999,4.1892699999999996,-13.979100000000001,114.11499999999999,-32.276400000000002,-84.101500000000001,-9.2147000000000006
7468.0,195.59700000000001,31.785699999999999,21.499400000000001,157.75,-31.049700000000001,-77.159800000000004,-8.8812899999999999
7469.0,193.483,-14.124599999999999,-17.351400000000002,125.955,-29.8992,-69.392700000000005,-8.62805
7470.0,191.386,14.6655,17.532299999999999,166.90000000000001,-28.9404,-60.9861,-8.3859499999999993
7471.0,162.91900000000001,175.75800000000001,44.0565,54.734699999999997,-24.7422,29.783799999999999,-44.690800000000003
7472.0,166.16800000000001,145.53299999999999,9.3985900000000004,14.0967,-28.419,23.417000000000002,-43.316299999999998
7473.0,169.249,183.44300000000001,43.567100000000003,43.200600000000001,-31.6737,16.1678,-41.772399999999998
7474.0,172.126,151.523,8.8252299999999995,4.3977399999999998,-34.565100000000001,8.1971100000000003,-40.114400000000003
7475.0,174.87700000000001,185.25299999999999,40.651899999999998,33.233600000000003,-37.124099999999999,-0.35238199999999997,-38.3399
7476.0,177.57900000000001,150.95500000000001,5.3581300000000001,-3.9027599999999998,-39.392499999999998,-9.3367199999999997,-36.445399999999999
7477.0,180.27799999999999,183.65299999999999,37.9636,28.0669,-41.368000000000002,-18.631,-34.446399999999997
7478.0,182.99100000000001,149.65199999999999,4.7942999999999998,-4.4810299999999996,-43.043199999999999,-28.0901,-32.387900000000002
7479.0,185.71700000000001,178.68100000000001,35.579700000000003,28.2182,-44.399000000000001,-37.558599999999998,-30.3279
7480.0,188.416,146.405,5.9608699999999999,1.8058799999999999,-45.412599999999998,-46.844700000000003,-28.314399999999999
7481.0,191.00899999999999,172.84899999999999,35.9208,36.214700000000001,-46.047899999999998,-55.754899999999999,-26.3842
7482.0,193.351,136.19200000000001,3.6038100000000002,9.5015699999999992,-46.264600000000002,-64.087400000000002,-24.557099999999998
7483.0,195.262,157.19800000000001,29.795300000000001,42.326799999999999,-46.046199999999999,-71.664000000000001,-22.857299999999999
7484.0,196.577,124.206,2.8498399999999999,22.872299999999999,-45.402799999999999,-78.319400000000002,-21.275300000000001
7485.0,197.08799999999999,142.202,27.7636,55.966900000000003,-44.323900000000002,-83.902600000000007,-19.7212
7486.0,196.83699999999999,101.988,-4.6319999999999997,32.333100000000002,-42.944499999999998,-88.366399999999999,-18.197600000000001
7487.0,195.99000000000001,125.468,27.48,73.657200000000003,-41.393300000000004,-91.693399999999997,-16.728999999999999
7488.0,194.637,89.298900000000003,0.53382799999999997,56.293900000000001,-39.689,-93.849599999999995,-15.2281
7489.0,192.994,106.233,27.103100000000001,92.807500000000005,-37.9086,-94.857699999999994,-13.6898
7490.0,191.25399999999999,62.741399999999999,-6.5524500000000003,69.335099999999997,-36.103900000000003,-94.726299999999995,-12.2006
7491.0,189.49600000000001,80.931700000000006,21.4772,107.616,-34.3108,-93.4375,-10.832000000000001
7492.0,187.755,41.822099999999999,-7.9992700000000001,88.284899999999993,-32.537300000000002,-90.998500000000007,-9.6250300000000006
7493.0,185.971,62.439300000000003,21.8857,127.89100000000001,-30.814,-87.424899999999994,-8.6542499999999993
7494.0,184.26900000000001,25.485600000000002,-6.2869299999999999,108.85299999999999,-29.238299999999999,-82.846299999999999,-7.9847599999999996
7495.0,182.43899999999999,49.575299999999999,25.974599999999999,149.40100000000001,-27.835799999999999,-77.266000000000005,-7.5568400000000002
7496.0,180.61099999999999,8.7911599999999996,-7.2177699999999998,123.614,-26.653400000000001,-70.825599999999994,-7.34185
7497.0,178.846,35.921199999999999,26.328199999999999,163.667,-25.871300000000002,-63.717799999999997,-7.3433200000000003
7498.0,176.96100000000001,-2.0388500000000001,-6.1423399999999999,136.73400000000001,-25.216200000000001,-55.972700000000003,-7.4085900000000002
7499.0,148.51599999999999,127.20699999999999,4.6643800000000004,17.720300000000002,-24.325199999999999,27.372299999999999,-38.500399999999999
7500.0,151.88499999999999,164.23400000000001,37.2699,44.855600000000003,-27.799800000000001,21.6661,-37.094499999999996
7501.0,154.96100000000001,137.07599999999999,6.3887700000000001,9.4047900000000002,-30.8017,15.0893,-35.540399999999998
7502.0,157.863,171.40600000000001,37.764499999999998,37.1721,-33.445399999999999,7.8148900000000001,-33.8733
7503.0,160.56299999999999,143.85599999999999,8.1706500000000002,5.0001699999999998,-35.737299999999998,-0.015095900000000001,-32.136400000000002
7504.0,163.221,176.16300000000001,39.260599999999997,34.565300000000001,-37.747900000000001,-8.2821800000000003,-30.294499999999999
7505.0,165.86699999999999,145.53,8.2818000000000005,3.1802800000000002,-39.485700000000001,-16.858799999999999,-28.3949
7506.0,168.58699999999999,173.643,36.8795,32.549100000000003,-40.960299999999997,-25.634,-26.467099999999999
7507.0,171.38999999999999,142.489,7.0251799999999998,4.6748399999999997,-42.156999999999996,-34.4377,-24.568899999999999
7508.0,174.28399999999999,164.98599999999999,31.540900000000001,32.3949,-43.039700000000003,-43.101500000000001,-22.731300000000001
7509.0,177.161,132.685,1.8924099999999999,7.1427800000000001,-43.540799999999997,-51.417299999999997,-20.974900000000002
7510.0,179.83099999999999,155.82499999999999,28.292400000000001,39.046199999999999,-43.581800000000001,-59.198399999999999,-19.312799999999999
7511.0,182.01499999999999,125.313,1.70977,18.898,-43.084899999999998,-66.249899999999997,-17.744599999999998
7512.0,183.43100000000001,141.679,22.892700000000001,47.249499999999998,-42.052399999999999,-72.423699999999997,-16.2898
7513.0,184.03999999999999,110.744,-2.16398,29.905899999999999,-40.656399999999998,-77.620500000000007,-15.068
7514.0,183.761,130.917,24.93,65.042100000000005,-38.957900000000002,-81.723200000000006,-13.9999
7515.0,182.601,91.813100000000006,-6.2849700000000004,42.131100000000004,-37.033499999999997,-84.683300000000003,-12.8706
7516.0,180.92099999999999,105.625,16.206700000000001,73.245599999999996,-35.0839,-86.564800000000005,-11.7006
7517.0,179.005,71.296000000000006,-8.9860199999999999,56.9621,-33.162300000000002,-87.391999999999996,-10.515000000000001
7518.0,177.042,91.194699999999997,20.2699,95.391800000000003,-31.283000000000001,-87.182900000000004,-9.3036999999999992
7519.0,175.21199999999999,55.697200000000002,-5.9114000000000004,78.526700000000005,-29.458100000000002,-85.970399999999998,-8.16357
7520.0,173.50800000000001,71.952200000000005,19.5059,113.152,-27.736799999999999,-83.730099999999993,-7.2131999999999996
7521.0,171.976,35.138599999999997,-8.5516500000000004,94.0321,-26.112100000000002,-80.525999999999996,-6.4988400000000004
7522.0,170.38399999999999,50.9925,15.656000000000001,126.587,-24.6601,-76.297399999999996,-6.0022900000000003
7523.0,168.911,12.723699999999999,-14.894500000000001,103.753,-23.277200000000001,-71.275199999999998,-5.8302199999999997
7524.0,167.011,34.569499999999998,14.053599999999999,139.20400000000001,-22.313400000000001,-65.282799999999995,-5.7005100000000004
7525.0,165.34899999999999,-4.8687899999999997,-17.913599999999999,112.79600000000001,-21.300899999999999,-58.651699999999998,-6.0237800000000004
7526.0,164.12700000000001,17.256699999999999,10.2461,145.542,-20.449000000000002,-52.197499999999998,-5.8815400000000002
7527.0,135.77000000000001,157.12799999999999,43.349400000000003,57.834099999999999,-23.7883,25.081800000000001,-33.372599999999998
7528.0,139.251,131.953,13.809799999999999,23.239799999999999,-27.049900000000001,19.971800000000002,-31.970800000000001
7529.0,142.37799999999999,164.29499999999999,42.462000000000003,47.714100000000002,-29.8642,13.999499999999999,-30.4251
7530.0,145.315,137.785,12.9216,14.914400000000001,-32.286499999999997,7.3569399999999998,-28.7563
7531.0,147.97499999999999,165.93600000000001,38.959800000000001,38.678199999999997,-34.361699999999999,0.15961900000000001,-27.052299999999999
7532.0,150.58099999999999,137.471,9.1503399999999999,7.5998900000000003,-36.1569,-7.4799699999999998,-25.281199999999998
7533.0,153.167,164.761,35.956800000000001,34.191000000000003,-37.7196,-15.4398,-23.4924
7534.0,155.87700000000001,136.33099999999999,7.7971700000000004,6.9166499999999997,-39.060699999999997,-23.614000000000001,-21.6981
7535.0,158.77199999999999,160.34800000000001,32.762900000000002,33.922600000000003,-40.1843,-31.8338,-19.940000000000001
7536.0,161.89500000000001,133.81999999999999,7.6539999999999999,12.0342,-41.012999999999998,-39.934399999999997,-18.212
7537.0,165.12299999999999,156.00399999999999,31.587599999999998,40.337499999999999,-41.435299999999998,-47.712400000000002,-16.514900000000001
7538.0,168.17400000000001,126.602,4.2656299999999998,18.438300000000002,-41.283700000000003,-54.997700000000002,-14.854200000000001
7539.0,170.69800000000001,144.94999999999999,25.292300000000001,45.792900000000003,-40.526200000000003,-61.622199999999999,-13.3355
7540.0,172.422,119.196,3.0933099999999998,30.583200000000001,-39.186500000000002,-67.430300000000003,-12.087999999999999
7541.0,172.98500000000001,134.23400000000001,22.913399999999999,57.650799999999997,-37.282899999999998,-72.246099999999998,-11.0024
7542.0,172.42500000000001,100.364,-4.7070699999999999,37.423299999999998,-35.1252,-76.014300000000006,-10.1066
7543.0,171.09999999999999,119.502,21.862400000000001,71.519999999999996,-33.005899999999997,-78.711100000000002,-9.4878300000000007
7544.0,169.06899999999999,89.144800000000004,-0.171934,57.084000000000003,-30.882200000000001,-80.305400000000006,-8.8403500000000008
7545.0,166.74000000000001,101.92,21.479700000000001,86.585300000000004,-28.826799999999999,-80.927199999999999,-7.9461399999999998
7546.0,164.47300000000001,65.218999999999994,-6.1349299999999998,67.144599999999997,-26.899000000000001,-80.628399999999999,-6.9649900000000002
7547.0,162.536,78.989400000000003,16.598800000000001,98.328000000000003,-25.072700000000001,-79.480999999999995,-5.9774500000000002
7548.0,160.80199999999999,46.351500000000001,-7.3012300000000003,82.869100000000003,-23.357600000000001,-77.394800000000004,-5.1366899999999998
7549.0,159.422,62.242600000000003,16.892399999999999,115.40300000000001,-21.705500000000001,-74.493399999999994,-4.5003099999999998
7550.0,157.89400000000001,31.682200000000002,-5.7493499999999997,100.378,-20.2727,-70.603899999999996,-4.1395099999999996
7551.0,156.75899999999999,50.2849,20.187799999999999,133.74600000000001,-18.8597,-66.0124,-4.0838700000000001
7552.0,154.84800000000001,17.455500000000001,-5.8987999999999996,113.259,-18.025099999999998,-60.535899999999998,-4.0084400000000002
7553.0,153.03899999999999,36.302900000000001,19.379799999999999,144.364,-16.544599999999999,-53.9636,-4.8740699999999997
7554.0,152.351,-1.9549099999999999,-14.347300000000001,115.792,-15.484999999999999,-48.156599999999997,-4.3711700000000002
7555.0,124.378,115.056,9.5966100000000001,24.835999999999999,-23.157,22.8764,-29.123200000000001
7556.0,127.928,147.483,37.802999999999997,48.365299999999998,-26.235199999999999,18.298100000000002,-27.769500000000001
7557.0,131.15899999999999,124.167,10.799899999999999,17.513300000000001,-28.886399999999998,12.900700000000001,-26.23
7558.0,134.114,154.13300000000001,37.726999999999997,41.477499999999999,-31.127800000000001,6.8272899999999996,-24.5763
7559.0,136.74700000000001,130.624,12.0572,13.805899999999999,-33.019599999999997,0.20017399999999999,-22.912299999999998
7560.0,139.25700000000001,158.18799999999999,38.262900000000002,38.944600000000001,-34.642200000000003,-6.8765099999999997,-21.2118
7561.0,141.74700000000001,131.511,11.0665,11.6838,-36.072499999999998,-14.280799999999999,-19.526299999999999
7562.0,144.417,155.39500000000001,35.117400000000004,36.724200000000003,-37.346499999999999,-21.908999999999999,-17.852499999999999
7563.0,147.41300000000001,128.62200000000001,8.9991000000000003,12.6982,-38.4617,-29.5839,-16.1876
7564.0,150.83099999999999,148.273,29.440100000000001,36.368000000000002,-39.299900000000001,-37.154600000000002,-14.4831
7565.0,154.49299999999999,122.057,3.9386299999999999,15.207700000000001,-39.640099999999997,-44.430599999999998,-12.7021
7566.0,157.99100000000001,143.523,26.143599999999999,42.798200000000001,-39.265799999999999,-51.253300000000003,-10.8714
7567.0,160.78399999999999,119.489,3.3475799999999998,26.135400000000001,-38.014499999999998,-57.469299999999997,-9.0647599999999997
7568.0,162.44399999999999,134.316,20.710699999999999,50.099299999999999,-36.046500000000002,-62.957000000000001,-7.4884399999999998
7569.0,163.136,108.851,-0.67017000000000004,35.811599999999999,-33.899500000000003,-67.583500000000001,-6.6574499999999999
7570.0,162.76300000000001,126.40600000000001,22.4131,65.989999999999995,-31.6203,-71.1387,-6.5412100000000004
7571.0,161.08600000000001,91.667100000000005,-5.2100099999999996,44.9953,-29.185300000000002,-73.542000000000002,-6.48367
7572.0,158.631,101.795,13.166600000000001,69.945599999999999,-26.9251,-74.883600000000001,-6.3163200000000002
7573.0,155.87899999999999,71.604200000000006,-8.2590699999999995,55.32,-24.8751,-75.261799999999994,-5.9449199999999998
7574.0,153.22200000000001,87.404700000000005,16.484000000000002,87.206400000000002,-22.951899999999998,-74.831699999999998,-5.2110200000000004
7575.0,151.066,56.858899999999998,-5.3005199999999997,73.002799999999993,-21.153199999999998,-73.700299999999999,-4.3013399999999997
7576.0,149.37700000000001,69.999300000000005,16.236499999999999,102.294,-19.441700000000001,-71.816599999999994,-3.50786
7577.0,148.06,38.511800000000001,-7.28592,86.491600000000005,-17.820799999999998,-69.153899999999993,-2.9043700000000001
7578.0,146.803,51.629899999999999,13.3202,114.309,-16.338000000000001,-65.656700000000001,-2.6140099999999999
7579.0,145.66900000000001,18.559899999999999,-12.736499999999999,95.084400000000002,-14.9885,-61.360999999999997,-2.5628799999999998
7580.0,144.09,36.953600000000002,12.138999999999999,125.39700000000001,-13.9648,-56.337899999999998,-2.7193999999999998
7581.0,142.71100000000001,3.5956800000000002,-16.0992,102.795,-13.027699999999999,-50.456499999999998,-3.5394199999999998
7582.0,141.87899999999999,22.7515,7.0171900000000003,131.005,-12.3788,-44.573700000000002,-3.6444299999999998
7583.0,114.108,141.10599999999999,43.551900000000003,59.126600000000003,-22.521599999999999,20.7285,-25.625499999999999
7584.0,117.718,119.172,17.529900000000001,28.811699999999998,-25.390999999999998,16.636299999999999,-24.367599999999999
7585.0,121.062,147.85599999999999,42.552799999999998,50.250399999999999,-27.9085,11.775,-22.846599999999999
7586.0,124.032,124.80500000000001,16.4863,21.4635,-29.9833,6.2335399999999996,-21.2273
7587.0,126.608,149.18600000000001,38.733800000000002,41.904899999999998,-31.7164,0.12392400000000001,-19.598400000000002
7588.0,128.995,124.33199999999999,12.5785,14.873100000000001,-33.200899999999997,-6.4420500000000001,-17.988099999999999
7589.0,131.34999999999999,147.81399999999999,35.598799999999997,37.974200000000003,-34.543399999999998,-13.342499999999999,-16.4101
7590.0,133.953,122.66800000000001,10.608000000000001,14.051,-35.804600000000001,-20.444700000000001,-14.8317
7591.0,137.072,143.56,31.8672,37.412300000000002,-36.960799999999999,-27.5855,-13.1754
7592.0,140.827,121.339,9.7291699999999999,18.433399999999999,-37.821100000000001,-34.616500000000002,-11.327999999999999
7593.0,145.042,142.23599999999999,30.1099,43.0197,-38.035800000000002,-41.425800000000002,-9.2580799999999996
7594.0,148.97300000000001,119.575,6.7234499999999997,24.7148,-37.189,-47.845399999999998,-7.0166000000000004
7595.0,151.946,138.30799999999999,25.512499999999999,49.536900000000003,-35.452300000000001,-53.712000000000003,-4.8969300000000002
7596.0,153.84700000000001,118.83499999999999,7.44292,38.291400000000003,-33.1389,-58.925400000000003,-3.3645800000000001
7597.0,154.31700000000001,131.94,24.1844,61.476599999999998,-30.328600000000002,-63.386299999999999,-2.40184
7598.0,153.649,100.57299999999999,-1.3957900000000001,42.0593,-27.669699999999999,-66.936999999999998,-2.2056900000000002
7599.0,152.196,116.18899999999999,20.922499999999999,70.893699999999995,-25.459299999999999,-69.229900000000001,-3.07463
7600.0,149.53,88.541399999999996,1.0218799999999999,57.031700000000001,-23.263100000000001,-70.216399999999993,-4.0705200000000001
7601.0,146.13399999999999,97.754300000000001,19.0457,80.707800000000006,-21.2212,-70.246600000000001,-4.3358299999999996
7602.0,143.06999999999999,65.072299999999998,-4.69876,63.062399999999997,-19.4754,-69.645300000000006,-3.9935299999999998
7603.0,140.66200000000001,76.087999999999994,14.937799999999999,89.331999999999994,-17.813099999999999,-68.501000000000005,-3.2750699999999999
7604.0,138.98400000000001,47.595500000000001,-5.4102199999999998,76.077399999999997,-16.164200000000001,-66.793499999999995,-2.4469799999999999
7605.0,137.75200000000001,61.149500000000003,15.7995,104.41800000000001,-14.5457,-64.3947,-1.8205100000000001
7606.0,136.74799999999999,34.100499999999997,-4.0682600000000004,91.419600000000003,-13.0273,-61.248199999999997,-1.49898
7607.0,135.637,50.830199999999998,19.379300000000001,121.087,-11.679500000000001,-57.292299999999997,-1.45044
7608.0,134.49299999999999,20.7821,-4.6065399999999999,102.652,-10.5191,-52.667099999999998,-1.7482500000000001
7609.0,133.36199999999999,39.815100000000001,20.172999999999998,132.01599999999999,-9.7181800000000003,-47.575899999999997,-2.1386699999999998
7610.0,132.148,11.5062,-2.9632900000000002,112.63200000000001,-8.9996600000000004,-42.029299999999999,-2.6752199999999999
7611.0,104.846,104.09399999999999,13.963699999999999,29.616800000000001,-21.8856,18.648800000000001,-22.764800000000001
7612.0,108.41,132.82300000000001,38.822299999999998,50.563400000000001,-24.566600000000001,14.979200000000001,-21.5932
7613.0,111.919,112.43899999999999,14.757099999999999,23.146799999999999,-26.9544,10.6525,-20.1084
7614.0,114.84,138.90000000000001,38.288699999999999,44.187800000000003,-28.872599999999998,5.5961600000000002,-18.5244
7615.0,117.36499999999999,118.43000000000001,15.725199999999999,20.001200000000001,-30.4712,-0.033669900000000003,-16.948799999999999
7616.0,119.55200000000001,141.87799999999999,38.034599999999998,41.589599999999997,-31.831600000000002,-6.1219999999999999,-15.424200000000001
7617.0,121.735,117.91800000000001,13.752800000000001,17.488299999999999,-33.116100000000003,-12.5379,-13.9331
7618.0,124.233,138.33199999999999,34.3598,39.207599999999999,-34.3889,-19.1096,-12.395200000000001
7619.0,127.51900000000001,115.313,11.390499999999999,18.2638,-35.624099999999999,-25.7012,-10.636900000000001
7620.0,131.75700000000001,134.15899999999999,29.372800000000002,39.174900000000001,-36.451700000000002,-32.192399999999999,-8.4756400000000003
7621.0,136.535,114.746,8.1337799999999998,21.779199999999999,-36.4193,-38.560499999999998,-5.9009400000000003
7622.0,141.17599999999999,137.21799999999999,28.2485,46.724200000000003,-35.060200000000002,-44.752299999999998,-3.2783000000000002
7623.0,144.024,119.41800000000001,9.7217199999999995,33.071300000000001,-32.164099999999998,-50.399099999999997,-0.81218599999999996
7624.0,144.97499999999999,132.006,25.0139,53.162799999999997,-28.975999999999999,-55.574100000000001,1.3584499999999999
7625.0,145.66300000000001,110.524,7.1024799999999999,42.331899999999997,-26.797000000000001,-59.874899999999997,2.2177699999999998
7626.0,145.87899999999999,126.78700000000001,27.186699999999998,70.693899999999999,-24.724699999999999,-63.141399999999997,1.4600900000000001
7627.0,144.46700000000001,93.722899999999996,0.25802999999999998,49.782600000000002,-22.0322,-65.459299999999999,0.033719600000000002
7628.0,141.28100000000001,99.504599999999996,13.9861,68.469399999999993,-19.619499999999999,-66.272499999999994,-1.5144500000000001
7629.0,137.46600000000001,71.315100000000001,-5.6471900000000002,54.012,-17.811699999999998,-65.907799999999995,-2.7576800000000001
7630.0,133.81200000000001,82.815299999999993,14.6648,79.318200000000004,-16.2822,-64.969399999999993,-3.0961099999999999
7631.0,131.04300000000001,55.715000000000003,-3.8802400000000001,66.449100000000001,-14.8551,-63.726799999999997,-2.6067
7632.0,129.36600000000001,66.346500000000006,14.678800000000001,91.365899999999996,-13.380000000000001,-62.182499999999997,-1.8467199999999999
7633.0,128.292,39.279299999999999,-5.0005600000000001,78.294899999999998,-11.837999999999999,-60.065899999999999,-1.19143
7634.0,127.458,50.307699999999997,12.9405,102.669,-10.331799999999999,-57.238500000000002,-0.813384
7635.0,126.583,21.686800000000002,-9.24451,86.369900000000001,-8.9756199999999993,-53.660699999999999,-0.77113399999999999
7636.0,125.673,37.172899999999998,12.1675,113.056,-7.8429200000000003,-49.414000000000001,-0.97799400000000003
7637.0,124.623,8.5263000000000009,-11.2311,94.218800000000002,-6.8327600000000004,-44.568100000000001,-1.32542
7638.0,123.602,25.1952,9.9855099999999997,119.261,-5.9678899999999997,-39.368000000000002,-1.8742300000000001
7639.0,96.279399999999995,127.13,44.058700000000002,59.769399999999997,-21.230899999999998,16.543399999999998,-20.4434
7640.0,100.06399999999999,107.73699999999999,20.8521,32.932299999999998,-23.843399999999999,13.3651,-19.374300000000002
7641.0,103.53700000000001,133.45599999999999,42.974899999999998,52.008499999999998,-26.0138,9.5120199999999997,-17.954599999999999
7642.0,106.492,113.11499999999999,19.7499,26.427199999999999,-27.826899999999998,4.9212899999999999,-16.398599999999998
7643.0,108.83799999999999,134.292,38.994199999999999,44.218800000000002,-29.2654,-0.24890499999999999,-14.888299999999999
7644.0,110.84,112.056,15.7919,20.438800000000001,-30.540199999999999,-5.9010999999999996,-13.4392
7645.0,112.77,132.303,35.940399999999997,40.889000000000003,-31.7804,-11.8186,-12.0367
7646.0,115.20999999999999,109.69,13.537699999999999,19.561299999999999,-33.085799999999999,-17.865600000000001,-10.4795
7647.0,118.648,129.035,32.568100000000001,40.350700000000003,-34.363999999999997,-23.8291,-8.4776799999999994
7648.0,123.608,111.995,13.5357,23.758099999999999,-35.161499999999997,-29.868099999999998,-5.8132200000000003
7649.0,129.16,134.745,32.730600000000003,46.073599999999999,-34.593400000000003,-35.813200000000002,-2.6153
7650.0,133.959,118.34699999999999,13.646100000000001,30.950800000000001,-32.590699999999998,-42.064999999999998,0.25677800000000001
7651.0,137.20500000000001,137.47399999999999,31.049499999999998,54.260800000000003,-29.577500000000001,-47.588500000000003,1.9967999999999999
7652.0,137.24799999999999,122.855,17.6874,48.337299999999999,-26.775300000000001,-51.253700000000002,3.1196000000000002
7653.0,137.25399999999999,131.15700000000001,31.784600000000001,67.224500000000006,-24.071000000000002,-56.113399999999999,3.8833700000000002
7654.0,138.23099999999999,99.927899999999994,6.5641499999999997,44.6922,-21.757400000000001,-60.622100000000003,4.1490600000000004
7655.0,136.90299999999999,115.01600000000001,26.173300000000001,71.679599999999994,-19.2636,-62.389600000000002,3.19862
7656.0,134.29400000000001,89.739199999999997,6.7328099999999997,60.118099999999998,-16.452100000000002,-63.011499999999998,0.98240400000000005
7657.0,129.91900000000001,94.730000000000004,19.901199999999999,77.394400000000005,-14.629899999999999,-62.263800000000003,-1.12198
7658.0,125.333,64.255600000000001,-1.75942,59.8748,-13.3826,-60.736699999999999,-2.3360300000000001
7659.0,122.251,72.386300000000006,14.658300000000001,81.025199999999998,-12.339700000000001,-59.348999999999997,-2.2861400000000001
7660.0,120.39100000000001,47.1678,-2.8462900000000002,69.079899999999995,-11.067299999999999,-57.853299999999997,-1.64574
7661.0,119.50700000000001,58.498199999999997,15.6265,93.646000000000001,-9.6422699999999999,-56.036000000000001,-0.93365500000000001
7662.0,118.839,34.749699999999997,-1.43814,82.549599999999998,-8.1984499999999993,-53.529299999999999,-0.53294900000000001
7663.0,118.188,49.121499999999997,19.1737,108.738,-6.8757700000000002,-50.297899999999998,-0.41968800000000001
7664.0,117.407,22.6874,-1.53799,92.977800000000002,-5.7330399999999999,-46.3842,-0.57543900000000003
7665.0,116.59099999999999,39.127899999999997,20.049900000000001,118.85599999999999,-4.8419499999999998,-41.947699999999998,-0.96642700000000004
7666.0,115.83,13.766400000000001,-0.79390099999999997,101.711,-4.1543200000000002,-37.109099999999998,-1.51572
7667.0,88.486500000000007,94.878600000000006,18.488600000000002,34.184199999999997,-20.714500000000001,14.4193,-18.583600000000001
7668.0,92.533100000000005,119.922,39.601700000000001,52.083500000000001,-23.167100000000001,11.8193,-17.593800000000002
7669.0,95.866200000000006,101.953,18.241299999999999,27.9194,-25.152000000000001,8.3679799999999993,-16.239899999999999
7670.0,98.842200000000005,125.621,39.028100000000002,46.503900000000002,-26.826499999999999,4.24315,-14.718500000000001
7671.0,100.95399999999999,107.13800000000001,18.839500000000001,25.040700000000001,-28.130400000000002,-0.506471,-13.2851
7672.0,102.72,127.28100000000001,38.250900000000001,43.991,-29.314900000000002,-5.7324799999999998,-11.9215
7673.0,104.387,104.84699999999999,15.9465,22.0123,-30.4983,-11.129300000000001,-10.5495
7674.0,106.705,123.22799999999999,34.638300000000001,41.646000000000001,-31.8522,-16.607600000000001,-8.9165700000000001
7675.0,110.523,104.024,14.4084,22.654499999999999,-33.062199999999997,-21.9725,-6.5264699999999998
7676.0,116.072,125.345,32.829799999999999,42.6342,-33.826999999999998,-27.448699999999999,-3.2442099999999998
7677.0,123.267,113.761,15.534700000000001,27.646899999999999,-32.608899999999998,-33.656799999999997,0.56879900000000005
7678.0,127.64400000000001,138.28800000000001,36.814599999999999,52.446100000000001,-30.1264,-39.088900000000002,3.2304300000000001
7679.0,128.667,114.92100000000001,17.060300000000002,37.594999999999999,-26.653600000000001,-46.25,2.4433400000000001
7680.0,130.59200000000001,119.82599999999999,27.910900000000002,49.799100000000003,-25.741499999999998,-52.121600000000001,-0.48507299999999998
7681.0,129.74700000000001,99.245500000000007,8.9773300000000003,35.888199999999998,-24.3947,-53.557099999999998,-0.45429000000000003
7682.0,129.18199999999999,114.038,24.036200000000001,60.916800000000002,-20.810400000000001,-55.396900000000002,3.7018800000000001
7683.0,129.928,93.810599999999994,8.3377099999999995,52.069299999999998,-17.434100000000001,-58.872399999999999,5.5179999999999998
7684.0,128.143,100.30800000000001,21.184699999999999,71.517799999999994,-13.522,-60.627899999999997,3.33168
7685.0,123.34699999999999,71.379300000000001,-0.58454600000000001,54.613799999999998,-11.6416,-59.308399999999999,0.83229699999999995
7686.0,117.761,79.504800000000003,15.9672,74.620500000000007,-10.5848,-57.081299999999999,-1.4406099999999999
7687.0,113.965,53.337600000000002,-2.1523300000000001,60.322800000000001,-9.8362099999999995,-55.292000000000002,-1.88785
7688.0,112.017,62.639899999999997,14.5853,81.904499999999999,-8.97987,-53.829500000000003,-1.5123899999999999
7689.0,111.23699999999999,38.320900000000002,-2.9048799999999999,69.947000000000003,-7.7643300000000002,-52.238500000000002,-0.91916600000000004
7690.0,110.76000000000001,48.4298,13.680400000000001,92.073800000000006,-6.4607099999999997,-50.042999999999999,-0.47737499999999999
7691.0,110.27200000000001,22.618099999999998,-6.0931100000000002,77.513300000000001,-5.2246899999999998,-47.130299999999998,-0.345026
7692.0,109.673,36.547499999999999,13.390599999999999,101.676,-4.1840700000000002,-43.546599999999998,-0.44840600000000003
7693.0,109.038,10.6654,-7.5207800000000002,84.895200000000003,-3.3142200000000002,-39.428400000000003,-0.74959699999999996
7694.0,108.43000000000001,25.775400000000001,11.9391,107.92700000000001,-2.62968,-34.903700000000001,-1.2344999999999999
7695.0,81.7363,115.313,44.961599999999997,60.810099999999998,-20.397600000000001,12.4665,-17.135400000000001
7696.0,85.615799999999993,97.462400000000002,23.286899999999999,36.351700000000001,-22.534199999999998,10.247199999999999,-16.207699999999999
7697.0,89.010900000000007,121.08,43.529200000000003,54.011499999999998,-24.3962,7.2658199999999997,-14.921200000000001
7698.0,91.758899999999997,102.568,22.3292,30.784400000000002,-25.867100000000001,3.5365799999999998,-13.459199999999999
7699.0,93.732200000000006,121.08199999999999,39.285600000000002,46.552500000000002,-27.064299999999999,-0.78390099999999996,-12.0755
7700.0,95.064800000000005,100.682,18.560500000000001,25.531099999999999,-28.130500000000001,-5.5779500000000004,-10.798999999999999
7701.0,96.663499999999999,118.33199999999999,36.3855,43.664700000000003,-29.3064,-10.4772,-9.4208400000000001
7702.0,98.655299999999997,98.526399999999995,17.083600000000001,25.065300000000001,-30.606999999999999,-15.2578,-7.6924099999999997
7703.0,103.26900000000001,117.908,34.398200000000003,42.754899999999999,-31.768999999999998,-20.189499999999999,-4.76119
7704.0,109.114,108.706,21.5276,30.148099999999999,-32.2395,-24.9145,-0.942195
7705.0,118.352,132.506,38.048699999999997,48.053100000000001,-30.5168,-32.138500000000001,3.5248499999999998
7706.0,122.151,124.36499999999999,26.959199999999999,40.328800000000001,-28.898099999999999,-36.442,4.7355400000000003
7707.0,119.197,121.121,31.639700000000001,53.662300000000002,-23.019300000000001,-45.042499999999997,1.86971
7708.0,122.51900000000001,42.933199999999999,-39.232300000000002,-19.1905,-22.021100000000001,-51.7971,-0.61537600000000003
7709.0,121.285,53.592300000000002,-25.357700000000001,-9.3629700000000007,-24.967300000000002,-50.293599999999998,-2.9166799999999999
7710.0,120.65000000000001,77.524500000000003,-2.2793800000000002,23.896599999999999,-22.704499999999999,-51.773899999999998,-1.08677
7711.0,122.63,112.203,31.264399999999998,70.2256,-17.349399999999999,-55.283099999999997,4.1148499999999997
7712.0,122.414,92.428299999999993,16.454899999999999,65.449799999999996,-11.270899999999999,-57.955399999999997,5.08291
7713.0,118.069,94.379800000000003,25.308499999999999,77.911600000000007,-9.0373999999999999,-57.062600000000003,2.72322
7714.0,110.764,64.372,3.7690700000000001,59.450899999999997,-7.8096399999999999,-53.809399999999997,-0.43188300000000002
7715.0,106.479,70.072500000000005,17.061399999999999,75.953100000000006,-7.5766200000000001,-51.651200000000003,-1.3603000000000001
7716.0,104.10299999999999,46.460599999999999,0.46496500000000002,63.396799999999999,-7.0088800000000004,-50.008000000000003,-1.4475800000000001
7717.0,103.46299999999999,56.178100000000001,16.791,84.760300000000001,-6.0855399999999999,-48.638100000000001,-0.89060600000000001
7718.0,103.125,34.4009,1.17452,74.226200000000006,-5.03104,-46.706600000000002,-0.59959200000000001
7719.0,102.79600000000001,47.220599999999997,19.851800000000001,97.769000000000005,-3.94096,-44.091500000000003,-0.43794
7720.0,102.303,23.1279,1.1199399999999999,83.403199999999998,-3.0280300000000002,-40.799100000000003,-0.50516700000000003
7721.0,101.863,37.838900000000002,20.608000000000001,106.867,-2.28186,-37.002200000000002,-0.74749200000000005
7722.0,101.42,14.648,1.5718099999999999,91.291600000000003,-1.7253499999999999,-32.7896,-1.17492
7723.0,75.759299999999996,86.391300000000001,21.525700000000001,37.768700000000003,-20.149100000000001,10.603400000000001,-15.9839
7724.0,79.466499999999996,109.033,40.475099999999998,54.333100000000002,-22.049900000000001,8.7279599999999995,-15.1173
7725.0,82.785899999999998,92.6494,20.744700000000002,32.2545,-23.699300000000001,6.1956499999999997,-13.8834
7726.0,85.296099999999996,113.898,39.493400000000001,49.1524,-24.985299999999999,2.84951,-12.4838
7727.0,87.026300000000006,96.918800000000005,21.193100000000001,29.829599999999999,-26.0732,-1.0881400000000001,-11.1896
7728.0,88.014600000000002,114.054,38.272100000000002,46.742800000000003,-26.997900000000001,-5.4182100000000002,-9.9852799999999995
7729.0,89.372500000000002,92.920599999999993,17.6066,26.214400000000001,-28.170999999999999,-9.7869700000000002,-8.5883299999999991
7730.0,91.327399999999997,110.867,35.738700000000001,44.5458,-29.263200000000001,-13.8949,-6.6418499999999998
7731.0,96.397999999999996,96.170299999999997,18.469000000000001,26.520800000000001,-30.477,-18.2392,-3.2325300000000001
7732.0,103.343,123.002,40.077500000000001,46.907400000000003,-30.212299999999999,-22.957899999999999,1.06454
7733.0,113.29900000000001,115.789,25.447500000000002,32.915799999999997,-28.879899999999999,-29.940200000000001,5.8431199999999999
7734.0,114.759,137.804,48.641599999999997,59.941499999999998,-27.209,-35.605699999999999,5.00922
7735.0,113.61499999999999,82.851600000000005,-0.81509200000000004,23.372399999999999,-21.5123,-44.566800000000001,-0.113182
7736.0,113.619,22.231100000000001,-62.025799999999997,-30.2514,-21.7592,-44.883400000000002,-2.1312600000000002
7737.0,109.90900000000001,-15.7911,-94.3446,-65.943600000000004,-23.347200000000001,-43.508200000000002,-2.54799
7738.0,113.158,36.189100000000003,-39.1661,-17.118400000000001,-22.412800000000001,-47.589399999999998,-0.32660600000000001
7739.0,114.02200000000001,81.873999999999995,6.71922,36.058799999999998,-17.657399999999999,-50.789700000000003,2.7547700000000002
7740.0,116.685,102.252,31.594799999999999,76.562200000000004,-9.61965,-56.074399999999997,4.7468500000000002
7741.0,113.38,72.631,6.9608499999999998,55.441899999999997,-6.5215899999999998,-55.338999999999999,4.5108300000000003
7742.0,104.316,78.967200000000005,22.2897,74.661000000000001,-4.8331900000000001,-51.060699999999997,1.0497000000000001
7743.0,99.623500000000007,51.9116,2.0099499999999999,56.809699999999999,-4.9199400000000004,-48.625500000000002,-0.32912000000000002
7744.0,96.401300000000006,60.029899999999998,16.902999999999999,75.346999999999994,-4.9328099999999999,-46.411999999999999,-0.97561799999999999
7745.0,96.242400000000004,37.712499999999999,0.42962899999999998,63.707000000000001,-4.5045599999999997,-45.332500000000003,-0.76007899999999995
7746.0,95.822699999999998,46.505099999999999,15.0806,82.967799999999997,-3.7307800000000002,-43.497,-0.68404399999999999
7747.0,95.745199999999997,23.366599999999998,-2.51999,69.966200000000001,-2.8832499999999999,-41.203600000000002,-0.59235800000000005
7748.0,95.239599999999996,35.363999999999997,14.5921,91.091700000000003,-2.1761300000000001,-38.124400000000001,-0.66830400000000001
7749.0,95.019199999999998,12.4117,-3.76519,76.569699999999997,-1.55033,-34.658499999999997,-0.81401999999999997
7750.0,94.712599999999995,25.566500000000001,13.3536,97.011300000000006,-1.06759,-30.751000000000001,-1.1713899999999999
7751.0,70.477400000000003,105.167,45.305100000000003,62.2926,-20.005299999999998,8.7153700000000001,-15.0929
7752.0,74.197800000000001,88.5792,24.973299999999998,39.935299999999998,-21.706700000000001,7.3323099999999997,-14.2897
7753.0,77.140000000000001,110.361,43.613799999999998,56.545499999999997,-23.069600000000001,5.1067499999999999,-13.120799999999999
7754.0,79.556899999999999,93.1374,23.9328,35.137999999999998,-24.2133,2.1814,-11.787100000000001
7755.0,80.748500000000007,109.26900000000001,39.219000000000001,49.558199999999999,-25.084900000000001,-1.3969100000000001,-10.600199999999999
7756.0,81.627300000000005,90.078199999999995,20.0703,30.171299999999999,-25.943999999999999,-5.2585800000000003,-9.3946500000000004
7757.0,82.443100000000001,106.58,37.496299999999998,47.7502,-27.023099999999999,-8.9988299999999999,-8.0386000000000006
7758.0,85.034300000000002,89.441500000000005,19.5519,29.2682,-28.007200000000001,-12.626099999999999,-5.75847
7759.0,89.686199999999999,112.61199999999999,40.205100000000002,47.776899999999998,-28.895,-16.054400000000001,-2.13774
7760.0,98.833500000000001,107.42400000000001,27.8703,33.018300000000004,-28.184899999999999,-21.7255,2.77563
7761.0,106.99299999999999,135.94300000000001,51.220300000000002,56.116100000000003,-27.8842,-27.124199999999998,6.3412300000000004
7762.0,106.277,108.432,28.351500000000001,40.5045,-23.912800000000001,-36.199300000000001,4.5041000000000002
7763.0,109.971,54.463999999999999,-24.1568,-1.89161,-21.444600000000001,-43.922600000000003,0.067380399999999993
7764.0,105.303,-1.4801800000000001,-82.008099999999999,-50.933399999999999,-23.716799999999999,-38.255499999999998,-4.5748300000000004
7765.0,102.48099999999999,-3.55436,-82.8155,-41.342599999999997,-22.122800000000002,-37.623199999999997,-4.9151800000000003
7766.0,107.291,-7.8245399999999998,-88.065100000000001,-53.706499999999998,-21.2819,-41.993099999999998,0.25054700000000002
7767.0,107.128,71.603399999999993,-2.1421199999999998,24.689499999999999,-16.886700000000001,-46.223100000000002,3.24092
7768.0,109.504,87.027500000000003,20.288399999999999,57.951300000000003,-7.9815800000000001,-52.768300000000004,5.3978999999999999
7769.0,108.25700000000001,95.632000000000005,33.927100000000003,79.307199999999995,-3.5149400000000002,-53.270400000000002,5.8493199999999996
7770.0,99.309899999999999,67.959800000000001,15.1614,63.8063,-2.35486,-49.119199999999999,2.7138599999999999
7771.0,92.704599999999999,69.890199999999993,23.422699999999999,74.291499999999999,-2.5141399999999998,-45.429900000000004,0.38079099999999999
7772.0,89.311199999999999,47.642000000000003,7.7135699999999998,61.796999999999997,-3.10032,-43.157400000000003,-0.21884400000000001
7773.0,89.214799999999997,54.295000000000002,19.591799999999999,78.182299999999998,-3.0329299999999999,-42.139600000000002,-0.43364399999999997
7774.0,89.126400000000004,34.913899999999998,5.4180799999999998,68.6143,-2.6180400000000001,-40.505099999999999,-0.63751800000000003
7775.0,88.956800000000001,45.259799999999998,20.8766,88.206999999999994,-2.0137100000000001,-38.354199999999999,-0.78244899999999995
7776.0,88.560400000000001,23.8126,4.2619100000000003,75.372399999999999,-1.5479000000000001,-35.519799999999996,-0.83850899999999995
7777.0,88.405900000000003,36.371400000000001,21.098400000000002,95.808099999999996,-1.10405,-32.3279,-0.98192999999999997
7778.0,88.338999999999999,15.742100000000001,4.2103400000000004,82.223600000000005,-0.73229200000000005,-28.741099999999999,-1.2384299999999999
7779.0,66.143900000000002,79.421800000000005,24.0045,42.025599999999997,-20.076000000000001,6.9646999999999997,-14.413
7780.0,69.626800000000003,99.689499999999995,40.4709,56.944899999999997,-21.446899999999999,5.9933300000000003,-13.6327
7781.0,72.201099999999997,84.4465,22.265899999999998,36.963700000000003,-22.549499999999998,4.0855100000000002,-12.5025
7782.0,74.350800000000007,103.456,39.007599999999996,52.138800000000003,-23.525600000000001,1.5090399999999999,-11.271699999999999
7783.0,75.157499999999999,87.590500000000006,22.516999999999999,35.2027,-24.2165,-1.68956,-10.1782
7784.0,75.842799999999997,101.977,37.116300000000003,49.663800000000002,-25.040900000000001,-5.0743999999999998,-9.0050399999999993
7785.0,76.262200000000007,83.134900000000002,19.283100000000001,31.569199999999999,-25.8017,-8.1684199999999993,-7.6390599999999997
7786.0,79.169499999999999,100.73099999999999,35.7393,46.277999999999999,-26.835599999999999,-11.2492,-5.0876799999999998
7787.0,84.074600000000004,94.179599999999994,25.570599999999999,32.8399,-27.014600000000002,-14.280799999999999,-1.42117
7788.0,94.155000000000001,120.146,44.298499999999997,47.787199999999999,-26.500800000000002,-20.151299999999999,3.6352099999999998
7789.0,98.825400000000002,116.98,40.161799999999999,42.917099999999998,-25.9129,-25.610299999999999,5.3974200000000003
7790.0,99.816299999999998,99.791899999999998,26.1983,40.271700000000003,-21.413900000000002,-36.349800000000002,3.8875999999999999
7791.0,104.158,11.311500000000001,-66.135599999999997,-41.4024,-22.078700000000001,-39.4651,2.5707900000000001
7792.0,98.161000000000001,2.53491,-75.888300000000001,-44.055100000000003,-23.534500000000001,-33.161799999999999,-1.60907
7793.0,95.749399999999994,-11.021800000000001,-86.584100000000007,-46.210299999999997,-20.595300000000002,-34.369399999999999,-4.5724999999999998
7794.0,100.658,4.9485599999999996,-70.985500000000002,-34.168300000000002,-18.171199999999999,-40.017499999999998,-1.9610099999999999
7795.0,103.31,31.206099999999999,-42.9636,-15.659599999999999,-15.2117,-43.6678,3.4931800000000002
7796.0,101.697,96.349999999999994,30.2315,63.009500000000003,-7.6169900000000004,-47.475499999999997,6.5235000000000003
7797.0,102.992,80.445899999999995,24.022500000000001,67.194299999999998,-0.759293,-51.279699999999998,5.9245000000000001
7798.0,95.075400000000002,76.971299999999999,28.625800000000002,71.530100000000004,0.099800100000000003,-47.932600000000001,3.7790699999999999
7799.0,84.918899999999994,52.6965,12.845700000000001,57.575200000000002,-0.21351100000000001,-42.429200000000002,1.1653199999999999
7800.0,82.722200000000001,56.901600000000002,21.2681,70.290199999999999,-1.8451900000000001,-40.433399999999999,0.83415600000000001
7801.0,82.477800000000002,38.580500000000001,6.76302,60.848100000000002,-1.98234,-39.047400000000003,-0.070060499999999998
7802.0,82.925399999999996,44.934899999999999,17.783799999999999,76.409099999999995,-1.5541,-37.799799999999998,-0.42043000000000003
7803.0,82.522599999999997,24.342700000000001,1.7284299999999999,64.1751,-1.32782,-35.607999999999997,-0.83469400000000005
7804.0,82.244699999999995,34.642200000000003,16.3308,82.375900000000001,-1.0995900000000001,-33.0122,-1.04094
7805.0,82.034099999999995,13.920299999999999,-0.44262699999999999,68.893799999999999,-0.88572700000000004,-30.030000000000001,-1.1364099999999999
7806.0,82.257800000000003,25.916899999999998,15.048,87.697500000000005,-0.60304999999999997,-26.7913,-1.34941
7807.0,62.978000000000002,95.924300000000002,44.185099999999998,63.714700000000001,-20.379300000000001,5.4990899999999998,-13.924200000000001
7808.0,65.676500000000004,81.269099999999995,25.9544,44.515500000000003,-21.243200000000002,4.61381,-13.142799999999999
7809.0,68.197500000000005,100.79000000000001,42.4086,59.317,-22.2041,3.1255000000000002,-12.0471
7810.0,69.670900000000003,84.793400000000005,24.615300000000001,40.390999999999998,-22.8873,0.87046800000000002,-10.944699999999999
7811.0,70.336600000000004,98.057199999999995,37.375500000000002,52.5565,-23.408300000000001,-2.0976599999999999,-9.9780800000000003
7812.0,70.539900000000003,80.603800000000007,20.690300000000001,35.600499999999997,-24.078900000000001,-4.8670799999999996,-9.0702499999999997
7813.0,71.099299999999999,96.386499999999998,36.804400000000001,51.213200000000001,-24.690999999999999,-7.3472299999999997,-7.4184099999999997
7814.0,73.485100000000003,84.402699999999996,23.758700000000001,35.638800000000003,-25.5473,-9.6158199999999994,-4.7012999999999998
7815.0,79.962900000000005,109.148,43.054400000000001,50.456200000000003,-25.314,-13.3567,-0.92957000000000001
7816.0,88.513999999999996,109.126,37.026499999999999,40.452500000000001,-25.263300000000001,-17.5565,3.2808299999999999
7817.0,89.892700000000005,122.155,51.722099999999998,58.5015,-23.075800000000001,-25.171199999999999,4.2100499999999998
7818.0,95.354699999999994,55.027900000000002,-15.373699999999999,1.16618,-20.9497,-35.031700000000001,3.09151
7819.0,96.753200000000007,17.903099999999998,-57.008000000000003,-32.709000000000003,-23.034199999999998,-33.533499999999997,2.1689400000000001
7820.0,93.322400000000002,-3.4839699999999998,-78.561499999999995,-46.935000000000002,-22.253,-31.411100000000001,0.60096099999999997
7821.0,90.690700000000007,9.9085699999999992,-62.927100000000003,-26.7681,-18.249600000000001,-32.883600000000001,-0.96800299999999995
7822.0,93.185199999999995,-14.6814,-86.272800000000004,-49.441899999999997,-13.215400000000001,-37.922400000000003,-0.223805
7823.0,99.0916,32.449100000000001,-39.742199999999997,-13.373100000000001,-13.106,-41.857900000000001,3.8422399999999999
7824.0,95.558499999999995,88.126599999999996,25.6526,52.183300000000003,-7.9694900000000004,-44.3872,5.1902499999999998
7825.0,97.006799999999998,100.10899999999999,49.647599999999997,88.439400000000006,0.45529999999999998,-49.132899999999999,4.9642400000000002
7826.0,89.459500000000006,68.321899999999999,22.936599999999999,63.418599999999998,1.20435,-45.0854,3.6166299999999998
7827.0,77.504800000000003,72.502799999999993,34.551400000000001,77.836399999999998,-0.18564,-38.005000000000003,0.92921399999999998
7828.0,75.853099999999998,47.159700000000001,13.6911,59.074800000000003,-1.7885899999999999,-36.887,0.64555300000000004
7829.0,75.928299999999993,54.059699999999999,25.459700000000002,74.747799999999998,-1.4432100000000001,-36.152900000000002,0.20206399999999999
7830.0,77.167400000000001,35.431800000000003,10.6541,65.282499999999999,-0.88779699999999995,-35.155900000000003,-0.0169663
7831.0,76.699700000000007,44.425800000000002,23.395700000000001,81.560299999999998,-0.82871499999999998,-33.047199999999997,-0.86795699999999998
7832.0,76.110600000000005,24.3795,7.2351299999999998,68.531000000000006,-0.82766799999999996,-30.475899999999999,-1.18147
7833.0,76.039599999999993,35.668500000000002,21.936900000000001,86.415700000000001,-0.85806400000000005,-27.773900000000001,-1.28738
7834.0,76.380799999999994,16.9267,6.3812800000000003,74.064700000000002,-0.67386900000000005,-24.816800000000001,-1.47828
7835.0,60.701599999999999,72.343699999999998,23.599599999999999,45.181399999999996,-20.756399999999999,4.2347400000000004,-13.523199999999999
7836.0,62.506900000000002,92.213899999999995,40.283299999999997,61.387700000000002,-21.1861,3.2852600000000001,-12.674899999999999
7837.0,64.933999999999997,76.664199999999994,21.523199999999999,41.0747,-21.9954,2.23746,-11.6234
7838.0,65.728300000000004,94.427999999999997,37.939900000000002,56.858800000000002,-22.350899999999999,0.27409099999999997,-10.664
7839.0,66.1297,78.060100000000006,21.093599999999999,39.4664,-22.706600000000002,-2.3820100000000002,-9.5435099999999995
7840.0,65.718199999999996,89.340400000000002,33.483199999999997,51.531599999999997,-23.116700000000002,-4.4421099999999996,-8.5421300000000002
7841.0,66.544799999999995,73.532899999999998,17.747800000000002,34.506900000000002,-23.808199999999999,-6.4165700000000001,-6.9821600000000004
7842.0,68.675399999999996,96.350800000000007,38.793700000000001,52.168199999999999,-24.038499999999999,-8.1650600000000004,-4.5041700000000002
7843.0,76.148700000000005,90.017899999999997,26.227399999999999,34.2498,-23.962800000000001,-12.2904,-0.572716
7844.0,82.158500000000004,119.529,51.982700000000001,57.199599999999997,-24.1693,-15.8727,1.2128399999999999
7845.0,83.212000000000003,93.373500000000007,28.148,40.2256,-20.943300000000001,-25.786100000000001,0.61516099999999996
7846.0,90.304400000000001,40.505400000000002,-27.4605,-9.9366099999999999,-20.9589,-32.126399999999997,1.33047
7847.0,89.069800000000001,0.79961499999999996,-69.932100000000005,-49.000700000000002,-22.7867,-28.3034,1.9923200000000001
7848.0,88.863399999999999,14.077,-56.801099999999998,-28.840199999999999,-19.712,-31.0044,2.798
7849.0,88.128299999999996,0.199736,-70.402699999999996,-39.494599999999998,-15.696,-32.963900000000002,1.8092699999999999
7850.0,87.820400000000006,5.6162400000000003,-61.480499999999999,-27.009599999999999,-10.432499999999999,-36.539999999999999,1.01031
7851.0,92.803100000000001,4.7655200000000004,-60.941200000000002,-37.133699999999997,-10.0093,-40.582799999999999,4.1275399999999998
7852.0,92.017499999999998,72.872900000000001,16.2897,34.9163,-6.1633899999999997,-43.869900000000001,5.31996
7853.0,88.878399999999999,79.296300000000002,34.1295,65.539900000000003,0.049736900000000001,-45.566699999999997,4.5617900000000002
7854.0,81.788799999999995,66.817499999999995,31.104199999999999,70.563699999999997,-0.404144,-41.895299999999999,-0.032304600000000003
7855.0,72.905100000000004,36.858899999999998,6.1730999999999998,42.458399999999997,-4.3812300000000004,-36.8825,-3.2557
7856.0,67.201800000000006,52.194899999999997,21.156300000000002,58.442900000000002,-4.3173899999999996,-32.952800000000003,-1.4312800000000001
7857.0,69.441800000000001,39.294699999999999,13.314299999999999,59.808900000000001,-1.20865,-32.603299999999997,0.144174
7858.0,72.400300000000001,43.935000000000002,21.576699999999999,72.2072,-0.68334300000000003,-33.207599999999999,0.53257399999999999
7859.0,71.012799999999999,25.639500000000002,6.4643199999999998,60.535400000000003,-0.49350100000000002,-30.4665,-0.98400399999999999
7860.0,70.483400000000003,34.265000000000001,18.196899999999999,75.203599999999994,-0.81071700000000002,-28.105799999999999,-1.17801
7861.0,70.227500000000006,15.8447,2.6237200000000001,62.516100000000002,-1.0027900000000001,-25.509699999999999,-1.4815499999999999
7862.0,70.866500000000002,26.593800000000002,16.2499,79.365700000000004,-0.92031799999999997,-22.909199999999998,-1.55894
7863.0,58.986600000000003,87.662599999999998,41.423999999999999,65.816199999999995,-21.101400000000002,2.8521700000000001,-13.0906
7864.0,60.523299999999999,74.936199999999999,25.609400000000001,49.696199999999997,-21.398099999999999,2.13409,-12.2554
7865.0,62.329300000000003,92.287700000000001,39.928600000000003,62.930100000000003,-21.8504,1.34874,-11.2689
7866.0,62.836300000000001,77.073400000000007,23.414300000000001,45.933199999999999,-21.9754,-0.33726200000000001,-10.3482
7867.0,62.789499999999997,88.254199999999997,34.414000000000001,56.923099999999998,-22.140599999999999,-2.4260299999999999,-9.3222699999999996
7868.0,62.301099999999998,72.566500000000005,19.4404,41.826599999999999,-22.3216,-4.11592,-8.1978200000000001
7869.0,62.510399999999997,89.152100000000004,36.554099999999998,56.5929,-22.888300000000001,-5.4117199999999999,-6.6823199999999998
7870.0,65.312299999999993,81.780799999999999,25.842500000000001,40.929400000000001,-22.682099999999998,-7.2808700000000002,-4.101
7871.0,72.051599999999993,108.804,47.220399999999998,56.479799999999997,-22.932099999999998,-10.077500000000001,-0.58373399999999998
7872.0,74.9191,98.739000000000004,36.929900000000004,44.8142,-21.724499999999999,-16.348299999999998,-0.063790600000000003
7873.0,78.988,68.661600000000007,7.5335099999999997,21.110299999999999,-19.076699999999999,-26.158300000000001,-1.08673
7874.0,83.027900000000002,2.5372599999999998,-63.855800000000002,-45.611899999999999,-20.455300000000001,-26.506499999999999,0.57168799999999997
7875.0,82.604200000000006,13.1996,-54.990600000000001,-33.8705,-21.178100000000001,-24.523800000000001,2.4418099999999998
7876.0,86.326400000000007,8.30715,-60.377699999999997,-36.412199999999999,-17.553799999999999,-30.715699999999998,4.1467599999999996
7877.0,85.618899999999996,19.887899999999998,-47.642099999999999,-21.473199999999999,-13.2834,-33.076999999999998,3.6989999999999998
7878.0,83.903400000000005,-7.92117,-70.101799999999997,-39.396099999999997,-8.5986200000000004,-36.0565,2.4357799999999998
7879.0,87.190700000000007,16.499300000000002,-46.2941,-22.8201,-6.7381500000000001,-38.190300000000001,4.8472900000000001
7880.0,88.340299999999999,54.7988,-2.6612399999999998,17.081800000000001,-3.62405,-40.934199999999997,7.7626200000000001
7881.0,80.000299999999996,98.354399999999998,56.409599999999998,84.420900000000003,-1.0345299999999999,-40.643000000000001,4.9065700000000003
7882.0,75.184600000000003,27.670100000000001,3.4690400000000001,43.116199999999999,0.271094,-38.425800000000002,-2.87473
7883.0,68.778400000000005,-6.6825299999999999,-33.814100000000003,-3.0185399999999998,-4.7277699999999996,-35.500300000000003,-3.3486099999999999
7884.0,58.461100000000002,37.668999999999997,5.9546599999999996,34.213500000000003,-6.9461399999999998,-28.0228,-1.7295199999999999
7885.0,63.222999999999999,57.192500000000003,33.595300000000002,78.614800000000002,-1.7797700000000001,-28.647200000000002,-1.21278
7886.0,68.580799999999996,34.659999999999997,12.8209,60.501399999999997,-0.81271400000000005,-31.568100000000001,0.93484299999999998
7887.0,65.282499999999999,45.8123,28.038,78.673299999999998,-0.43534899999999999,-27.553000000000001,-1.1372199999999999
7888.0,65.445800000000006,24.142499999999998,8.76281,62.021299999999997,-0.90876199999999996,-25.967700000000001,-1.1276900000000001
7889.0,64.536600000000007,36.415999999999997,23.347899999999999,79.080699999999993,-1.2817499999999999,-23.1221,-1.5862400000000001
7890.0,65.8108,18.006499999999999,7.4206300000000001,66.584299999999999,-1.2244299999999999,-21.075700000000001,-1.62368
7891.0,57.843699999999998,67.692099999999996,23.771799999999999,51.222700000000003,-21.544,1.42652,-12.5229
7892.0,59.368000000000002,84.750900000000001,37.4968,64.7363,-21.793600000000001,1.2615499999999999,-11.6496
7893.0,60.318899999999999,70.397000000000006,20.498200000000001,47.166699999999999,-21.783899999999999,0.56198099999999995,-10.699400000000001
7894.0,60.744399999999999,85.386300000000006,33.981099999999998,60.322000000000003,-21.755400000000002,-0.78096699999999997,-9.7619199999999999
7895.0,60.069000000000003,71.351699999999994,20.3171,46.8476,-21.552800000000001,-2.3846500000000002,-9.0043699999999998
7896.0,59.409999999999997,81.969700000000003,31.5017,57.177,-21.4815,-3.81366,-7.9810699999999999
7897.0,58.761600000000001,69.155100000000004,19.2408,42.145699999999998,-21.595400000000001,-4.3156600000000003,-6.4595200000000004
7898.0,62.4709,90.603999999999999,36.055399999999999,52.539099999999998,-21.5077,-6.62357,-3.4225599999999998
7899.0,67.904499999999999,94.054100000000005,35.000100000000003,45.023400000000002,-21.819700000000001,-7.8446100000000003,-0.85358100000000003
7900.0,68.719800000000006,101.70699999999999,42.769399999999997,55.991900000000001,-18.556100000000001,-16.512499999999999,0.86401799999999995
7901.0,74.998400000000004,27.984200000000001,-33.4405,-14.998200000000001,-17.149999999999999,-24.181100000000001,1.62371
7902.0,76.172399999999996,8.8453800000000005,-56.190300000000001,-36.437800000000003,-19.659400000000002,-20.848299999999998,1.1004
7903.0,77.491299999999995,4.6485200000000004,-61.199800000000003,-39.815399999999997,-18.874600000000001,-22.635999999999999,2.1467700000000001
7904.0,84.546700000000001,20.643799999999999,-46.783499999999997,-26.3049,-15.704000000000001,-30.300000000000001,4.7964799999999999
7905.0,82.9923,10.5663,-53.968800000000002,-31.218800000000002,-11.3743,-32.817599999999999,4.2604699999999998
7906.0,80.537000000000006,5.6804399999999999,-52.450200000000002,-24.189299999999999,-7.3678499999999998,-35.406700000000001,3.0228700000000002
7907.0,82.266800000000003,3.6669800000000001,-56.315100000000001,-32.700299999999999,-7.1214300000000001,-35.775500000000001,3.5110100000000002
7908.0,82.616299999999995,73.169399999999996,17.033300000000001,38.624400000000001,-5.6712300000000004,-37.624400000000001,5.0595100000000004
7909.0,72.272499999999994,80.958100000000002,40.191800000000001,68.905699999999996,-2.41046,-35.834099999999999,3.5502699999999998
7910.0,68.840100000000007,15.8583,-10.674099999999999,36.726500000000001,1.6929700000000001,-31.766999999999999,-1.8084499999999999
7911.0,63.475499999999997,-42.871499999999997,-79.577799999999996,-40.141599999999997,-3.89879,-29.006799999999998,-1.20173
7912.0,53.215200000000003,35.787500000000001,-1.8302400000000001,25.4053,-8.3241300000000003,-22.251200000000001,-1.44923
7913.0,56.820999999999998,41.057200000000002,19.168399999999998,61.3536,-2.4559700000000002,-24.876100000000001,-2.4989300000000001
7914.0,64.587599999999995,40.658000000000001,20.299399999999999,64.592399999999998,-1.2756700000000001,-29.953499999999998,0.38966499999999998
7915.0,59.992100000000001,28.538,12.237500000000001,59.166800000000002,-0.95681099999999997,-25.0932,-1.1854199999999999
7916.0,60.4724,33.516199999999998,18.601299999999998,68.506,-1.12679,-23.6675,-1.1598999999999999
7917.0,59.423200000000001,18.831,5.69428,57.773000000000003,-1.71933,-20.930499999999999,-1.5679700000000001
7918.0,60.9251,27.5928,16.577999999999999,72.036699999999996,-1.62687,-19.2256,-1.7250399999999999
7919.0,57.664999999999999,82.019800000000004,40.008600000000001,70.759,-22.270199999999999,0.25650200000000001,-11.8111
7920.0,58.788899999999998,68.964699999999993,23.456199999999999,54.133600000000001,-22.237500000000001,0.497533,-10.891
7921.0,59.308799999999998,85.746099999999998,37.674199999999999,68.265299999999996,-21.941099999999999,-0.069459499999999993,-9.9522600000000008
7922.0,59.3551,70.416499999999999,20.8904,51.354799999999997,-21.606999999999999,-1.0951599999999999,-9.0683500000000006
7923.0,58.244199999999999,80.686400000000006,31.6464,62.455300000000001,-21.034099999999999,-2.3022800000000001,-8.2855100000000004
7924.0,57.089100000000002,66.7637,18.2376,47.824399999999997,-20.6449,-3.2436500000000001,-7.1771799999999999
7925.0,55.911700000000003,85.706999999999994,37.291200000000003,63.432000000000002,-20.254200000000001,-3.2401599999999999,-5.8343699999999998
7926.0,59.353299999999997,80.420000000000002,27.3566,45.470999999999997,-20.1858,-5.6030899999999999,-2.8040600000000002
7927.0,63.790700000000001,111.60899999999999,54.6691,65.016599999999997,-19.815100000000001,-6.58772,-0.60540700000000003
7928.0,64.342799999999997,89.662499999999994,32.462400000000002,48.211399999999998,-16.307200000000002,-15.440099999999999,1.6322399999999999
7929.0,71.004400000000004,40.250599999999999,-20.926200000000001,1.9457500000000001,-15.755800000000001,-21.5749,3.3647800000000001
7930.0,71.224000000000004,-3.6151499999999999,-67.3279,-45.179000000000002,-17.983799999999999,-17.790800000000001,2.1874500000000001
7931.0,73.869200000000006,17.749600000000001,-46.663899999999998,-25.793700000000001,-16.485800000000001,-21.486000000000001,2.3119700000000001
7932.0,81.770399999999995,13.596299999999999,-52.388100000000001,-34.011299999999999,-13.9391,-29.208400000000001,4.6559699999999999
7933.0,81.130600000000001,24.838000000000001,-37.357199999999999,-16.2255,-10.1554,-32.7408,4.3360799999999999
7934.0,77.009,-4.5191800000000004,-60.795200000000001,-34.052900000000001,-6.8154300000000001,-33.597799999999999,3.0226999999999999
7935.0,75.130799999999994,7.8329399999999998,-44.085900000000002,-20.522600000000001,-7.8500199999999998,-33.790799999999997,1.5179
7936.0,77.886499999999998,38.619900000000001,-9.3558400000000006,8.7995599999999996,-8.8639700000000001,-36.8277,0.704623
7937.0,66.355599999999995,95.269499999999994,53.946800000000003,79.908699999999996,-6.0293799999999997,-31.544699999999999,0.094633400000000006
7938.0,63.657200000000003,23.6021,-4.2121300000000002,46.9831,-1.69509,-26.069800000000001,-3.3713500000000001
7939.0,60.573,-27.136800000000001,-64.059799999999996,-20.925000000000001,-6.47736,-25.028700000000001,-3.2989799999999998
7940.0,51.081699999999998,27.2837,-12.8825,14.4899,-9.5178600000000007,-18.680299999999999,-3.0322
7941.0,50.993600000000001,55.396599999999999,32.145099999999999,72.003799999999998,-2.8915500000000001,-21.176300000000001,-3.02135
7942.0,59.489199999999997,31.357099999999999,11.4682,53.338000000000001,-0.75692499999999996,-27.211099999999998,-0.0102656
7943.0,55.334099999999999,44.983199999999997,28.9544,72.880099999999999,-1.1523399999999999,-22.9055,-0.725688
7944.0,55.519100000000002,26.364699999999999,11.5969,58.490000000000002,-1.47028,-21.189499999999999,-1.2058
7945.0,54.878100000000003,36.674700000000001,23.019100000000002,72.034800000000004,-2.0249199999999998,-18.9147,-1.4537100000000001
7946.0,56.221800000000002,20.708500000000001,8.8860700000000001,61.005400000000002,-1.9792000000000001,-17.323499999999999,-1.7135800000000001
7947.0,57.584600000000002,63.620600000000003,23.6221,56.903399999999998,-23.0444,-0.37662400000000001,-10.741199999999999
7948.0,58.070900000000002,79.582400000000007,36.133800000000001,69.324200000000005,-22.7026,0.0491691,-9.6382300000000001
7949.0,58.208399999999997,65.520600000000002,19.4832,52.691200000000002,-22.142900000000001,-0.289489,-8.6339500000000005
7950.0,57.819400000000002,79.228399999999993,31.776199999999999,65.221100000000007,-21.418900000000001,-1.10795,-7.7426700000000004
7951.0,56.526899999999998,66.003100000000003,18.812799999999999,52.822299999999998,-20.470199999999998,-1.99221,-7.0153699999999999
7952.0,54.896700000000003,75.941299999999998,29.144600000000001,61.735399999999998,-19.623200000000001,-2.5489299999999999,-6.1100399999999997
7953.0,53.231299999999997,65.855099999999993,18.6221,46.829500000000003,-18.726800000000001,-2.3163,-4.86829
7954.0,55.6843,89.727000000000004,38.420299999999997,57.359999999999999,-18.304500000000001,-4.5061400000000003,-2.25902
7955.0,60.201500000000003,94.325599999999994,38.697600000000001,50.120800000000003,-17.602399999999999,-5.9162699999999999,-0.23042799999999999
7956.0,60.6297,103.34399999999999,47.964100000000002,64.666300000000007,-14.8934,-13.903499999999999,1.7963899999999999
7957.0,66.203900000000004,39.319800000000001,-18.488,4.81677,-14.618399999999999,-19.863600000000002,2.6150099999999998
7958.0,67.578100000000006,19.458600000000001,-42.346400000000003,-19.601299999999998,-16.104099999999999,-16.856000000000002,1.28651
7959.0,71.077399999999997,7.3832800000000001,-55.950299999999999,-35.601300000000002,-14.6424,-20.4876,2.0912299999999999
7960.0,78.337599999999995,25.3232,-38.654400000000003,-21.419,-12.3803,-27.906600000000001,4.2074199999999999
7961.0,79.134900000000002,10.0063,-50.309600000000003,-29.459199999999999,-9.5200300000000002,-32.250500000000002,4.2822500000000003
7962.0,73.634100000000004,11.418799999999999,-43.564900000000002,-17.153500000000001,-7.4462400000000004,-31.455100000000002,2.5042200000000001
7963.0,67.428700000000006,-14.061500000000001,-61.803899999999999,-33.942999999999998,-6.63652,-29.921299999999999,1.0367500000000001
7964.0,71.754999999999995,-1.46875,-45.523000000000003,-24.006499999999999,-8.3916199999999996,-34.042999999999999,1.27746
7965.0,63.405200000000001,47.493400000000001,7.4618599999999997,26.672000000000001,-8.8593299999999999,-29.329000000000001,-0.739236
7966.0,55.2607,28.451799999999999,4.0418700000000003,47.396700000000003,-2.2679900000000002,-23.0809,-2.7643599999999999
7967.0,55.305900000000001,-48.900100000000002,-79.894800000000004,-37.811700000000002,-3.2612100000000002,-23.058499999999999,-1.2194100000000001
7968.0,48.078899999999997,15.454499999999999,-22.7727,3.4881099999999998,-7.8410700000000002,-17.894600000000001,-2.5438100000000001
7969.0,46.031700000000001,40.155099999999997,14.9687,51.162599999999998,-3.4126099999999999,-18.366,-3.61883
7970.0,53.624600000000001,43.104599999999998,22.880099999999999,63.213999999999999,-0.89003100000000002,-23.460000000000001,-0.81429399999999996
7971.0,51.255600000000001,29.3476,12.9695,54.808199999999999,-1.62582,-20.6952,-0.53455600000000003
7972.0,50.808,35.439599999999999,20.5092,64.493600000000001,-1.9497899999999999,-18.841999999999999,-1.17502
7973.0,50.615699999999997,21.3293,7.07796,53.283299999999997,-2.3835799999999998,-16.9313,-1.33589
7974.0,51.963299999999997,30.2788,17.478999999999999,66.627799999999993,-2.3750399999999998,-15.542199999999999,-1.65768
7975.0,57.499000000000002,77.745900000000006,39.794800000000002,75.114999999999995,-23.736699999999999,-0.68649099999999996,-9.4350699999999996
7976.0,57.442700000000002,66.437799999999996,25.123100000000001,60.133299999999998,-23.162299999999998,-0.112413,-8.2456099999999992
7977.0,57.188099999999999,82.6511,38.644599999999997,73.717200000000005,-22.313700000000001,-0.27186100000000002,-7.1487299999999996
7978.0,56.445900000000002,67.789400000000001,22.376100000000001,57.948700000000002,-21.2424,-0.94096999999999997,-6.2572999999999999
7979.0,54.972499999999997,76.968400000000003,31.509899999999998,67.773499999999999,-19.905200000000001,-1.5817399999999999,-5.56135
7980.0,53.0794,65.611900000000006,20.112500000000001,55.132800000000003,-18.578099999999999,-1.7967599999999999,-4.7987099999999998
7981.0,51.170299999999997,85.959800000000001,39.155500000000004,69.3733,-17.110800000000001,-1.5207200000000001,-3.8162400000000001
7982.0,52.579099999999997,83.387799999999999,32.704000000000001,53.343600000000002,-16.052099999999999,-3.3578100000000002,-1.7300500000000001
7983.0,56.212400000000002,111.242,57.554200000000002,70.459800000000001,-15.347099999999999,-5.6675300000000002,-0.51803600000000005
7984.0,56.706200000000003,90.327200000000005,38.025300000000001,54.979199999999999,-13.753399999999999,-13.053599999999999,0.494197
7985.0,61.454900000000002,47.161299999999997,-6.8891999999999998,15.726800000000001,-13.366199999999999,-18.4815,1.35497
7986.0,63.853099999999998,-0.35644300000000001,-59.5458,-38.377899999999997,-14.0458,-16.184000000000001,0.59310200000000002
7987.0,67.7821,19.169599999999999,-42.177,-23.255600000000001,-12.9268,-19.3522,1.72428
7988.0,75.1524,15.517899999999999,-46.448,-29.141200000000001,-11.2273,-26.821400000000001,3.8599999999999999
7989.0,76.244600000000005,24.041799999999999,-34.309199999999997,-13.726000000000001,-9.2220499999999994,-30.9803,4.1354100000000003
7990.0,69.929900000000004,-2.8635299999999999,-55.365000000000002,-28.8032,-7.6775700000000002,-29.591100000000001,2.5199799999999999
7991.0,62.569000000000003,-4.2623699999999998,-51.860599999999998,-19.7956,-6.6531200000000004,-25.904900000000001,0.67837199999999998
7992.0,64.388300000000001,-19.9361,-65.058999999999997,-34.744700000000002,-7.4207999999999998,-28.158000000000001,2.22702
7993.0,61.629100000000001,34.563099999999999,-9.1192299999999999,12.9099,-7.7468300000000001,-26.8827,2.5112999999999999
7994.0,48.7913,49.375500000000002,18.308399999999999,55.277200000000001,-1.4040699999999999,-19.899000000000001,1.0668800000000001
7995.0,51.652500000000003,1.2163200000000001,-27.689900000000002,17.306899999999999,0.98801600000000001,-19.1526,1.2896099999999999
7996.0,45.8536,3.0630899999999999,-31.841999999999999,-3.02197,-4.3020300000000002,-18.2849,-0.58661300000000005
7997.0,41.158799999999999,53.225099999999998,27.376899999999999,57.802500000000002,-3.5255299999999998,-16.535,-3.1164999999999998
7998.0,47.413800000000002,40.160699999999999,21.401900000000001,59.244500000000002,-1.40577,-19.6494,-1.8041100000000001
7999.0,47.4223,44.690800000000003,28.043399999999998,67.366699999999994,-2.1584400000000001,-18.842600000000001,-0.56042800000000004
8000.0,46.225999999999999,29.348800000000001,13.821400000000001,55.2483,-2.2812700000000001,-16.373799999999999,-0.98181200000000002
8001.0,46.813499999999998,37.883499999999998,22.859000000000002,66.597499999999997,-2.6115599999999999,-15.1211,-1.0753200000000001
8002.0,47.933100000000003,24.038,10.1335,56.5227,-2.5554700000000001,-13.791600000000001,-1.5380499999999999
8003.0,56.286499999999997,62.237400000000001,27.174299999999999,62.520699999999998,-24.152200000000001,-0.53840299999999996,-7.7002199999999998
8004.0,55.436,78.372799999999998,40.134599999999999,74.381,-23.2835,0.26832,-6.35379
8005.0,54.470599999999997,64.989699999999999,24.3489,58.086100000000002,-22.137499999999999,0.228378,-5.09659
8006.0,53.532499999999999,77.976100000000002,35.857500000000002,70.277699999999996,-20.8506,-0.38627099999999998,-4.1650900000000002
8007.0,52.120699999999999,65.6661,22.851600000000001,58.417099999999998,-19.167400000000001,-0.89083699999999999,-3.5002599999999999
8008.0,50.161700000000003,75.355699999999999,31.837,66.471999999999994,-17.352900000000002,-0.88679699999999995,-2.8445499999999999
8009.0,48.500700000000002,66.764799999999994,20.820699999999999,50.809699999999999,-15.324,-0.90734099999999995,-2.0809099999999998
8010.0,49.932299999999998,91.994600000000005,41.921599999999998,63.712400000000002,-13.8771,-2.5971600000000001,-1.19282
8011.0,51.707299999999996,89.622100000000003,38.282699999999998,54.884300000000003,-12.977399999999999,-5.9380899999999999,-1.0946499999999999
8012.0,53.168500000000002,82.837500000000006,33.893099999999997,53.484900000000003,-12.473100000000001,-13.325200000000001,-1.5259499999999999
8013.0,57.704700000000003,24.446899999999999,-27.693899999999999,-4.7759499999999999,-12.7178,-16.2288,-1.3592900000000001
8014.0,60.049999999999997,13.9602,-44.061500000000002,-22.2182,-12.4284,-13.738300000000001,0.20159299999999999
8015.0,64.802199999999999,8.5936800000000009,-51.314,-31.885400000000001,-11.542400000000001,-18.096,2.21895
8016.0,72.031700000000001,25.649999999999999,-34.556699999999999,-16.761500000000002,-10.3652,-25.552199999999999,3.53024
8017.0,72.737300000000005,8.7358100000000007,-47.637300000000003,-26.581,-8.8950600000000009,-29.283200000000001,3.9383900000000001
8018.0,66.182000000000002,9.7535500000000006,-40.9968,-13.2927,-7.7827099999999998,-27.307500000000001,2.8363299999999998
8019.0,58.975000000000001,-18.9282,-64.561899999999994,-31.6128,-6.86876,-23.5898,0.93062
8020.0,58.435099999999998,-14.4969,-58.698900000000002,-28.098700000000001,-6.86808,-23.967700000000001,2.01579
8021.0,59.334099999999999,13.908799999999999,-30.5883,-6.2055499999999997,-6.5081899999999999,-24.849,4.1434100000000003
8022.0,47.905000000000001,66.270600000000002,32.822400000000002,63.407800000000002,-3.0152299999999999,-20.117799999999999,2.7209400000000001
8023.0,47.456000000000003,27.889600000000002,2.6531899999999999,44.4514,1.7053499999999999,-17.426600000000001,1.0265599999999999
8024.0,44.350299999999997,9.3678299999999997,-21.8246,11.2926,0.015791900000000001,-17.588100000000001,0.85955999999999999
8025.0,37.786200000000001,35.274700000000003,8.8871099999999998,37.168100000000003,-2.3556300000000001,-14.803900000000001,-1.13066
8026.0,41.534199999999998,46.793199999999999,28.2272,63.888100000000001,-1.7424299999999999,-15.804500000000001,-2.02678
8027.0,43.451099999999997,29.180199999999999,11.069000000000001,48.4741,-2.5085199999999999,-16.5138,-0.65808500000000003
8028.0,42.194699999999997,39.268000000000001,22.424299999999999,61.843200000000003,-2.87337,-13.905099999999999,-0.81012200000000001
8029.0,43.479700000000001,24.017800000000001,7.5051899999999998,49.340400000000002,-2.90855,-13.298,-0.92348399999999997
8030.0,44.3765,34.4084,18.868600000000001,63.014200000000002,-2.8254000000000001,-12.047700000000001,-1.3626
8031.0,1752.1900000000001,1858.0599999999999,370.11500000000001,704.61900000000003,-454.255,455.04199999999997,24.528300000000002
8032.0,1764.8800000000001,1907.3199999999999,359.46800000000002,643.43899999999996,-451.41899999999998,391.95299999999997,43.408200000000001
8033.0,1774.6800000000001,1947.8299999999999,349.80200000000002,581.39200000000005,-445.04199999999997,319.72800000000001,61.574300000000001
8034.0,1784.9200000000001,1978.4300000000001,339.84500000000003,519.10299999999995,-437.07400000000001,238.70099999999999,78.595399999999998
8035.0,1792.3399999999999,1993.05,328.13200000000001,456.14299999999997,-426.03500000000003,148.03299999999999,94.870800000000003
8036.0,1797.1199999999999,1990.8800000000001,316.37400000000002,396.70499999999998,-412.39400000000001,48.924900000000001,110.077
8037.0,1798.24,1969.04,304.46800000000002,342.74000000000001,-395.54700000000003,-57.192,123.70999999999999
8038.0,1795.6500000000001,1926.6400000000001,293.60300000000001,297.04000000000002,-375.78300000000002,-167.72499999999999,135.56299999999999
8039.0,1789.76,1861.0,281.697,259.09899999999999,-353.13099999999997,-280.10599999999999,145.33500000000001
8040.0,1780.1800000000001,1776.0899999999999,273.87599999999998,234.50999999999999,-328.11599999999999,-391.11900000000003,152.54400000000001
8041.0,1769.3499999999999,1667.52,262.87099999999998,217.321,-301.24599999999998,-498.26299999999998,157.55000000000001
8042.0,1753.3800000000001,1539.72,257.61700000000002,212.90100000000001,-272.35700000000003,-597.68100000000004,160.25299999999999
8043.0,1744.1199999999999,1367.76,212.20500000000001,186.88499999999999,-237.989,-690.45799999999997,159.81299999999999
8044.0,1743.97,1163.27,142.19,149.99700000000001,-213.846,-772.79100000000005,161.18700000000001
8045.0,1733.8299999999999,985.63599999999997,123.953,165.489,-190.34299999999999,-838.97900000000004,160.607
8046.0,1726.6900000000001,824.73800000000006,122.65000000000001,211.69399999999999,-161.36600000000001,-893.03899999999999,155.39500000000001
8047.0,1726.23,661.05100000000004,116.815,264.00400000000002,-137.096,-934.14599999999996,150.386
8048.0,1726.6400000000001,501.577,115.914,327.10300000000001,-113.304,-960.82299999999998,143.005
8049.0,1729.4000000000001,342.39999999999998,111.14100000000001,392.31200000000001,-91.115799999999993,-973.58399999999995,135.155
8050.0,1732.2,186.428,105.854,459.43900000000002,-70.378600000000006,-972.10799999999995,126.042
8051.0,1735.28,40.120100000000001,104.06399999999999,531.59699999999998,-51.665500000000002,-957.255,115.435
8052.0,1737.6900000000001,-101.07299999999999,100.846,601.27300000000002,-35.072000000000003,-929.41300000000001,103.586
8053.0,1739.5799999999999,-229.97800000000001,101.86,673.06700000000001,-20.5626,-889.62699999999995,90.621499999999997
8054.0,1740.5899999999999,-352.63799999999998,100.41800000000001,738.39800000000002,-8.3973999999999993,-838.72500000000002,76.881799999999998
8055.0,1740.9400000000001,-461.13400000000001,103.283,803.36500000000001,1.8635200000000001,-777.88999999999999,62.510399999999997
8056.0,1740.48,-565.17200000000003,100.304,856.29100000000005,10.0703,-708.18600000000004,48.0411
8057.0,1739.8599999999999,-651.23500000000001,104.41200000000001,910.24599999999998,16.1037,-630.80499999999995,33.134999999999998
8058.0,1738.5,-731.23800000000006,103.34099999999999,951.88300000000004,19.906300000000002,-546.33199999999999,18.514099999999999
8059.0,1527.7,1021.53,164.74100000000001,-405.01299999999998,-205.553,418.82400000000001,-211.35499999999999
8060.0,1535.2,1072.4000000000001,171.994,-451.65100000000001,-218.482,337.005,-192.965
8061.0,1545.46,1099.53,166.154,-508.125,-229.26400000000001,247.59,-174.797
8062.0,1556.54,1123.05,169.751,-549.59199999999998,-236.75399999999999,151.43100000000001,-156.946
8063.0,1568.8800000000001,1121.02,162.352,-595.72799999999995,-241.566,49.623199999999997,-139.59200000000001
8064.0,1581.9400000000001,1113.8099999999999,165.69800000000001,-623.41600000000005,-243.43799999999999,-56.552799999999998,-122.944
8065.0,1595.3,1077.5999999999999,157.42099999999999,-654.15999999999997,-242.499,-165.32400000000001,-107.05
8066.0,1608.6700000000001,1033.99,159.47499999999999,-664.87099999999998,-238.70500000000001,-274.53800000000001,-92.2881
8067.0,1621.0599999999999,961.62699999999995,152.47999999999999,-675.31899999999996,-232.31399999999999,-381.88299999999998,-78.8446
8068.0,1632.95,879.23099999999999,152.45599999999999,-668.19500000000005,-223.048,-485.00999999999999,-67.009900000000002
8069.0,1643.1199999999999,771.66800000000001,149.071,-657.17399999999998,-213.131,-581.46299999999997,-56.703200000000002
8070.0,1652.03,651.66899999999998,147.73599999999999,-634.49699999999996,-197.142,-669.649,-49.2654
8071.0,1665.7,475.62299999999999,89.014300000000006,-652.35400000000004,-182.233,-749.17399999999998,-42.578800000000001
8072.0,1677.1300000000001,299.358,45.365299999999998,-649.68799999999999,-175.40799999999999,-814.99099999999999,-35.0441
8073.0,1684.55,148.214,39.7318,-603.44399999999996,-164.43000000000001,-867.69600000000003,-29.8977
8074.0,1694.0,16.122599999999998,49.395299999999999,-529.40700000000004,-152.208,-909.44500000000005,-25.777699999999999
8075.0,1702.99,-127.627,43.959600000000002,-463.22899999999998,-142.08799999999999,-937.82299999999998,-21.726900000000001
8076.0,1710.3,-257.71499999999997,48.851399999999998,-380.80099999999999,-132.221,-953.029,-18.558
8077.0,1716.3599999999999,-390.61099999999999,45.830500000000001,-302.57900000000001,-123.46899999999999,-955.61199999999997,-16.091100000000001
8078.0,1720.45,-506.72800000000001,54.258099999999999,-211.57300000000001,-115.542,-945.69200000000001,-14.6698
8079.0,1722.49,-629.05499999999995,50.012700000000002,-133.56899999999999,-108.51600000000001,-923.91999999999996,-13.9352
8080.0,1722.54,-733.50400000000002,56.653599999999997,-46.967300000000002,-102.554,-891.029,-14.017200000000001
8081.0,1720.74,-842.39499999999998,50.936900000000001,23.7164,-97.647099999999995,-847.98599999999999,-14.6936
8082.0,1717.3299999999999,-932.02099999999996,56.1569,100.474,-93.932599999999994,-795.76599999999996,-15.8994
8083.0,1712.5999999999999,-1024.3900000000001,49.668799999999997,159.77500000000001,-91.448999999999998,-735.53300000000002,-17.446100000000001
8084.0,1706.8399999999999,-1094.0599999999999,56.793500000000002,226.09200000000001,-90.305899999999994,-668.26999999999998,-19.2852
8085.0,1699.9200000000001,-1167.75,50.036499999999997,271.34899999999999,-90.427300000000002,-595.08000000000004,-21.208200000000001
8086.0,1692.49,-1218.9400000000001,55.938400000000001,321.14299999999997,-91.999499999999998,-517.63400000000001,-22.8809
8087.0,1513.55,594.57299999999998,122.82599999999999,-801.57000000000005,-41.1355,335.637,-380.637
8088.0,1518.3699999999999,626.00199999999995,128.54900000000001,-853.71400000000006,-64.999600000000001,255.869,-363.05399999999997
8089.0,1525.76,655.678,142.042,-890.54300000000001,-86.847800000000007,170.86600000000001,-345.108
8090.0,1534.8599999999999,663.90999999999997,145.24799999999999,-930.12599999999998,-105.572,80.506299999999996,-326.45100000000002
8091.0,1545.1500000000001,669.13400000000001,157.738,-951.32899999999995,-121.782,-13.8543,-307.51900000000001
8092.0,1556.47,649.41999999999996,157.75399999999999,-974.92499999999995,-135.239,-110.723,-288.29899999999998
8093.0,1568.24,628.19799999999998,170.40299999999999,-975.572,-146.03999999999999,-208.40100000000001,-269.35500000000002
8094.0,1580.4400000000001,580.41099999999994,169.13800000000001,-978.80600000000004,-154.024,-305.00999999999999,-250.666
8095.0,1591.8299999999999,530.39300000000003,182.625,-958.00900000000001,-159.50800000000001,-398.29500000000002,-233.107
8096.0,1603.03,453.13499999999999,179.28,-942.20600000000002,-161.625,-486.80700000000002,-216.44900000000001
8097.0,1611.53,375.41199999999998,198.70099999999999,-899.36500000000001,-163.75999999999999,-566.89800000000002,-201.20400000000001
8098.0,1619.3800000000001,249.084,172.07599999999999,-888.65899999999999,-155.357,-640.36400000000003,-188.86699999999999
8099.0,1629.02,85.366,105.318,-905.27099999999996,-155.328,-704.524,-173.916
8100.0,1634.6900000000001,-49.927599999999998,91.485200000000006,-871.93200000000002,-159.44499999999999,-754.32500000000005,-160.20099999999999
8101.0,1638.3,-149.84299999999999,110.224,-792.83299999999997,-154.95500000000001,-794.87900000000002,-150.79400000000001
8102.0,1639.4100000000001,-267.64699999999999,103.73,-728.53399999999999,-154.04499999999999,-824.17600000000004,-138.05799999999999
8103.0,1637.3599999999999,-364.24099999999999,115.84399999999999,-639.80700000000002,-151.65799999999999,-841.66300000000001,-126.548
8104.0,1633.49,-466.86500000000001,115.191,-557.70399999999995,-150.08000000000001,-848.745,-115.035
8105.0,1626.5999999999999,-556.06700000000001,122.73399999999999,-465.44299999999998,-148.191,-844.51900000000001,-104.602
8106.0,1617.3900000000001,-651.45699999999999,117.621,-384.65800000000002,-146.41999999999999,-830.10500000000002,-94.7744
8107.0,1606.1400000000001,-728.71799999999996,124.679,-293.56099999999998,-144.83600000000001,-805.86699999999996,-86.029200000000003
8108.0,1593.1199999999999,-810.86099999999999,120.154,-216.797,-143.43299999999999,-772.74599999999998,-78.094899999999996
8109.0,1578.79,-874.50699999999995,127.404,-132.70699999999999,-142.518,-731.57799999999997,-71.019099999999995
8110.0,1563.4200000000001,-941.78599999999994,123.749,-64.741299999999995,-142.05799999999999,-683.40999999999997,-64.654600000000002
8111.0,1547.28,-990.80700000000002,130.74000000000001,7.9683000000000002,-142.22499999999999,-629.21400000000006,-58.909399999999998
8112.0,1530.52,-1044.79,125.042,61.236899999999999,-143.001,-569.97199999999998,-53.544699999999999
8113.0,1513.73,-1079.3099999999999,130.76900000000001,119.491,-144.292,-506.96899999999999,-48.6477
8114.0,1497.22,-1116.8299999999999,126.429,160.702,-146.46000000000001,-440.53500000000003,-43.315199999999997
8115.0,1347.8199999999999,367.36000000000001,61.329500000000003,-804.90899999999999,22.777200000000001,248.99100000000001,-416.31
8116.0,1356.3199999999999,375.51400000000001,55.936399999999999,-866.25999999999999,-2.9871799999999999,183.41,-404.709
8117.0,1364.6199999999999,408.73599999999999,83.304400000000001,-886.54700000000003,-26.640899999999998,112.61799999999999,-391.52800000000002
8118.0,1372.97,399.67200000000003,76.5154,-932.31299999999999,-48.5578,37.7789,-376.61500000000001
8119.0,1381.1800000000001,413.97800000000001,102.66500000000001,-935.68700000000001,-68.475399999999993,-40.117400000000004,-360.755
8120.0,1389.28,386.76499999999999,95.847899999999996,-961.72199999999998,-86.381500000000003,-119.678,-343.51299999999998
8121.0,1396.8,380.49000000000001,120.812,-945.64200000000005,-102.19199999999999,-199.43100000000001,-325.94400000000002
8122.0,1403.95,331.97199999999998,111.72,-952.50300000000004,-115.581,-277.89299999999997,-307.59199999999998
8123.0,1409.8599999999999,304.91399999999999,137.71799999999999,-915.60000000000002,-126.863,-352.89499999999998,-289.98500000000001
8124.0,1415.04,231.62299999999999,123.474,-907.70100000000002,-134.648,-423.75400000000002,-272.45499999999998
8125.0,1417.46,183.505,154.89099999999999,-851.58900000000006,-142.886,-485.72000000000003,-256.61399999999998
8126.0,1419.25,69.343500000000006,120.102,-847.93200000000002,-140.20599999999999,-543.44500000000005,-244.11199999999999
8127.0,1421.8599999999999,-60.585099999999997,65.177000000000007,-853.93600000000004,-146.678,-593.27700000000004,-228.19
8128.0,1419.53,-178.67699999999999,44.385199999999998,-832.39700000000005,-155.20400000000001,-628.72299999999996,-211.34700000000001
8129.0,1413.5699999999999,-242.93899999999999,70.687200000000004,-750.37800000000004,-153.94,-656.93100000000004,-197.84100000000001
8130.0,1405.5699999999999,-335.35300000000001,60.159100000000002,-695.33900000000006,-157.655,-676.69899999999996,-181.56700000000001
8131.0,1394.1500000000001,-391.89299999999997,81.852099999999993,-602.41899999999998,-159.22399999999999,-686.83399999999995,-167.209
8132.0,1379.4000000000001,-475.04700000000003,68.342200000000005,-538.92600000000004,-160.68700000000001,-688.51199999999994,-151.727
8133.0,1362.27,-522.10500000000002,86.665700000000001,-442.00900000000001,-161.41999999999999,-681.33399999999995,-137.482
8134.0,1343.26,-590.01099999999997,77.695099999999996,-371.64400000000001,-161.52699999999999,-666.42600000000004,-123.81999999999999
8135.0,1322.53,-630.41200000000003,91.536199999999994,-280.61000000000001,-161.36000000000001,-643.61900000000003,-111.374
8136.0,1300.8499999999999,-688.851,81.521600000000007,-216.10400000000001,-160.816,-614.25099999999998,-99.893900000000002
8137.0,1278.3099999999999,-721.56200000000001,91.811000000000007,-135.816,-160.369,-578.68399999999997,-89.554199999999994
8138.0,1255.3599999999999,-770.13099999999997,80.303399999999996,-82.072699999999998,-159.74100000000001,-538.09100000000001,-80.053399999999996
8139.0,1232.29,-793.39400000000001,88.246600000000001,-14.564299999999999,-159.43000000000001,-493.19600000000003,-71.503299999999996
8140.0,1209.47,-828.298,78.8095,29.573399999999999,-159.25299999999999,-444.98399999999998,-63.510599999999997
8141.0,1187.01,-840.71100000000001,85.667299999999997,84.4208,-159.44900000000001,-394.16899999999998,-56.557400000000001
8142.0,1164.51,-863.09100000000001,76.749799999999993,116.355,-160.142,-341.44600000000003,-49.347200000000001
8143.0,1101.01,312.25099999999998,65.284899999999993,-611.43299999999999,32.500700000000002,183.185,-375.19200000000001
8144.0,1111.8299999999999,322.30099999999999,68.818700000000007,-657.01999999999998,10.095000000000001,132.39599999999999,-368.86599999999999
8145.0,1121.6099999999999,339.31700000000001,84.858800000000002,-683.37400000000002,-10.6241,77.217500000000001,-360.26299999999998
8146.0,1130.4200000000001,338.25599999999997,88.811899999999994,-713.92100000000005,-30.671099999999999,18.6661,-349.83300000000003
8147.0,1137.99,341.65600000000001,103.925,-724.86699999999996,-49.368699999999997,-42.339300000000001,-337.584
8148.0,1144.3299999999999,326.57799999999997,106.66,-738.58500000000004,-66.791200000000003,-104.72799999999999,-323.791
8149.0,1149.3299999999999,316.95299999999997,122.005,-730.36599999999999,-82.7059,-167.19900000000001,-308.68400000000003
8150.0,1153.0599999999999,288.43900000000002,124.393,-724.91300000000001,-96.803899999999999,-228.72399999999999,-292.64800000000002
8151.0,1155.28,264.16800000000001,139.904,-698.24000000000001,-109.111,-287.38600000000002,-276.34699999999998
8152.0,1156.28,219.959,140.79499999999999,-676.72199999999998,-118.47799999999999,-342.726,-260.23599999999999
8153.0,1155.4300000000001,180.55500000000001,159.45099999999999,-634.65099999999995,-127.673,-390.79300000000001,-245.04900000000001
8154.0,1152.8399999999999,108.81100000000001,151.37100000000001,-611.02200000000005,-129.15600000000001,-434.185,-232.983
8155.0,1150.0699999999999,-4.91988,95.509200000000007,-624.53099999999995,-132.60499999999999,-472.89499999999998,-218.16499999999999
8156.0,1144.6800000000001,-108.93300000000001,61.3645,-619.774,-142.054,-500.35000000000002,-201.44900000000001
8157.0,1135.21,-160.83000000000001,78.647999999999996,-556.577,-145.345,-519.46299999999997,-188.904
8158.0,1122.1400000000001,-221.59399999999999,76.158199999999994,-502.91300000000001,-147.892,-532.54999999999995,-174.34399999999999
8159.0,1106.04,-266.649,84.7654,-433.25799999999998,-149.959,-538.851,-158.08699999999999
8160.0,1087.8299999999999,-311.827,87.192400000000006,-364.87599999999998,-151.30500000000001,-538.57799999999997,-142.93299999999999
8161.0,1067.5,-348.548,92.874499999999998,-291.06099999999998,-151.595,-531.88199999999995,-127.982
8162.0,1045.3800000000001,-390.67500000000001,88.747500000000002,-226.92099999999999,-151.149,-518.68399999999997,-114.06999999999999
8163.0,1022.45,-419.04399999999998,94.232200000000006,-154.26300000000001,-149.976,-499.84500000000003,-101.232
8164.0,998.91999999999996,-454.12200000000001,89.036900000000003,-95.334400000000002,-148.35900000000001,-475.69999999999999,-89.566800000000001
8165.0,975.44799999999998,-474.44200000000001,94.641499999999994,-29.206800000000001,-146.364,-447.12400000000002,-79.072500000000005
8166.0,952.28399999999999,-501.00999999999999,90.042699999999996,21.948699999999999,-144.44200000000001,-414.69299999999998,-69.784999999999997
8167.0,929.678,-513.41700000000003,95.2684,78.340599999999995,-142.38200000000001,-379.31099999999998,-61.5717
8168.0,907.50199999999995,-533.69299999999998,88.532700000000006,117.038,-140.59899999999999,-341.435,-54.187100000000001
8169.0,885.99699999999996,-539.48299999999995,91.676199999999994,161.03,-138.55199999999999,-301.98200000000003,-47.870800000000003
8170.0,865.197,-551.24300000000005,85.421300000000002,189.143,-137.19300000000001,-261.26799999999997,-41.556800000000003
8171.0,845.84900000000005,268.97699999999998,28.6282,-433.90800000000002,16.0717,138.36500000000001,-302.42099999999999
8172.0,856.81500000000005,330.94099999999997,86.4041,-416.07799999999997,-1.2447299999999999,100.18300000000001,-299.36399999999998
8173.0,866.32299999999998,288.37400000000002,43.716000000000001,-493.57799999999997,-17.482700000000001,58.315300000000001,-294.053
8174.0,874.45500000000004,342.524,102.199,-463.30500000000001,-33.621299999999998,13.8345,-287.08300000000003
8175.0,881.05700000000002,290.66899999999998,59.176600000000001,-527.75,-48.864400000000003,-32.655200000000001,-278.06400000000002
8176.0,886.04700000000003,336.75200000000001,118.664,-481.71300000000002,-63.386699999999998,-80.322800000000001,-267.53199999999998
8177.0,889.41499999999996,275.11700000000002,74.810699999999997,-531.07000000000005,-76.8429,-128.21600000000001,-255.245
8178.0,891.15800000000002,311.23099999999999,133.34399999999999,-469.541,-89.067099999999996,-175.47800000000001,-241.95500000000001
8179.0,891.38800000000003,239.98099999999999,89.4148,-502.94200000000001,-99.7654,-220.88999999999999,-227.73500000000001
8180.0,890.13900000000001,263.548,145.727,-428.79000000000002,-108.45099999999999,-263.57900000000001,-213.697
8181.0,887.53499999999997,180.11699999999999,101.53,-450.78100000000001,-115.77,-301.64600000000002,-199.92500000000001
8182.0,882.76999999999998,189.61600000000001,158.24000000000001,-368.05599999999998,-119.785,-334.154,-188.65799999999999
8183.0,876.37900000000002,61.389899999999997,73.796800000000005,-416.46300000000002,-120.83199999999999,-362.54700000000003,-178.411
8184.0,869.154,8.9728700000000003,68.176500000000004,-385.43200000000002,-125.996,-384.81599999999997,-164.46299999999999
8185.0,860.654,-101.797,10.4374,-410.78699999999998,-129.577,-400.20400000000001,-149.571
8186.0,849.35199999999998,-85.242800000000003,72.201999999999998,-307.846,-131.006,-409.52600000000001,-138.30799999999999
8187.0,835.60699999999997,-168.91800000000001,26.197700000000001,-303.608,-132.357,-414.52499999999998,-126.096
8188.0,819.88300000000004,-152.98699999999999,75.208600000000004,-202.30099999999999,-132.32499999999999,-414.62900000000002,-112.797
8189.0,801.89599999999996,-227.60599999999999,29.6159,-193.26400000000001,-131.44,-409.33300000000003,-100.065
8190.0,783.23699999999997,-202.94900000000001,80.956599999999995,-86.265299999999996,-129.57300000000001,-399.41199999999998,-88.3416
8191.0,764.36699999999996,-274.58199999999999,32.949199999999998,-80.374099999999999,-127.071,-385.31099999999998,-77.145600000000002
8192.0,745.09699999999998,-246.49299999999999,82.255099999999999,20.815100000000001,-124.31699999999999,-366.714,-67.617099999999994
8193.0,726.08900000000006,-314.45100000000002,32.216000000000001,20.1694,-121.089,-344.80500000000001,-58.875399999999999
8194.0,707.44200000000001,-284.08300000000003,77.992000000000004,111.38,-117.886,-319.661,-51.417400000000001
8195.0,689.73900000000003,-347.375,27.017299999999999,102.175,-114.456,-292.37,-44.875900000000001
8196.0,672.971,-310.94400000000002,73.379000000000005,185.27699999999999,-111.586,-263.089,-39.404200000000003
8197.0,657.53399999999999,-367.45400000000001,23.732500000000002,168.48500000000001,-108.768,-232.779,-35.0976
8198.0,642.33500000000004,-325.13,70.259900000000002,241.83799999999999,-106.745,-201.583,-31.043099999999999
8199.0,648.12900000000002,332.31799999999998,91.607200000000006,-210.321,-2.8024200000000001,110.995,-231.88200000000001
8200.0,657.19399999999996,297.48200000000003,52.482799999999997,-280.28699999999998,-15.9283,81.851500000000001,-230.041
8201.0,665.02700000000004,348.83699999999999,102.676,-257.03800000000001,-28.121500000000001,49.649500000000003,-226.53700000000001
8202.0,671.79600000000005,308.36500000000001,64.3035,-317.58999999999997,-40.401299999999999,15.478,-221.41999999999999
8203.0,677.13099999999997,352.35599999999999,113.92700000000001,-284.66300000000001,-52.029899999999998,-20.4312,-214.767
8204.0,681.08699999999999,304.91000000000003,75.309799999999996,-333.93000000000001,-63.215600000000002,-57.276499999999999,-206.47399999999999
8205.0,683.53499999999997,342.74299999999999,125.208,-288.065,-73.628299999999996,-94.504499999999993,-196.762
8206.0,684.51700000000005,289.81200000000001,87.570300000000003,-323.04300000000001,-83.187200000000004,-131.37799999999999,-185.71799999999999
8207.0,684.09400000000005,320.471,136.661,-264.452,-91.524000000000001,-167.166,-173.79599999999999
8208.0,682.24400000000003,261.43599999999998,100.411,-285.46199999999999,-98.537199999999999,-200.92699999999999,-161.505
8209.0,679.11500000000001,282.726,148.03899999999999,-217.179,-103.58799999999999,-231.767,-149.601
8210.0,674.80100000000004,212.54300000000001,110.694,-232.03899999999999,-107.88500000000001,-258.05700000000002,-138.94
8211.0,669.85000000000002,216.48699999999999,150.24700000000001,-166.19,-108.369,-280.74099999999999,-131.072
8212.0,663.56299999999999,103.824,67.574399999999997,-214.58000000000001,-109.76000000000001,-299.04599999999999,-122.116
8213.0,652.68600000000004,68.288799999999995,67.958200000000005,-180.642,-113.663,-310.154,-110.711
8214.0,643.02300000000002,-18.318899999999999,16.7363,-199.33600000000001,-111.88200000000001,-319.20100000000002,-99.860100000000003
8215.0,634.79999999999995,-4.2891700000000004,61.2652,-121.111,-111.97199999999999,-324.685,-88.493600000000001
8216.0,624.00199999999995,-69.260199999999998,25.394600000000001,-118.322,-110.752,-325.26799999999997,-79.940600000000003
8217.0,614.39400000000001,-52.3857,66.635099999999994,-34.719000000000001,-108.331,-323.89800000000002,-71.106099999999998
8218.0,602.92399999999998,-117.238,24.879799999999999,-36.466799999999999,-106.886,-317.53300000000002,-61.9651
8219.0,589.36199999999997,-96.621700000000004,66.4773,46.4771,-103.41800000000001,-306.86799999999999,-54.829599999999999
8220.0,576.24900000000002,-158.72800000000001,23.4924,43.939999999999998,-100.024,-293.286,-47.080800000000004
8221.0,563.38499999999999,-134.625,65.200800000000001,123.59999999999999,-96.409099999999995,-276.56700000000001,-40.984099999999998
8222.0,551.30399999999997,-190.779,24.240200000000002,118.60599999999999,-93.089299999999994,-257.37700000000001,-35.503599999999999
8223.0,539.99699999999996,-162.90199999999999,65.224800000000002,192.41499999999999,-89.956299999999999,-236.05099999999999,-31.2319
8224.0,529.49199999999996,-216.32300000000001,22.409700000000001,179.108,-86.889700000000005,-213.28999999999999,-27.561299999999999
8225.0,519.41200000000003,-187.047,60.030299999999997,242.477,-83.8035,-189.273,-24.732099999999999
8226.0,510.01900000000001,-236.83600000000001,16.464600000000001,220.584,-81.187100000000001,-164.63499999999999,-22.370799999999999
8227.0,512.18700000000001,285.34699999999998,47.158700000000003,-146.95400000000001,-17.107600000000001,93.833200000000005,-177.38300000000001
8228.0,518.87400000000002,329.60399999999998,86.302499999999995,-131.28899999999999,-27.0869,70.797399999999996,-175.60400000000001
8229.0,524.73099999999999,301.72699999999998,55.646799999999999,-182.453,-36.493200000000002,45.3399,-172.571
8230.0,529.79899999999998,341.339,95.203800000000001,-159.78999999999999,-45.760300000000001,18.260000000000002,-168.36199999999999
8231.0,533.90300000000002,308.14600000000002,64.662700000000001,-203.113,-54.549999999999997,-10.216900000000001,-162.917
8232.0,536.96100000000001,343.12900000000002,104.983,-170.928,-62.905700000000003,-39.539999999999999,-156.22399999999999
8233.0,538.96799999999996,304.21300000000002,73.784099999999995,-205.11000000000001,-70.685599999999994,-69.277699999999996,-148.273
8234.0,539.78499999999997,333.63,113.589,-162.96799999999999,-77.778000000000006,-98.871099999999998,-139.209
8235.0,539.62099999999998,289.81200000000001,82.188299999999998,-186.32599999999999,-83.932299999999998,-127.88,-129.15100000000001
8236.0,538.06399999999996,312.71199999999999,121.065,-134.51300000000001,-89.103399999999993,-155.387,-118.646
8237.0,535.83500000000004,261.87200000000001,88.041700000000006,-149.405,-92.541600000000003,-181.179,-108.131
8238.0,532.01400000000001,279.99400000000003,129.61500000000001,-87.923599999999993,-95.697299999999998,-203.369,-98.045100000000005
8239.0,526.64300000000003,220.578,95.467500000000001,-98.428600000000003,-94.774500000000003,-222.69200000000001,-89.6751
8240.0,524.01499999999999,213.83000000000001,111.71299999999999,-55.469000000000001,-96.409499999999994,-238.69900000000001,-82.312200000000004
8241.0,518.76800000000003,158.14400000000001,86.221400000000003,-55.365499999999997,-98.782700000000006,-249.35900000000001,-77.252499999999998
8242.0,512.13900000000001,135.03800000000001,85.306399999999996,-20.628499999999999,-95.172700000000006,-258.774,-71.313900000000004
8243.0,505.23099999999999,47.070099999999996,19.878399999999999,-56.548900000000003,-96.832800000000006,-263.03100000000001,-60.317599999999999
8244.0,496.642,62.928699999999999,65.242400000000004,14.584099999999999,-93.167599999999993,-264.09500000000003,-54.5276
8245.0,491.827,-19.831399999999999,4.3474500000000003,-12.979699999999999,-88.046099999999996,-265.33300000000003,-48.192799999999998
8246.0,485.80399999999997,-21.044899999999998,27.767199999999999,37.651899999999998,-86.801900000000003,-261.779,-40.223500000000001
8247.0,479.19499999999999,-71.4131,2.2014800000000001,40.041200000000003,-83.912499999999994,-254.81,-36.895800000000001
8248.0,472.29300000000001,-60.122599999999998,33.825699999999998,100.92400000000001,-81.835899999999995,-245.005,-32.935899999999997
8249.0,463.69200000000001,-113.273,-0.13070999999999999,95.261399999999995,-78.864099999999993,-231.69800000000001,-29.473800000000001
8250.0,456.113,-101.63500000000001,28.560400000000001,151.67599999999999,-75.975899999999996,-216.49199999999999,-25.675899999999999
8251.0,449.12400000000002,-152.43799999999999,-6.8527300000000002,141.78700000000001,-73.141999999999996,-199.333,-22.603999999999999
8252.0,443.30599999999998,-134.27600000000001,23.815200000000001,196.58699999999999,-70.798900000000003,-180.82900000000001,-20.235900000000001
8253.0,438.11399999999998,-178.01599999999999,-9.7965199999999992,184.20500000000001,-69.299899999999994,-161.15000000000001,-18.7927
8254.0,433.38099999999997,-153.82300000000001,22.575900000000001,234.512,-68.045000000000002,-140.864,-18.095300000000002
8255.0,427.00200000000001,309.84199999999998,81.066900000000004,-50.453800000000001,-24.1435,81.813599999999994,-142.334
8256.0,431.80700000000002,288.70600000000002,54.180500000000002,-95.542000000000002,-32.254100000000001,62.715200000000003,-140.24299999999999
8257.0,436.29000000000002,326.75,88.290800000000004,-77.399600000000007,-39.970599999999997,41.787300000000002,-137.22300000000001
8258.0,440.19799999999998,300.97699999999998,61.0366,-117.91,-47.345700000000001,19.409199999999998,-133.40299999999999
8259.0,443.50900000000001,333.78500000000003,94.599400000000003,-94.419499999999999,-54.2746,-4.1387900000000002,-128.66399999999999
8260.0,446.12299999999999,302.846,66.774500000000003,-128.745,-60.7453,-28.453099999999999,-123.036
8261.0,448.06200000000001,331.50999999999999,100.60299999999999,-97.418999999999997,-66.709800000000001,-53.191499999999998,-116.42700000000001
8262.0,449.17599999999999,297.142,73.607500000000002,-122.66800000000001,-72.070099999999996,-77.905299999999997,-108.93899999999999
8263.0,449.55799999999999,321.12799999999999,106.786,-83.148399999999995,-76.712400000000002,-102.28400000000001,-100.554
8264.0,448.94099999999997,283.959,81.298500000000004,-98.008300000000006,-80.495699999999999,-125.627,-91.656300000000002
8265.0,447.60199999999998,302.70600000000002,113.553,-50.510800000000003,-83.150499999999994,-147.78,-82.380200000000002
8266.0,444.76100000000002,259.524,87.264799999999994,-58.652900000000002,-84.966999999999999,-167.22300000000001,-73.400300000000001
8267.0,441.89800000000002,269.62599999999998,114.807,-8.9305400000000006,-84.986999999999995,-184.56100000000001,-65.778999999999996
8268.0,438.99700000000001,223.41499999999999,88.914299999999997,-12.606999999999999,-85.436400000000006,-198.999,-57.640900000000002
8269.0,434.79199999999997,236.096,125.495,44.216799999999999,-83.749899999999997,-210.11500000000001,-50.759300000000003
8270.0,433.15699999999998,182.90299999999999,91.925399999999996,37.770600000000002,-82.081699999999998,-219.58600000000001,-46.982599999999998
8271.0,430.786,178.31200000000001,107.691,82.151899999999998,-82.485399999999998,-225.363,-42.256999999999998
8272.0,425.428,112.62,63.9938,64.642200000000003,-80.185699999999997,-227.375,-37.717100000000002
8273.0,420.36900000000003,99.043000000000006,71.226799999999997,99.122399999999999,-77.639600000000002,-226.69,-35.046799999999998
8274.0,416.57799999999997,10.1982,4.4736399999999996,58.240000000000002,-74.577200000000005,-224.52799999999999,-31.607700000000001
8275.0,411.96899999999999,-6.21502,14.0992,86.6571,-72.317099999999996,-219.66399999999999,-26.587199999999999
8276.0,407.31900000000002,-61.9529,-14.8131,74.907200000000003,-70.133300000000006,-211.94399999999999,-25.101099999999999
8277.0,404.25999999999999,-56.442500000000003,13.5991,123.28700000000001,-68.978099999999998,-202.315,-24.068899999999999
8278.0,400.01400000000001,-103.857,-13.909000000000001,114.962,-68.756200000000007,-189.77199999999999,-22.3462
8279.0,395.76499999999999,-90.594800000000006,15.481999999999999,164.59100000000001,-67.658600000000007,-175.37,-21.0549
8280.0,392.08999999999997,-134.33099999999999,-15.052899999999999,153.89599999999999,-66.111099999999993,-159.809,-18.997599999999998
8281.0,388.56599999999997,-119.93899999999999,9.5832499999999996,197.12700000000001,-63.154299999999999,-143.58699999999999,-17.5777
8282.0,384.46499999999997,-161.55699999999999,-24.057600000000001,179.423,-60.765300000000003,-126.143,-15.3972
8283.0,370.69900000000001,254.54900000000001,37.899000000000001,-55.290799999999997,-26.444199999999999,71.902100000000004,-121.105
8284.0,374.59199999999998,293.46199999999999,70.969300000000004,-37.323999999999998,-33.515799999999999,55.6419,-118.794
8285.0,378.29899999999998,271.80599999999998,44.965000000000003,-76.449299999999994,-40.218800000000002,37.836300000000001,-115.791
8286.0,381.59899999999999,305.99099999999999,76.9375,-55.425199999999997,-46.500900000000001,18.728200000000001,-112.21299999999999
8287.0,384.52199999999999,280.40499999999997,51.158499999999997,-89.616600000000005,-52.3095,-1.42456,-108.01000000000001
8288.0,387.02999999999997,310.435,83.041200000000003,-63.291600000000003,-57.655799999999999,-22.289000000000001,-103.17100000000001
8289.0,389.07400000000001,280.339,56.774299999999997,-91.964299999999994,-62.504100000000001,-43.554299999999998,-97.656700000000001
8290.0,390.63499999999999,305.37799999999999,87.495699999999999,-60.221899999999998,-66.814700000000002,-64.895099999999999,-91.453000000000003
8291.0,391.57999999999998,271.94600000000003,61.645200000000003,-81.429500000000004,-70.513599999999997,-85.962400000000002,-84.584900000000005
8292.0,391.92099999999999,291.59100000000001,90.616100000000003,-44.033799999999999,-73.489599999999996,-106.40000000000001,-77.144599999999997
8293.0,391.363,254.55199999999999,64.966399999999993,-57.587299999999999,-75.648600000000002,-125.68000000000001,-69.316500000000005
8294.0,390.286,270.86599999999999,94.213899999999995,-12.914899999999999,-76.818100000000001,-143.37200000000001,-61.498199999999997
8295.0,388.64299999999997,232.166,70.828699999999998,-18.462,-77.219700000000003,-159.309,-53.566099999999999
8296.0,385.78800000000001,243.761,98.701599999999999,30.349399999999999,-76.5749,-172.42099999999999,-46.279699999999998
8297.0,383.209,197.86699999999999,68.676900000000003,24.055499999999999,-75.530799999999999,-183.03299999999999,-39.9405
8298.0,380.99000000000001,210.505,100.28700000000001,77.076599999999999,-73.856800000000007,-191.61000000000001,-33.669899999999998
8299.0,379.24799999999999,167.13900000000001,76.834900000000005,75.744299999999996,-71.252799999999993,-198.07300000000001,-29.693000000000001
8300.0,379.35199999999998,165.23599999999999,93.401399999999995,117.65600000000001,-70.289000000000001,-202.411,-26.892399999999999
8301.0,376.45499999999998,119.322,70.836100000000002,115.459,-69.973299999999995,-202.42500000000001,-25.3155
8302.0,374.57299999999998,104.246,75.697500000000005,145.358,-67.036000000000001,-200.83600000000001,-26.702100000000002
8303.0,371.28100000000001,21.602499999999999,12.7155,103.22199999999999,-67.963700000000003,-195.624,-23.941700000000001
8304.0,363.93299999999999,6.7789000000000001,24.837,128.87799999999999,-66.005899999999997,-186.762,-23.854700000000001
8305.0,362.00200000000001,-75.301599999999993,-33.012999999999998,86.138800000000003,-63.023800000000001,-179.38200000000001,-22.886099999999999
8306.0,358.81999999999999,-82.530000000000001,-17.211500000000001,112.012,-63.208199999999998,-169.517,-19.593299999999999
8307.0,355.53399999999999,-126.08799999999999,-42.752800000000001,100.919,-62.040999999999997,-157.298,-18.884799999999998
8308.0,352.19099999999997,-108.512,-13.955500000000001,147.101,-61.226100000000002,-143.58699999999999,-16.652200000000001
8309.0,349.93099999999998,-145.36699999999999,-46.3566,136.77199999999999,-59.186900000000001,-128.596,-16.943300000000001
8310.0,347.22699999999998,-113.56699999999999,-13.273400000000001,187.94900000000001,-59.698900000000002,-113.36799999999999,-13.9978
8311.0,330.5,263.85599999999999,60.115099999999998,-8.1364699999999992,-26.129100000000001,63.048299999999998,-108.29300000000001
8312.0,333.92000000000002,245.709,36.397799999999997,-44.914499999999997,-32.6143,48.9176,-105.97199999999999
8313.0,337.28699999999998,279.35500000000002,65.809799999999996,-26.9085,-38.706099999999999,33.409599999999998,-103.15300000000001
8314.0,340.38099999999997,257.31200000000001,41.396999999999998,-60.888399999999997,-44.351799999999997,16.673999999999999,-99.929599999999994
8315.0,343.23700000000002,286.33199999999999,69.869200000000006,-39.862299999999998,-49.535299999999999,-1.0094000000000001,-96.259200000000007
8316.0,345.82600000000002,259.89400000000001,44.768599999999999,-70.0642,-54.255899999999997,-19.365500000000001,-92.141900000000007
8317.0,348.13400000000001,285.22899999999998,73.247200000000007,-44.085999999999999,-58.502800000000001,-38.104500000000002,-87.555899999999994
8318.0,350.09399999999999,255.72900000000001,48.668100000000003,-68.363600000000005,-62.257100000000001,-56.947499999999998,-82.473100000000002
8319.0,351.63799999999998,276.88099999999997,76.462599999999995,-37.2928,-65.470299999999995,-75.587299999999999,-76.9054
8320.0,352.65600000000001,245.13300000000001,53.036299999999997,-54.314799999999998,-68.089200000000005,-93.720399999999998,-70.852699999999999
8321.0,353.08199999999999,262.56700000000001,80.443600000000004,-17.4146,-70.028199999999998,-110.949,-64.441999999999993
8322.0,352.88999999999999,226.53999999999999,55.947499999999998,-29.2605,-71.274600000000007,-127.02200000000001,-57.704000000000001
8323.0,351.673,239.01599999999999,81.267200000000003,11.867100000000001,-71.706500000000005,-141.21000000000001,-50.918799999999997
8324.0,350.41699999999997,201.096,57.216700000000003,5.5180899999999999,-71.385099999999994,-153.61600000000001,-44.341900000000003
8325.0,349.03800000000001,214.28200000000001,86.032899999999998,53.404400000000003,-70.471800000000002,-164.19200000000001,-38.1004
8326.0,347.14800000000002,170.768,57.751199999999997,47.512300000000003,-69.030699999999996,-172.26599999999999,-32.428800000000003
8327.0,345.16800000000001,179.74000000000001,83.048100000000005,94.913799999999995,-67.347499999999997,-177.887,-27.441199999999998
8328.0,344.214,140.65100000000001,62.054699999999997,95.405799999999999,-64.939700000000002,-182.142,-23.348500000000001
8329.0,342.416,146.46100000000001,88.069299999999998,140.983,-63.183,-183.40899999999999,-20.302
8330.0,341.19299999999998,97.654200000000003,59.7151,132.84399999999999,-61.186300000000003,-182.53,-20.139700000000001
8331.0,340.09199999999998,97.738500000000002,80.491399999999999,171.053,-62.251600000000003,-178.77500000000001,-20.147400000000001
8332.0,334.80500000000001,39.300400000000003,44.463799999999999,149.99700000000001,-62.342500000000001,-170.529,-22.2516
8333.0,330.20800000000003,0.42393700000000001,23.231300000000001,146.566,-60.994,-160.90700000000001,-23.5137
8334.0,326.03500000000003,-82.632099999999994,-43.972799999999999,92.927000000000007,-60.838900000000002,-150.989,-20.597899999999999
8335.0,321.21100000000001,-75.377899999999997,-22.955200000000001,125.76000000000001,-60.823099999999997,-139.59299999999999,-17.886500000000002
8336.0,317.70299999999997,-95.721599999999995,-33.378799999999998,129.65799999999999,-60.2057,-127.19,-17.287199999999999
8337.0,319.28899999999999,-65.822800000000001,3.09375,186.142,-58.189999999999998,-115.53400000000001,-17.052199999999999
8338.0,318.94,-67.218500000000006,8.6439400000000006,204.24299999999999,-58.417900000000003,-103.46599999999999,-13.1212
8339.0,297.53699999999998,213.80699999999999,22.147600000000001,-26.6127,-25.283100000000001,55.301099999999998,-98.284599999999998
8340.0,300.84899999999999,246.01300000000001,49.1633,-11.1829,-31.320900000000002,42.853099999999998,-96.241699999999994
8341.0,304.108,228.09299999999999,27.251300000000001,-43.255499999999998,-36.950099999999999,29.140899999999998,-93.752899999999997
8342.0,307.15600000000001,256.67000000000002,53.533999999999999,-25.566299999999998,-42.1252,14.3058,-90.953900000000004
8343.0,310.06400000000002,235.614,31.806699999999999,-54.055700000000002,-46.883000000000003,-1.41428,-87.807900000000004
8344.0,312.78300000000002,260.45999999999998,57.7072,-32.880000000000003,-51.1967,-17.763500000000001,-84.343199999999996
8345.0,315.33300000000003,235.38999999999999,35.343499999999999,-57.762,-55.075299999999999,-34.484999999999999,-80.5291
8346.0,317.64100000000002,255.67099999999999,60.018000000000001,-33.259399999999999,-58.491199999999999,-51.310200000000002,-76.3827
8347.0,319.654,227.51499999999999,37.863399999999999,-53.098799999999997,-61.428600000000003,-67.986500000000007,-71.876599999999996
8348.0,321.26400000000001,242.94800000000001,60.9116,-25.1828,-63.847900000000003,-84.216700000000003,-67.036699999999996
8349.0,322.39600000000002,211.71000000000001,38.8001,-39.771099999999997,-65.716300000000004,-99.739400000000003,-61.8675
8350.0,322.88299999999998,224.75299999999999,62.4253,-6.0171799999999998,-66.966099999999997,-114.161,-56.441299999999998
8351.0,322.96699999999998,192.15700000000001,41.722000000000001,-14.3269,-67.600499999999997,-127.31699999999999,-50.8767
8352.0,322.32900000000001,201.57900000000001,64.092299999999994,23.1252,-67.636799999999994,-138.85599999999999,-45.150399999999998
8353.0,321.02100000000002,164.88300000000001,40.8127,17.236899999999999,-67.010499999999993,-148.36000000000001,-39.484000000000002
8354.0,319.928,175.09800000000001,65.581699999999998,60.244500000000002,-65.895700000000005,-156.22900000000001,-34.145699999999998
8355.0,318.67700000000002,137.87899999999999,43.642400000000002,58.342199999999998,-64.394000000000005,-162.12299999999999,-29.167000000000002
8356.0,316.67700000000002,141.36500000000001,62.365499999999997,98.589100000000002,-62.629600000000003,-165.32599999999999,-24.684799999999999
8357.0,314.875,103.825,40.421900000000001,97.855099999999993,-60.665700000000001,-166.40199999999999,-21.2864
8358.0,312.84800000000001,109.05800000000001,63.131,140.14500000000001,-58.744100000000003,-165.31800000000001,-18.508199999999999
8359.0,309.70400000000001,71.070899999999995,44.5289,137.40199999999999,-56.809699999999999,-161.768,-16.954799999999999
8360.0,306.49599999999998,73.055499999999995,65.943100000000001,172.35599999999999,-56.282699999999998,-155.88999999999999,-17.459199999999999
8361.0,302.52999999999997,25.0745,35.285800000000002,155.37200000000001,-56.982199999999999,-147.00999999999999,-19.973600000000001
8362.0,300.65499999999997,1.90259,23.465,160.77699999999999,-57.5854,-137.68600000000001,-20.755400000000002
8363.0,296.947,-34.350999999999999,-1.82684,146.649,-59.198399999999999,-127.61499999999999,-17.0868
8364.0,292.86200000000002,-2.5942500000000002,41.451300000000003,201.26900000000001,-56.678800000000003,-116.503,-17.2332
8365.0,292.66199999999998,-34.3553,16.105599999999999,193.37899999999999,-52.309199999999997,-106.223,-14.9976
8366.0,288.846,-6.3905200000000004,51.350200000000001,238.91300000000001,-48.820599999999999,-94.093699999999998,-11.209
8367.0,268.60899999999998,221.102,40.565100000000001,8.24193,-24.7197,48.665599999999998,-88.954700000000003
8368.0,271.92599999999999,207.90299999999999,22.4986,-20.2624,-30.2834,37.633800000000001,-87.201300000000003
8369.0,275.18700000000001,233.68000000000001,44.535200000000003,-7.3983499999999998,-35.4651,25.429500000000001,-85.085599999999999
8370.0,278.24799999999999,217.12299999999999,25.767900000000001,-33.908200000000001,-40.238500000000002,12.171799999999999,-82.709800000000001
8371.0,281.21499999999997,238.94800000000001,46.838700000000003,-18.955500000000001,-44.619599999999998,-1.8941699999999999,-80.049099999999996
8372.0,284.053,218.73400000000001,27.436900000000001,-42.694800000000001,-48.601399999999998,-16.5563,-77.132099999999994
8373.0,286.78399999999999,237.48699999999999,48.502000000000002,-24.025400000000001,-52.179699999999997,-31.564399999999999,-73.949799999999996
8374.0,289.33999999999997,214.566,29.445399999999999,-43.430100000000003,-55.337800000000001,-46.686199999999999,-70.523899999999998
8375.0,291.68000000000001,229.50200000000001,49.7532,-21.347000000000001,-58.058100000000003,-61.672600000000003,-66.855699999999999
8376.0,293.70699999999999,204.50899999999999,31.636199999999999,-35.5017,-60.323700000000002,-76.279799999999994,-62.960099999999997
8377.0,295.32400000000001,216.02799999999999,51.475900000000003,-9.5094499999999993,-62.103900000000003,-90.236099999999993,-58.839799999999997
8378.0,296.48700000000002,187.24100000000001,32.373399999999997,-20.302499999999998,-63.391800000000003,-103.304,-54.5212
8379.0,297.00900000000001,194.767,50.742600000000003,8.65259,-64.1477,-115.17700000000001,-49.984900000000003
8380.0,297.04000000000002,164.75700000000001,32.623199999999997,2.9257599999999999,-64.363399999999999,-125.64400000000001,-45.388300000000001
8381.0,296.75,171.626,52.377200000000002,36.815300000000001,-64.119100000000003,-134.69499999999999,-40.744
8382.0,295.678,138.06399999999999,32.088799999999999,32.847000000000001,-63.355899999999998,-141.83699999999999,-35.961199999999998
8383.0,294.23500000000001,143.58600000000001,51.174399999999999,69.543599999999998,-62.078899999999997,-147.078,-31.289899999999999
8384.0,292.80200000000002,113.24299999999999,35.117699999999999,71.732299999999995,-60.451500000000003,-150.566,-26.934699999999999
8385.0,291.01900000000001,116.746,53.310000000000002,109.00700000000001,-58.520299999999999,-151.93100000000001,-22.923200000000001
8386.0,288.459,82.507099999999994,33.725000000000001,108.59399999999999,-56.4833,-150.72900000000001,-19.554200000000002
8387.0,285.17099999999999,83.927899999999994,49.4602,142.733,-54.468000000000004,-147.02099999999999,-17.357299999999999
8388.0,281.29199999999997,49.581299999999999,30.239699999999999,138.58099999999999,-52.743299999999998,-141.44,-15.782
8389.0,277.04300000000001,55.200000000000003,51.944299999999998,171.392,-51.135599999999997,-134.536,-15.4839
8390.0,274.62700000000001,22.144200000000001,32.210999999999999,164.25399999999999,-49.9861,-126.937,-15.477600000000001
8391.0,271.48200000000003,31.392700000000001,52.6252,195.93799999999999,-49.042099999999998,-118.209,-13.350099999999999
8392.0,267.738,4.4718200000000001,34.617800000000003,190.303,-46.081400000000002,-108.011,-12.563000000000001
8393.0,265.685,15.767099999999999,50.054900000000004,220.619,-43.468299999999999,-97.293000000000006,-11.6401
8394.0,263.029,-12.032400000000001,25.850000000000001,208.60400000000001,-41.695999999999998,-85.356800000000007,-10.8635
8395.0,242.21299999999999,184.833,14.720599999999999,-3.8570799999999998,-24.5746,43.2423,-79.167199999999994
8396.0,245.54900000000001,208.69800000000001,33.918900000000001,6.0279299999999996,-29.721399999999999,33.456899999999997,-77.643799999999999
8397.0,248.756,196.453,18.066400000000002,-17.9894,-34.439,22.5304,-75.817499999999995
8398.0,251.83000000000001,217.25700000000001,36.617800000000003,-6.3384,-38.799599999999998,10.6568,-73.770700000000005
8399.0,254.791,202.43899999999999,20.893000000000001,-27.488700000000001,-42.787700000000001,-1.9823200000000001,-71.4863
8400.0,257.67399999999998,220.18799999999999,39.096499999999999,-13.095599999999999,-46.423000000000002,-15.1625,-68.971999999999994
8401.0,260.46899999999999,201.941,22.683499999999999,-31.587299999999999,-49.681899999999999,-28.677700000000002,-66.244100000000003
8402.0,263.154,215.839,39.809100000000001,-14.739000000000001,-52.5518,-42.303899999999999,-63.328800000000001
8403.0,265.66699999999997,194.91499999999999,23.517099999999999,-29.4437,-55.013599999999997,-55.822499999999998,-60.253500000000003
8404.0,267.93900000000002,204.45400000000001,39.093000000000004,-10.418200000000001,-57.053600000000003,-69.000399999999999,-57.038899999999998
8405.0,269.89299999999997,180.74100000000001,22.7821,-21.4068,-58.665900000000001,-81.608900000000006,-53.707299999999996
8406.0,271.41800000000001,188.11099999999999,38.832999999999998,1.8210299999999999,-59.834600000000002,-93.400099999999995,-50.257399999999997
8407.0,272.512,162.88499999999999,23.493300000000001,-4.6583600000000001,-60.567999999999998,-104.176,-46.7361
8408.0,273.04899999999998,166.774,38.259999999999998,20.7607,-60.866900000000001,-113.736,-43.060200000000002
8409.0,272.89400000000001,138.92099999999999,21.985800000000001,16.823,-60.677799999999998,-121.79600000000001,-39.235700000000001
8410.0,272.40600000000001,143.09999999999999,38.459299999999999,46.8444,-60.076300000000003,-128.42099999999999,-35.3992
8411.0,271.43099999999998,114.185,22.3293,45.686700000000002,-59.079900000000002,-133.41,-31.472300000000001
8412.0,269.86500000000001,114.789,35.680999999999997,75.387,-57.620100000000001,-136.51499999999999,-27.472799999999999
8413.0,267.88200000000001,86.981899999999996,20.7196,77.500799999999998,-55.776800000000001,-137.71899999999999,-23.6313
8414.0,265.53800000000001,90.214600000000004,37.018000000000001,110.803,-53.632599999999996,-136.999,-20.213100000000001
8415.0,262.81599999999997,62.926000000000002,23.136299999999999,113.175,-51.400199999999998,-134.33099999999999,-17.3628
8416.0,259.322,65.347399999999993,38.318600000000004,143.774,-49.201799999999999,-129.46600000000001,-15.274100000000001
8417.0,255.40600000000001,35.5548,19.903099999999998,139.67599999999999,-47.074800000000003,-122.886,-13.726699999999999
8418.0,251.25899999999999,39.778100000000002,34.786299999999997,166.63999999999999,-44.829599999999999,-115.31100000000001,-12.379
8419.0,247.953,13.052,16.634799999999998,160.25399999999999,-42.636499999999998,-107.172,-11.772
8420.0,245.69,19.184899999999999,30.010999999999999,185.50200000000001,-40.8095,-98.352699999999999,-11.0985
8421.0,243.50999999999999,-3.8122099999999999,14.8096,180.001,-38.961300000000001,-88.868300000000005,-10.634600000000001
8422.0,242.21100000000001,5.5434000000000001,31.537099999999999,205.773,-37.526699999999998,-78.6387,-10.426600000000001
8423.0,218.39599999999999,191.59100000000001,31.513300000000001,23.933399999999999,-24.734999999999999,38.901000000000003,-69.343699999999998
8424.0,221.69900000000001,182.52099999999999,17.8672,2.0145,-29.412299999999998,30.154199999999999,-67.958299999999994
8425.0,224.88300000000001,201.934,33.695399999999999,10.586499999999999,-33.708500000000001,20.351500000000001,-66.320099999999996
8426.0,227.89699999999999,190.09200000000001,19.499600000000001,-9.6608099999999997,-37.643300000000004,9.6685400000000001,-64.495599999999996
8427.0,230.827,206.023,34.272500000000001,0.38432500000000003,-41.238900000000001,-1.71811,-62.458199999999998
8428.0,233.68299999999999,191.351,19.678599999999999,-17.476500000000001,-44.499200000000002,-13.6119,-60.224600000000002
8429.0,236.49000000000001,204.874,34.493699999999997,-4.3620299999999999,-47.4161,-25.822199999999999,-57.8005
8430.0,239.203,188.05099999999999,20.2242,-18.688099999999999,-49.966700000000003,-38.150500000000001,-55.230899999999998
8431.0,241.79599999999999,198.27099999999999,34.264600000000002,-3.0409000000000002,-52.1342,-50.392899999999997,-52.550699999999999
8432.0,244.18799999999999,179.70699999999999,20.811900000000001,-13.211499999999999,-53.906100000000002,-62.333500000000001,-49.807200000000002
8433.0,246.31,186.78299999999999,34.2592,5.1438600000000001,-55.273000000000003,-73.756100000000004,-47.0167
8434.0,248.08600000000001,164.77199999999999,19.849799999999998,-2.8110499999999998,-56.238100000000003,-84.450599999999994,-44.207000000000001
8435.0,249.39500000000001,168.33500000000001,32.1021,17.430700000000002,-56.792999999999999,-94.201899999999995,-41.336199999999998
8436.0,250.19300000000001,145.274,18.725899999999999,13.389200000000001,-56.942399999999999,-102.822,-38.446399999999997
8437.0,250.54599999999999,147.46000000000001,31.486499999999999,36.720999999999997,-56.744,-110.23699999999999,-35.527799999999999
8438.0,250.22900000000001,121.664,16.817699999999999,33.975499999999997,-56.143700000000003,-116.20399999999999,-32.454700000000003
8439.0,249.386,123.395,30.0379,60.171100000000003,-55.1402,-120.679,-29.2761
8440.0,248.18299999999999,99.576599999999999,18.121200000000002,62.077500000000001,-53.813600000000001,-123.667,-26.0749
8441.0,246.54300000000001,99.973500000000001,30.5426,89.052599999999998,-52.141100000000002,-125.002,-22.8688
8442.0,244.46100000000001,73.837900000000005,16.328099999999999,89.926400000000001,-50.1554,-124.56699999999999,-19.763300000000001
8443.0,241.81,74.129199999999997,28.207899999999999,116.866,-47.900799999999997,-122.23999999999999,-16.954899999999999
8444.0,238.893,49.357799999999997,14.809900000000001,117.562,-45.550199999999997,-118.319,-14.6729
8445.0,235.762,52.897300000000001,29.389900000000001,144.99100000000001,-43.253100000000003,-112.947,-12.925800000000001
8446.0,232.517,29.648599999999998,15.8482,143.292,-41.040900000000001,-106.34,-11.7315
8447.0,229.809,34.776800000000001,29.9312,168.00800000000001,-39.058599999999998,-99.089399999999998,-10.9527
8448.0,227.696,12.405099999999999,15.978300000000001,163.93899999999999,-37.352699999999999,-91.101799999999997,-10.4411
8449.0,225.59800000000001,17.404900000000001,28.121700000000001,185.43299999999999,-35.926400000000001,-81.9983,-10.0565
8450.0,223.459,-5.46943,11.3802,176.869,-34.777299999999997,-72.020300000000006,-9.7624099999999991
8451.0,197.161,164.36600000000001,14.111800000000001,14.7272,-24.8887,35.397100000000002,-59.9193
8452.0,200.423,183.99199999999999,29.2331,22.471900000000002,-29.183900000000001,27.559699999999999,-58.575800000000001
8453.0,203.554,174.52000000000001,16.1142,2.9744600000000001,-33.0809,18.738499999999998,-57.012700000000002
8454.0,206.505,191.31700000000001,30.397600000000001,11.9724,-36.615400000000001,9.0912500000000005,-55.301299999999998
8455.0,209.363,179.89400000000001,17.534800000000001,-4.9386999999999999,-39.819699999999997,-1.2064999999999999,-53.408000000000001
8456.0,212.15799999999999,194.06899999999999,31.366199999999999,6.19109,-42.709000000000003,-11.9794,-51.336199999999998
8457.0,214.91999999999999,179.863,17.905100000000001,-8.5467899999999997,-45.272599999999997,-23.0593,-49.1008
8458.0,217.62799999999999,190.87100000000001,30.791899999999998,4.5426299999999999,-47.488900000000001,-34.268599999999999,-46.750999999999998
8459.0,220.24700000000001,174.55000000000001,17.5002,-7.0355800000000004,-49.339300000000001,-45.421700000000001,-44.333799999999997
8460.0,222.71799999999999,181.75200000000001,28.9114,7.5774600000000003,-50.808300000000003,-56.317399999999999,-41.904000000000003
8461.0,224.971,163.10499999999999,15.630000000000001,-1.0465899999999999,-51.891300000000001,-66.750299999999996,-39.499299999999998
8462.0,226.89699999999999,168.36799999999999,27.362100000000002,16.742599999999999,-52.581099999999999,-76.506,-37.1297
8463.0,228.42500000000001,148.227,14.7509,11.447900000000001,-52.889499999999998,-85.403199999999998,-34.820099999999996
8464.0,229.45099999999999,150.239,25.235399999999998,30.442299999999999,-52.828499999999998,-93.274600000000007,-32.521099999999997
8465.0,229.827,128.08600000000001,12.331300000000001,27.1372,-52.3645,-99.934799999999996,-30.159400000000002
8466.0,229.68799999999999,129.727,23.959499999999998,49.229399999999998,-51.583100000000002,-105.36499999999999,-27.785499999999999
8467.0,229.05600000000001,106.01600000000001,10.7973,47.4146,-50.525799999999997,-109.48,-25.361899999999999
8468.0,227.90199999999999,105.081,20.6646,69.430000000000007,-49.147100000000002,-112.164,-22.828900000000001
8469.0,226.38800000000001,82.200999999999993,8.7694799999999997,70.293899999999994,-47.501600000000003,-113.417,-20.265899999999998
8470.0,224.56899999999999,83.455100000000002,21.101299999999998,95.670100000000005,-45.6374,-113.187,-17.796800000000001
8471.0,222.53299999999999,61.109000000000002,9.8104399999999998,97.353200000000001,-43.625100000000003,-111.479,-15.5364
8472.0,220.15700000000001,61.962400000000002,21.3248,121.625,-41.4831,-108.202,-13.519399999999999
8473.0,217.50999999999999,38.616799999999998,7.9149500000000002,120.23099999999999,-39.273800000000001,-103.521,-11.896100000000001
8474.0,215.02500000000001,40.322200000000002,19.040199999999999,142.31200000000001,-37.223700000000001,-97.820499999999996,-10.756500000000001
8475.0,212.67699999999999,17.764199999999999,5.1280700000000001,138.49700000000001,-35.423000000000002,-91.113100000000003,-10.0115
8476.0,210.47,21.115300000000001,16.314699999999998,158.756,-33.931399999999996,-83.544399999999996,-9.5892800000000005
8477.0,208.54599999999999,0.49066500000000002,3.1141000000000001,153.381,-32.924300000000002,-75.2607,-9.4078999999999997
8478.0,206.68700000000001,6.8138699999999996,16.0884,173.06299999999999,-32.203099999999999,-66.248199999999997,-9.2891899999999996
8479.0,178.542,170.75299999999999,30.139299999999999,36.555599999999998,-24.9147,32.438699999999997,-51.468800000000002
8480.0,181.80500000000001,163.614,18.4986,18.3247,-28.863700000000001,25.400700000000001,-50.1145
8481.0,184.90600000000001,179.971,31.161799999999999,25.318000000000001,-32.415999999999997,17.433700000000002,-48.572499999999998
8482.0,187.80199999999999,170.45699999999999,18.966200000000001,8.5159800000000008,-35.594499999999996,8.69102,-46.905299999999997
8483.0,190.59200000000001,183.655,30.465,16.547999999999998,-38.442399999999999,-0.66386500000000004,-45.084699999999998
8484.0,193.328,171.92400000000001,18.032299999999999,1.8745400000000001,-40.982100000000003,-10.4735,-43.1188
8485.0,196.05099999999999,183.249,29.629999999999999,12.5448,-43.214700000000001,-20.586500000000001,-41.015099999999997
8486.0,198.74799999999999,169.79499999999999,17.466000000000001,0.82426900000000003,-45.122999999999998,-30.845700000000001,-38.824100000000001
8487.0,201.404,178.29900000000001,28.292000000000002,13.4832,-46.687399999999997,-41.079099999999997,-36.602200000000003
8488.0,203.96199999999999,163.471,16.831299999999999,5.24397,-47.8904,-51.093699999999998,-34.407600000000002
8489.0,206.34899999999999,169.20500000000001,26.9529,19.915600000000001,-48.711300000000001,-60.690899999999999,-32.273899999999998
8490.0,208.45599999999999,151.46299999999999,14.602600000000001,13.3422,-49.139400000000002,-69.672399999999996,-30.2347
8491.0,210.13499999999999,154.29300000000001,23.7559,29.409400000000002,-49.153500000000001,-77.843199999999996,-28.2605
8492.0,211.24299999999999,135.62799999999999,12.334,25.883900000000001,-48.762700000000002,-85.034999999999997,-26.349900000000002
8493.0,211.798,136.84700000000001,21.6782,43.985700000000001,-48.058999999999997,-91.161100000000005,-24.535900000000002
8494.0,211.684,116.002,9.6686499999999995,41.528700000000001,-47.030900000000003,-96.077699999999993,-22.711500000000001
8495.0,210.94399999999999,116.61799999999999,19.726900000000001,61.758699999999997,-45.702500000000001,-99.750399999999999,-20.805099999999999
8496.0,209.80500000000001,96.478399999999993,9.5631699999999995,62.311399999999999,-44.204000000000001,-102.2,-18.879899999999999
8497.0,208.35499999999999,95.688800000000001,19.052199999999999,82.965000000000003,-42.548900000000003,-103.374,-16.950099999999999
8498.0,206.67400000000001,73.370699999999999,7.1145300000000002,82.512,-40.750900000000001,-103.23999999999999,-15.0311
8499.0,204.79900000000001,72.449700000000007,16.4648,103.465,-38.837499999999999,-101.753,-13.216699999999999
8500.0,202.833,51.441600000000001,5.5220599999999997,103.783,-36.903799999999997,-98.986999999999995,-11.670199999999999
8501.0,200.86699999999999,52.619700000000002,16.4465,125.429,-35.054699999999997,-95.026399999999995,-10.4497
8502.0,198.81100000000001,32.594799999999999,5.5212500000000002,124.53,-33.309100000000001,-89.906599999999997,-9.5498700000000003
8503.0,196.828,35.182499999999997,16.632300000000001,144.708,-31.8064,-83.849599999999995,-8.9892900000000004
8504.0,194.93799999999999,15.5372,4.8418299999999999,141.03399999999999,-30.5837,-76.946799999999996,-8.6821800000000007
8505.0,192.83099999999999,19.023900000000001,15.353999999999999,158.589,-29.451499999999999,-69.193799999999996,-8.4537800000000001
8506.0,190.75,-0.51311399999999996,1.8823300000000001,151.18100000000001,-28.511500000000002,-60.800199999999997,-8.2340599999999995
8507.0,162.26599999999999,148.05699999999999,16.8325,27.073599999999999,-24.697500000000002,29.8353,-44.1554
8508.0,165.55000000000001,164.80699999999999,29.142299999999999,33.405500000000004,-28.387899999999998,23.508700000000001,-42.764600000000002
8509.0,168.65100000000001,157.41200000000001,17.9968,17.206199999999999,-31.647099999999998,16.2971,-41.207099999999997
8510.0,171.52099999999999,171.59899999999999,29.364100000000001,24.518899999999999,-34.5227,8.3444900000000004,-39.546300000000002
8511.0,174.261,162.59899999999999,18.4483,10.6311,-37.058399999999999,-0.191994,-37.769100000000002
8512.0,176.93799999999999,174.40700000000001,29.2456,19.610900000000001,-39.296199999999999,-9.1682600000000001,-35.8658
8513.0,179.61600000000001,162.97300000000001,17.702500000000001,7.4522599999999999,-41.243099999999998,-18.4528,-33.861400000000003
8514.0,182.31200000000001,172.15100000000001,27.696100000000001,18.084099999999999,-42.890099999999997,-27.9057,-31.805599999999998
8515.0,185.02500000000001,159.017,16.3048,8.6164799999999993,-44.222200000000001,-37.366300000000003,-29.752199999999998
8516.0,187.72,164.96700000000001,24.907299999999999,20.4145,-45.211599999999997,-46.652799999999999,-27.755500000000001
8517.0,190.31800000000001,150.11199999999999,13.5656,13.507199999999999,-45.826900000000002,-55.566099999999999,-25.8521
8518.0,192.66200000000001,154.59399999999999,22.376200000000001,27.914100000000001,-46.019599999999997,-63.901899999999998,-24.046500000000002
8519.0,194.57900000000001,138.529,11.484,23.645800000000001,-45.782699999999998,-71.479100000000003,-22.3733
8520.0,195.90899999999999,140.35599999999999,19.325700000000001,38.988900000000001,-45.121899999999997,-78.136799999999994,-20.826499999999999
8521.0,196.411,122.584,8.4520199999999992,36.277200000000001,-44.005099999999999,-83.720200000000006,-19.287199999999999
8522.0,196.15799999999999,123.17400000000001,16.879999999999999,53.396099999999997,-42.591099999999997,-88.199399999999997,-17.7776
8523.0,195.327,103.65000000000001,5.9677499999999997,51.709299999999999,-41.030700000000003,-91.531599999999997,-16.349799999999998
8524.0,193.982,102.09099999999999,13.5745,68.960800000000006,-39.307400000000001,-93.682299999999998,-14.8802
8525.0,192.33799999999999,82.586699999999993,3.6465800000000002,69.036600000000007,-37.504399999999997,-94.680999999999997,-13.355600000000001
8526.0,190.61000000000001,82.496099999999998,13.3203,88.971100000000007,-35.686199999999999,-94.538899999999998,-11.8863
8527.0,188.87200000000001,63.230200000000004,3.8519299999999999,89.782700000000006,-33.889899999999997,-93.249099999999999,-10.5406
8528.0,187.15000000000001,62.419400000000003,12.6226,108.738,-32.106499999999997,-90.808899999999994,-9.3509700000000002
8529.0,185.37700000000001,42.518099999999997,1.8996,107.774,-30.383700000000001,-87.225700000000003,-8.3936600000000006
8530.0,183.69900000000001,42.361499999999999,10.477499999999999,125.486,-28.807400000000001,-82.662499999999994,-7.7457399999999996
8531.0,181.88200000000001,23.012599999999999,-0.76361400000000001,122.52500000000001,-27.411100000000001,-77.096599999999995,-7.3358400000000001
8532.0,180.066,24.741399999999999,8.5030800000000006,139.19499999999999,-26.247800000000002,-70.668000000000006,-7.1463700000000001
8533.0,178.28100000000001,7.3003799999999996,-2.5352199999999998,134.624,-25.450399999999998,-63.576599999999999,-7.1792400000000001
8534.0,176.37799999999999,12.75,8.4371200000000002,151.11500000000001,-24.778400000000001,-55.823799999999999,-7.2570100000000002
8535.0,147.93899999999999,153.44,31.3004,44.025599999999997,-24.273199999999999,27.395399999999999,-38.0396
8536.0,151.37,147.37200000000001,20.800899999999999,28.047499999999999,-27.777100000000001,21.744900000000001,-36.624299999999998
8537.0,154.46199999999999,161.93000000000001,31.626200000000001,34.299500000000002,-30.767299999999999,15.1876,-35.065300000000001
8538.0,157.37100000000001,153.93600000000001,20.690300000000001,19.746099999999998,-33.412399999999998,7.9484599999999999,-33.395099999999999
8539.0,160.04900000000001,165.36500000000001,30.074100000000001,26.555399999999999,-35.672800000000002,0.123406,-31.653099999999998
8540.0,162.696,155.56899999999999,19.059000000000001,14.014699999999999,-37.664000000000001,-8.1322799999999997,-29.8156
8541.0,165.322,165.345,28.482199999999999,23.0503,-39.373100000000001,-16.7075,-27.921600000000002
8542.0,168.024,154.012,17.624600000000001,12.980700000000001,-40.832299999999996,-25.472899999999999,-25.996300000000002
8543.0,170.81200000000001,161.291,26.194900000000001,23.5547,-42.010100000000001,-34.273800000000001,-24.107199999999999
8544.0,173.69499999999999,149.00700000000001,15.9133,16.5002,-42.877899999999997,-42.932000000000002,-22.275600000000001
8545.0,176.56100000000001,154.101,23.651299999999999,28.635200000000001,-43.353200000000001,-51.2502,-20.5245
8546.0,179.23500000000001,139.81999999999999,12.634399999999999,23.087199999999999,-43.369300000000003,-59.040199999999999,-18.877400000000002
8547.0,181.42400000000001,142.94999999999999,19.711300000000001,36.528399999999998,-42.836399999999998,-66.109399999999994,-17.325099999999999
8548.0,182.83699999999999,127.831,9.4497900000000001,33.331200000000003,-41.770899999999997,-72.298599999999993,-15.8788
8549.0,183.46299999999999,129.27099999999999,16.748699999999999,48.339399999999998,-40.376199999999997,-77.493499999999997,-14.690799999999999
8550.0,183.19499999999999,112.542,6.8521799999999997,46.578099999999999,-38.680399999999999,-81.572000000000003,-13.664099999999999
8551.0,182.02500000000001,112.495,14.6622,62.698900000000002,-36.728499999999997,-84.526499999999999,-12.552300000000001
8552.0,180.346,95.107600000000005,5.9431900000000004,62.601599999999998,-34.767400000000002,-86.409199999999998,-11.4049
8553.0,178.44900000000001,93.822400000000002,13.7643,79.369299999999996,-32.840400000000002,-87.239000000000004,-10.256500000000001
8554.0,176.499,74.373599999999996,3.66425,78.448700000000002,-30.953399999999998,-87.037099999999995,-9.06447
8555.0,174.68600000000001,72.710999999999999,11.2865,95.423000000000002,-29.112300000000001,-85.828800000000001,-7.93424
8556.0,173.00200000000001,54.491300000000003,2.1903999999999999,95.549999999999997,-27.399000000000001,-83.590999999999994,-6.9927799999999998
8557.0,171.5,54.3371,10.786199999999999,113.09,-25.7681,-80.403000000000006,-6.3031199999999998
8558.0,169.93100000000001,36.954799999999999,1.7162500000000001,112.366,-24.332100000000001,-76.187200000000004,-5.8064299999999998
8559.0,168.47200000000001,38.276699999999998,10.7525,129.113,-22.956399999999999,-71.172200000000004,-5.6745400000000004
8560.0,166.62299999999999,21.351600000000001,0.93055699999999997,125.758,-22.002800000000001,-65.240499999999997,-5.5339499999999999
8561.0,164.88800000000001,22.906199999999998,9.6481700000000004,140.05600000000001,-21.0745,-58.591099999999997,-5.8815200000000001
8562.0,163.608,5.5136599999999998,-1.89954,133.27500000000001,-20.270399999999999,-51.987900000000003,-5.8217699999999999
8563.0,135.25,134.00999999999999,20.590699999999998,34.735500000000002,-23.708600000000001,25.078299999999999,-32.963500000000003
8564.0,138.81,147.72999999999999,29.941400000000002,39.043799999999997,-27.023900000000001,20.050599999999999,-31.551400000000001
8565.0,141.93799999999999,142.47999999999999,20.990500000000001,25.912400000000002,-29.819099999999999,14.0816,-29.989699999999999
8566.0,144.899,154.36199999999999,29.845500000000001,31.510100000000001,-32.256700000000002,7.4877200000000004,-28.320399999999999
8567.0,147.53100000000001,147.31999999999999,20.6891,20.1004,-34.3001,0.28761999999999999,-26.6174
8568.0,150.124,157.054,29.067499999999999,27.234200000000001,-36.088099999999997,-7.3264100000000001,-24.836600000000001
8569.0,152.673,147.416,18.9438,16.9282,-37.623899999999999,-15.2844,-23.046600000000002
8570.0,155.369,154.989,26.773499999999999,25.670300000000001,-38.956499999999998,-23.446300000000001,-21.255800000000001
8571.0,158.24199999999999,143.863,16.597300000000001,17.554500000000001,-40.058199999999999,-31.669899999999998,-19.508900000000001
8572.0,161.36600000000001,149.089,23.2423,27.403700000000001,-40.8675,-39.780299999999997,-17.796600000000002
8573.0,164.596,137.245,13.1638,21.657900000000001,-41.254300000000001,-47.581899999999997,-16.1233
8574.0,167.65000000000001,142.11600000000001,20.137699999999999,33.9803,-41.061700000000002,-54.889000000000003,-14.4688
8575.0,170.16800000000001,129.667,10.383900000000001,30.5002,-40.270200000000003,-61.523400000000002,-12.9511
8576.0,171.899,132.76900000000001,17.010300000000001,44.110100000000003,-38.919499999999999,-67.321799999999996,-11.7067
8577.0,172.447,118.134,7.1972699999999996,41.436300000000003,-36.982799999999997,-72.147300000000001,-10.6173
8578.0,171.881,118.005,13.3848,54.8765,-34.8185,-75.930400000000006,-9.7240000000000002
8579.0,170.57499999999999,101.285,4.0131399999999999,53.135100000000001,-32.720599999999997,-78.604799999999997,-9.1477199999999996
8580.0,168.54900000000001,99.540199999999999,10.4788,67.327600000000004,-30.599699999999999,-80.167000000000002,-8.5429499999999994
8581.0,166.21899999999999,81.837199999999996,1.60101,66.371099999999998,-28.517600000000002,-80.780100000000004,-7.6761200000000001
8582.0,163.95699999999999,81.4041,10.1991,83.200299999999999,-26.584700000000002,-80.467500000000001,-6.7148700000000003
8583.0,162.04599999999999,64.093299999999999,1.8362499999999999,83.329499999999996,-24.745899999999999,-79.328199999999995,-5.7587700000000002
8584.0,160.33099999999999,63.230699999999999,9.7121700000000004,99.616900000000001,-23.034800000000001,-77.257300000000001,-4.9162999999999997
8585.0,158.98500000000001,45.280900000000003,0.066682900000000003,98.344399999999993,-21.366399999999999,-74.368099999999998,-4.3075099999999997
8586.0,157.49100000000001,45.684600000000003,8.3753200000000003,114.212,-19.9588,-70.5154,-3.9275600000000002
8587.0,156.35499999999999,27.2789,-2.66316,110.61499999999999,-18.5379,-65.911299999999997,-3.93167
8588.0,154.554,30.7698,7.4995099999999999,126.413,-17.7163,-60.518099999999997,-3.8052199999999998
8589.0,152.63800000000001,11.506600000000001,-5.3161399999999999,119.13800000000001,-16.418099999999999,-53.998800000000003,-4.6113299999999997
8590.0,151.84899999999999,8.9310600000000004,-3.1712600000000002,126.384,-15.413,-48.046900000000001,-4.3527100000000001
8591.0,123.928,138.071,32.923099999999998,47.918100000000003,-23.085599999999999,22.865400000000001,-28.7897
8592.0,127.556,132.66499999999999,23.270600000000002,33.588099999999997,-26.201599999999999,18.351199999999999,-27.420999999999999
8593.0,130.803,145.995,32.907600000000002,39.362299999999998,-28.841999999999999,12.9618,-25.8794
8594.0,133.779,138.94800000000001,22.8306,26.311800000000002,-31.0975,6.9381300000000001,-24.2226
8595.0,136.38499999999999,149.125,30.857399999999998,32.341000000000001,-32.9651,0.31473000000000001,-22.5579
8596.0,138.886,140.34700000000001,20.723299999999998,21.150500000000001,-34.582999999999998,-6.7413100000000004,-20.865300000000001
8597.0,141.34299999999999,148.874,28.738399999999999,29.132300000000001,-35.9953,-14.1455,-19.1922
8598.0,143.994,138.499,18.5306,19.936900000000001,-37.2654,-21.765599999999999,-17.5242
8599.0,146.97,144.97300000000001,25.665700000000001,29.183399999999999,-38.3613,-29.453399999999998,-15.872400000000001
8600.0,150.38800000000001,134.51499999999999,15.994,22.725300000000001,-39.1691,-37.043199999999999,-14.1708
8601.0,154.03999999999999,140.19399999999999,22.408999999999999,33.408299999999997,-39.4452,-44.353999999999999,-12.384499999999999
8602.0,157.53,129.49299999999999,12.491099999999999,28.739899999999999,-38.9983,-51.210999999999999,-10.539
8603.0,160.297,134.56299999999999,18.9238,41.066000000000003,-37.671100000000003,-57.468400000000003,-8.7141699999999993
8604.0,161.92500000000001,122.31399999999999,9.3939599999999999,37.841900000000003,-35.6693,-62.990699999999997,-7.1069699999999996
8605.0,162.61500000000001,124.76300000000001,15.9039,51.474400000000003,-33.574300000000001,-67.580699999999993,-6.2541900000000004
8606.0,162.26900000000001,110.958,7.4289399999999999,50.344900000000003,-31.362200000000001,-71.063699999999997,-6.14602
8607.0,160.61199999999999,109.53400000000001,13.0571,62.661999999999999,-28.952500000000001,-73.452799999999996,-6.1312899999999999
8608.0,158.18000000000001,92.975399999999993,4.6837999999999997,60.934699999999999,-26.711400000000001,-74.784599999999998,-6.02921
8609.0,155.44399999999999,91.238600000000005,11.5939,74.810599999999994,-24.665299999999998,-75.131900000000002,-5.7297399999999996
8610.0,152.78800000000001,73.422700000000006,2.6803499999999998,73.104200000000006,-22.725899999999999,-74.691900000000004,-5.0397600000000002
8611.0,150.63900000000001,71.568799999999996,9.5769000000000002,87.625,-20.9055,-73.560199999999995,-4.14419
8612.0,148.97499999999999,55.482500000000002,1.87079,87.686499999999995,-19.194600000000001,-71.685599999999994,-3.3577599999999999
8613.0,147.68799999999999,55.136499999999998,9.4989799999999995,103.042,-17.5687,-69.037999999999997,-2.7647699999999999
8614.0,146.46199999999999,39.692500000000003,1.5295799999999999,102.265,-16.092700000000001,-65.565299999999993,-2.4645899999999998
8615.0,145.33699999999999,40.816800000000001,9.6883700000000008,117.23999999999999,-14.752000000000001,-61.275100000000002,-2.43696
8616.0,143.81200000000001,25.5642,0.87993500000000002,113.892,-13.742000000000001,-56.285299999999999,-2.5671200000000001
8617.0,142.363,27.697299999999998,8.38856,126.77200000000001,-12.866899999999999,-50.450299999999999,-3.3182399999999999
8618.0,141.428,12.27,-2.80159,120.447,-12.196999999999999,-44.563000000000002,-3.5647199999999999
8619.0,113.705,120.521,23.271599999999999,38.5854,-22.442399999999999,20.719999999999999,-25.345099999999999
8620.0,117.387,133.20599999999999,31.821100000000001,42.851900000000001,-25.338200000000001,16.672499999999999,-24.065200000000001
8621.0,120.753,128.43600000000001,23.388200000000001,30.821000000000002,-27.860499999999998,11.833,-22.5322
8622.0,123.747,139.416,31.353000000000002,36.067799999999998,-29.9466,6.3331900000000001,-20.9147
8623.0,126.304,132.97200000000001,22.784099999999999,25.710699999999999,-31.668199999999999,0.235595,-19.290600000000001
8624.0,128.66499999999999,141.42699999999999,29.9434,32.0212,-33.150199999999998,-6.3052999999999999,-17.6754
8625.0,130.977,132.21199999999999,20.280799999999999,22.4754,-34.482100000000003,-13.199999999999999,-16.099499999999999
8626.0,133.55699999999999,138.74000000000001,26.9679,30.2592,-35.737099999999998,-20.3032,-14.5313
8627.0,136.66300000000001,128.74299999999999,17.3504,22.7394,-36.863599999999998,-27.474399999999999,-12.888500000000001
8628.0,140.43700000000001,134.54300000000001,23.2425,31.715800000000002,-37.666699999999999,-34.559899999999999,-11.0549
8629.0,144.66900000000001,126.175,14.3842,26.9163,-37.781999999999996,-41.435600000000001,-8.9944100000000002
8630.0,148.56999999999999,133.60400000000001,21.168600000000001,38.550699999999999,-36.806100000000001,-47.902000000000001,-6.7244299999999999
8631.0,151.45400000000001,125.39700000000001,13.1105,36.3521,-34.967199999999998,-53.760100000000001,-4.5064599999999997
8632.0,153.268,131.31899999999999,20.469000000000001,50.485599999999998,-32.630200000000002,-58.910299999999999,-2.8397000000000001
8633.0,153.70599999999999,118.33199999999999,11.3423,47.538600000000002,-29.880700000000001,-63.384,-1.8234600000000001
8634.0,153.10300000000001,115.86199999999999,14.8504,56.985100000000003,-27.3537,-66.995099999999994,-1.67031
8635.0,151.74799999999999,100.483,5.9388500000000004,54.890799999999999,-25.264099999999999,-69.247100000000003,-2.6091299999999999
8636.0,149.14699999999999,97.556899999999999,10.450799999999999,65.799999999999997,-23.107099999999999,-70.171599999999998,-3.7029800000000002
8637.0,145.74799999999999,80.067999999999998,1.6224400000000001,62.802500000000002,-21.046299999999999,-70.158100000000005,-4.0727700000000002
8638.0,142.66800000000001,78.5274,8.8988899999999997,76.369,-19.2745,-69.507400000000004,-3.8010199999999998
8639.0,140.261,62.996699999999997,1.93258,76.139300000000006,-17.592600000000001,-68.340500000000006,-3.12846
8640.0,138.601,61.560000000000002,8.6561400000000006,89.974900000000005,-15.922000000000001,-66.643600000000006,-2.3109099999999998
8641.0,137.40199999999999,46.309600000000003,1.07351,89.509299999999996,-14.2994,-64.266800000000003,-1.68024
8642.0,136.43299999999999,45.9619,7.9224399999999999,103.20999999999999,-12.7845,-61.1447,-1.3634900000000001
8643.0,135.34299999999999,30.749600000000001,-0.55694900000000003,100.917,-11.441599999999999,-57.211399999999998,-1.30576
8644.0,134.19800000000001,32.193600000000004,6.9623400000000002,113.95099999999999,-10.2903,-52.598700000000001,-1.61232
8645.0,133.04400000000001,17.903300000000002,-1.5012300000000001,110.011,-9.4635800000000003,-47.5124,-1.99956
8646.0,131.78999999999999,21.931899999999999,7.7537500000000001,122.932,-8.7107399999999995,-41.980899999999998,-2.5596299999999998
8647.0,104.501,123.988,34.130600000000001,49.616900000000001,-21.8217,18.652799999999999,-22.549700000000001
8648.0,108.11499999999999,119.878,26.0778,37.634099999999997,-24.5015,14.981299999999999,-21.341799999999999
8649.0,111.675,131.57599999999999,34.097700000000003,42.284700000000001,-26.912299999999998,10.7019,-19.864999999999998
8650.0,114.605,125.685,25.2822,30.9679,-28.830300000000001,5.6726599999999996,-18.2761
8651.0,117.119,134.34999999999999,31.876200000000001,35.939300000000003,-30.433499999999999,0.075560000000000002,-16.705200000000001
8652.0,119.27500000000001,126.358,22.761900000000001,26.133600000000001,-31.7881,-6.00237,-15.195399999999999
8653.0,121.422,133.36199999999999,29.4679,33.052100000000003,-33.074599999999997,-12.409800000000001,-13.723000000000001
8654.0,123.889,123.666,19.986499999999999,24.702000000000002,-34.332299999999996,-19.0016,-12.196199999999999
8655.0,127.181,129.83799999999999,26.2164,32.927900000000001,-35.530900000000003,-25.646000000000001,-10.449299999999999
8656.0,131.452,122.212,17.717700000000001,27.248999999999999,-36.256500000000003,-32.228499999999997,-8.2851900000000001
8657.0,136.26300000000001,130.47499999999999,24.161799999999999,37.294899999999998,-36.069400000000002,-38.683100000000003,-5.6769800000000004
8658.0,140.86199999999999,124.996,16.355899999999998,34.0246,-34.5077,-44.8992,-2.9853499999999999
8659.0,143.54400000000001,133.042,23.905100000000001,46.059699999999999,-31.471699999999998,-50.494500000000002,-0.43445699999999998
8660.0,144.31299999999999,121.78400000000001,15.777699999999999,42.381700000000002,-28.312100000000001,-55.6374,1.8216399999999999
8661.0,144.923,124.858,22.521000000000001,56.334699999999998,-26.239599999999999,-59.8782,2.8859400000000002
8662.0,145.23500000000001,113.95099999999999,15.280200000000001,57.670999999999999,-24.360900000000001,-63.104599999999998,2.31168
8663.0,144.066,109.56399999999999,16.922699999999999,65.355400000000003,-21.888100000000001,-65.510199999999998,0.73921300000000001
8664.0,141.00899999999999,92.055499999999995,7.1534700000000004,60.6982,-19.5686,-66.337400000000002,-1.0687599999999999
8665.0,137.19999999999999,88.795900000000003,12.1555,71.213399999999993,-17.765499999999999,-65.886799999999994,-2.4815900000000002
8666.0,133.494,71.258200000000002,3.28383,67.552800000000005,-16.193000000000001,-64.872900000000001,-2.9527100000000002
8667.0,130.69200000000001,68.658100000000005,9.2050800000000006,79.287999999999997,-14.7159,-63.592500000000001,-2.5198
8668.0,129.02699999999999,54.3217,2.7573300000000001,79.281000000000006,-13.2263,-62.034100000000002,-1.7796000000000001
8669.0,127.98699999999999,53.911299999999997,9.7281200000000005,92.886399999999995,-11.6707,-59.930399999999999,-1.12279
8670.0,127.18000000000001,40.106299999999997,2.8338199999999998,92.409700000000001,-10.1617,-57.122900000000001,-0.72815600000000003
8671.0,126.328,41.238300000000002,10.395099999999999,105.843,-8.8059600000000007,-53.563000000000002,-0.68189200000000005
8672.0,125.417,27.395199999999999,2.4960900000000001,103.176,-7.6790799999999999,-49.330800000000004,-0.88214499999999996
8673.0,124.35899999999999,29.7258,10.0275,115.271,-6.6675500000000003,-44.482199999999999,-1.2416499999999999
8674.0,123.321,16.383400000000002,1.1621999999999999,110.23399999999999,-5.80844,-39.281300000000002,-1.80498
8675.0,95.953900000000004,108.46299999999999,25.629100000000001,41.155999999999999,-21.140499999999999,16.526800000000001,-20.253299999999999
8676.0,99.800700000000006,120.589,33.908999999999999,45.787100000000002,-23.779699999999998,13.373699999999999,-19.168600000000001
8677.0,103.312,115.77,25.464600000000001,34.291899999999998,-25.955300000000001,9.5450800000000005,-17.730899999999998
8678.0,106.295,126.31100000000001,33.138300000000001,39.597299999999997,-27.7896,5.0004900000000001,-16.183199999999999
8679.0,108.622,119.848,24.7532,29.7883,-29.226199999999999,-0.14635600000000001,-14.6807
8680.0,110.583,127.188,31.161200000000001,35.639099999999999,-30.5076,-5.7717900000000002,-13.2331
8681.0,112.45999999999999,117.753,21.6585,26.475999999999999,-31.742599999999999,-11.6875,-11.8352
8682.0,114.875,123.691,27.8294,33.735900000000001,-33.029299999999999,-17.770600000000002,-10.292899999999999
8683.0,118.337,115.28400000000001,19.1065,26.702200000000001,-34.233400000000003,-23.8338,-8.2958700000000007
8684.0,123.389,123.846,25.647500000000001,35.493899999999996,-34.895400000000002,-30.018799999999999,-5.6383900000000002
8685.0,129.05199999999999,121.16500000000001,19.336500000000001,31.987100000000002,-34.098399999999998,-36.091900000000003,-2.42123
8686.0,133.84,132.15700000000001,27.572199999999999,43.857399999999998,-31.906199999999998,-42.262099999999997,0.53411699999999995
8687.0,136.71000000000001,126.925,20.684999999999999,42.740099999999998,-28.556999999999999,-47.586399999999998,2.55084
8688.0,136.21199999999999,134.90000000000001,30.3917,59.560000000000002,-25.5931,-51.026800000000001,4.2050599999999996
8689.0,136.066,119.41500000000001,21.110199999999999,55.076099999999997,-23.3049,-55.755000000000003,5.1705699999999997
8690.0,137.446,113.84399999999999,21.620999999999999,58.817399999999999,-21.459199999999999,-60.471400000000003,5.2088999999999999
8691.0,136.64099999999999,101.402,13.6311,58.290100000000002,-19.1738,-62.555399999999999,4.0772700000000004
8692.0,134.25999999999999,98.068899999999999,15.763299999999999,68.1113,-16.486499999999999,-63.235300000000002,1.65587
8693.0,129.76900000000001,78.914599999999993,4.46495,61.129899999999999,-14.6564,-62.340600000000002,-0.72784800000000005
8694.0,125.08,75.524000000000001,9.6989099999999997,70.859800000000007,-13.327999999999999,-60.692500000000003,-2.1289099999999999
8695.0,121.929,60.441800000000001,2.7811499999999998,68.906899999999993,-12.2379,-59.212899999999998,-2.1857500000000001
8696.0,120.057,58.727499999999999,8.8021200000000004,80.583500000000001,-10.91,-57.699199999999998,-1.58788
8697.0,119.208,44.979300000000002,2.2012700000000001,80.084400000000002,-9.4790200000000002,-55.901000000000003,-0.86507800000000001
8698.0,118.57899999999999,45.062800000000003,8.96645,92.821799999999996,-8.0319000000000003,-53.413499999999999,-0.46306599999999998
8699.0,117.952,31.140799999999999,1.2863500000000001,90.686499999999995,-6.7119999999999997,-50.207900000000002,-0.33257300000000001
8700.0,117.175,32.785499999999999,8.6496999999999993,102.98399999999999,-5.5655200000000002,-46.302100000000003,-0.49214000000000002
8701.0,116.357,19.611699999999999,0.65881299999999998,99.224199999999996,-4.6821200000000003,-41.891500000000001,-0.88136199999999998
8702.0,115.59,23.020299999999999,8.6385699999999996,110.86,-3.9994399999999999,-37.062199999999997,-1.4548399999999999
8703.0,88.179699999999997,113.768,37.557899999999997,53.126600000000003,-20.614899999999999,14.363099999999999,-18.421299999999999
8704.0,92.311000000000007,107.06100000000001,26.921299999999999,39.271299999999997,-23.1188,11.8451,-17.433700000000002
8705.0,95.670599999999993,120.078,36.486400000000003,46.009300000000003,-25.0807,8.3602000000000007,-16.061499999999999
8706.0,98.689099999999996,112.98999999999999,26.557400000000001,33.858600000000003,-26.801300000000001,4.3334799999999998,-14.5541
8707.0,100.76300000000001,121.782,33.658700000000003,39.701999999999998,-28.0871,-0.42339300000000002,-13.117800000000001
8708.0,102.501,112.967,24.159199999999998,29.774000000000001,-29.303799999999999,-5.5949099999999996,-11.7837
8709.0,104.11,119.488,30.838000000000001,36.823399999999999,-30.459199999999999,-11.0352,-10.4292
8710.0,106.414,109.944,21.647300000000001,28.542100000000001,-31.807099999999998,-16.539999999999999,-8.8146000000000004
8711.0,110.27500000000001,117.741,28.381599999999999,36.446199999999997,-32.877099999999999,-22.097999999999999,-6.4172599999999997
8712.0,116.005,114.863,22.515599999999999,31.818300000000001,-33.495600000000003,-27.729900000000001,-3.1061800000000002
8713.0,123.357,128.24299999999999,30.0183,41.356900000000003,-31.957599999999999,-34.100200000000001,0.77145799999999998
8714.0,127.967,128.036,26.333400000000001,40.523499999999999,-29.2987,-39.418199999999999,3.5306299999999999
8715.0,128.31399999999999,128.893,29.8459,49.521000000000001,-25.655799999999999,-45.508400000000002,3.0624199999999999
8716.0,128.696,113.152,19.238299999999999,42.935200000000002,-24.683199999999999,-50.251800000000003,1.0171399999999999
8717.0,127.54600000000001,113.506,22.582599999999999,52.087499999999999,-23.509799999999998,-52.115499999999997,1.5243800000000001
8718.0,128.16800000000001,101.387,12.504099999999999,50.046300000000002,-20.286999999999999,-55.181199999999997,5.3170299999999999
8719.0,129.94300000000001,108.04900000000001,23.895399999999999,66.953699999999998,-17.3674,-59.262799999999999,6.6276000000000002
8720.0,128.46700000000001,94.164699999999996,15.788,65.100899999999996,-13.667899999999999,-61.055500000000002,4.0979599999999996
8721.0,123.41800000000001,87.586299999999994,16.051100000000002,70.257400000000004,-11.8344,-59.522399999999998,1.3137300000000001
8722.0,117.637,70.060900000000004,6.7785700000000002,64.797700000000006,-10.6465,-57.138599999999997,-1.2482599999999999
8723.0,113.693,65.200100000000006,9.9160299999999992,71.948700000000002,-9.8223299999999991,-55.231999999999999,-1.82003
8724.0,111.70999999999999,52.505800000000001,4.6028799999999999,71.709800000000001,-8.9140700000000006,-53.698300000000003,-1.51332
8725.0,110.96599999999999,51.779000000000003,10.6389,83.361699999999999,-7.6796800000000003,-52.104999999999997,-0.91024400000000005
8726.0,110.521,39.191600000000001,4.5177699999999996,82.802499999999995,-6.3629499999999997,-49.921799999999998,-0.45473400000000003
8727.0,110.06399999999999,40.427599999999998,11.746600000000001,95.243200000000002,-5.1280099999999997,-47.030000000000001,-0.30338500000000002
8728.0,109.46899999999999,27.4636,4.3313800000000002,92.492599999999996,-4.0851100000000002,-43.4542,-0.40500799999999998
8729.0,108.834,30.038900000000002,11.8375,104.125,-3.2082099999999998,-39.3444,-0.69950400000000001
8730.0,108.217,17.422999999999998,3.5337999999999998,99.393799999999999,-2.51789,-34.819299999999998,-1.1870700000000001
8731.0,81.4482,98.641199999999998,28.475999999999999,44.167499999999997,-20.2956,12.411799999999999,-17.005400000000002
8732.0,85.403099999999995,109.19,35.1877,48.116300000000003,-22.476099999999999,10.269600000000001,-16.073499999999999
8733.0,88.835499999999996,104.87,27.421299999999999,37.729300000000002,-24.321999999999999,7.25204,-14.754899999999999
8734.0,91.614699999999999,114.66500000000001,34.581400000000002,42.872700000000002,-25.842400000000001,3.6348699999999998,-13.3161
8735.0,93.568600000000004,107.923,26.269400000000001,33.395600000000002,-27.020800000000001,-0.71229500000000001,-11.9306
8736.0,94.8339,114.39400000000001,32.519199999999998,39.3611,-28.126899999999999,-5.4139699999999999,-10.678100000000001
8737.0,96.386099999999999,104.035,22.3307,29.5261,-29.2502,-10.414300000000001,-9.2864500000000003
8738.0,98.3583,111.31699999999999,30.179300000000001,38.011200000000002,-30.552600000000002,-15.1896,-7.58535
8739.0,103.072,104.32599999999999,21.0213,29.156199999999998,-31.485399999999998,-20.471699999999998,-4.6301899999999998
8740.0,109.22499999999999,120.642,33.479799999999997,41.413600000000002,-31.833100000000002,-25.296700000000001,-0.76386699999999996
8741.0,118.697,120.723,26.052700000000002,35.256999999999998,-29.728999999999999,-32.763500000000001,3.7143799999999998
8742.0,123.145,139.828,41.367699999999999,53.256700000000002,-28.007300000000001,-36.804099999999998,5.2466999999999997
8743.0,118.911,113.92400000000001,22.0518,42.978999999999999,-22.8186,-43.212400000000002,2.5778500000000002
8744.0,119.664,51.123600000000003,-34.166899999999998,-11.023,-22.247199999999999,-48.299100000000003,-0.076506000000000005
8745.0,117.795,38.1145,-42.942,-20.0504,-24.291899999999998,-47.794199999999996,-2.1389399999999998
8746.0,119.063,91.0749,10.974500000000001,42.382899999999999,-21.716100000000001,-51.230899999999998,0.45032699999999998
8747.0,122.977,99.368099999999998,19.366299999999999,59.387799999999999,-17.099900000000002,-55.8277,5.6469399999999998
8748.0,123.191,101.133,25.964500000000001,73.973699999999994,-11.412599999999999,-58.669499999999999,6.1212499999999999
8749.0,118.411,79.696600000000004,11.020300000000001,62.464300000000001,-9.2870699999999999,-57.440199999999997,3.3864399999999999
8750.0,110.76900000000001,74.376900000000006,14.0884,68.985100000000003,-7.8688500000000001,-53.991799999999998,-0.14172000000000001
8751.0,106.248,58.553699999999999,5.6872800000000003,64.048599999999993,-7.5829899999999997,-51.627200000000002,-1.2121999999999999
8752.0,103.78,56.319699999999997,10.5504,73.184899999999999,-6.9144500000000004,-49.898499999999999,-1.42933
8753.0,103.19499999999999,43.101399999999998,3.8932600000000002,71.6233,-5.9976900000000004,-48.545900000000003,-0.84716000000000002
8754.0,102.887,43.872500000000002,10.7683,83.673199999999994,-4.9377300000000002,-46.597900000000003,-0.579843
8755.0,102.614,30.4102,3.1197699999999999,80.895499999999998,-3.8464399999999999,-44.020600000000002,-0.39065100000000003
8756.0,102.104,32.649099999999997,10.696899999999999,92.828800000000001,-2.9345400000000001,-40.7194,-0.46696799999999999
8757.0,101.68899999999999,19.695499999999999,2.5247299999999999,88.623099999999994,-2.1888700000000001,-36.947499999999998,-0.70285299999999995
8758.0,101.21599999999999,23.551600000000001,10.554399999999999,100.068,-1.6495599999999999,-32.733600000000003,-1.14154
8759.0,75.506,102.804,38.091900000000003,54.257899999999999,-20.063099999999999,10.554,-15.880599999999999
8760.0,79.268600000000006,97.636300000000006,29.223099999999999,42.981099999999998,-21.9895,8.7362099999999998,-15.005699999999999
8761.0,82.646000000000001,108.629,36.784799999999997,48.175400000000003,-23.632899999999999,6.1770199999999997,-13.7522
8762.0,85.167599999999993,102.989,28.715599999999998,38.241900000000001,-24.956199999999999,2.9425599999999998,-12.3751
8763.0,86.880600000000001,109.26000000000001,33.6584,42.188299999999998,-26.041,-1.0117400000000001,-11.064399999999999
8764.0,87.796199999999999,101.994,26.4391,34.8459,-26.9968,-5.2600899999999999,-9.9092900000000004
8765.0,89.138099999999994,105.88200000000001,30.776700000000002,39.3675,-28.1267,-9.7535500000000006,-8.5143699999999995
8766.0,91.064099999999996,100.134,25.280200000000001,33.956200000000003,-29.172899999999998,-13.9001,-6.60562
8767.0,96.333799999999997,108.35299999999999,30.7379,38.537999999999997,-30.149000000000001,-18.658200000000001,-3.1335500000000001
8768.0,103.627,115.535,32.435099999999998,38.569600000000001,-29.709900000000001,-23.469200000000001,1.2404299999999999
8769.0,114.124,128.22900000000001,37.366999999999997,43.746099999999998,-27.994599999999998,-30.795400000000001,6.0880400000000003
8770.0,116.133,131.55799999999999,40.200600000000001,50.282899999999998,-26.552499999999998,-35.322000000000003,5.8364000000000003
8771.0,112.79600000000001,95.915300000000002,9.4847599999999996,33.280000000000001,-22.203099999999999,-41.882300000000001,0.75392000000000003
8772.0,111.254,11.301500000000001,-74.1053,-41.125,-23.206299999999999,-41.5259,-2.7878099999999999
8773.0,107.242,-11.4702,-90.415700000000001,-57.215299999999999,-23.5321,-41.134799999999998,-4.0739900000000002
8774.0,111.051,20.6736,-55.263100000000001,-26.089099999999998,-21.424199999999999,-46.735300000000002,-0.46945100000000001
8775.0,114.166,93.696200000000005,18.668800000000001,52.162100000000002,-16.894200000000001,-51.2928,3.9445000000000001
8776.0,118.154,98.896500000000003,28.4937,73.645300000000006,-9.7152200000000004,-57.012900000000002,6.0384399999999996
8777.0,114.062,86.918899999999994,21.5184,68.897199999999998,-6.8890200000000004,-55.866100000000003,5.2047600000000003
8778.0,104.538,73.055499999999995,16.877199999999998,68.261200000000002,-4.9351599999999998,-51.446199999999997,1.33586
8779.0,99.434100000000001,61.905099999999997,12.4146,66.224599999999995,-5.0272800000000002,-48.749299999999998,-0.18282000000000001
8780.0,96.072800000000001,52.930300000000003,10.2409,68.219099999999997,-4.9062700000000001,-46.353999999999999,-0.97948000000000002
8781.0,95.999799999999993,49.2654,12.161300000000001,75.136499999999998,-4.5032500000000004,-45.268300000000004,-0.71351100000000001
8782.0,95.595399999999998,39.176699999999997,7.9224500000000004,75.651200000000003,-3.6971500000000002,-43.392899999999997,-0.693187
8783.0,95.598600000000005,38.685899999999997,12.8108,85.181399999999996,-2.8581300000000001,-41.146900000000002,-0.55917700000000004
8784.0,95.050600000000003,27.907900000000001,7.1320499999999996,83.533299999999997,-2.1394700000000002,-38.026600000000002,-0.66798500000000005
8785.0,94.867500000000007,29.105399999999999,12.873100000000001,93.126099999999994,-1.50271,-34.592199999999998,-0.78640500000000002
8786.0,94.515600000000006,18.6661,6.3900399999999999,89.938299999999998,-1.0214300000000001,-30.6632,-1.1562699999999999
8787.0,70.225499999999997,90.242599999999996,30.540900000000001,47.415500000000002,-19.912600000000001,8.6625999999999994,-15.004
8788.0,74.027600000000007,99.282700000000006,35.799599999999998,50.655999999999999,-21.648299999999999,7.3444500000000001,-14.1967
8789.0,76.989800000000002,95.638800000000003,28.964600000000001,41.773899999999998,-23.002600000000001,5.0948200000000003,-12.9964
8790.0,79.454400000000007,103.901,34.784300000000002,45.871000000000002,-24.1844,2.26905,-11.677300000000001
8791.0,80.592600000000004,97.755200000000002,27.848400000000002,38.121299999999998,-25.0639,-1.29271,-10.507199999999999
8792.0,81.419899999999998,101.78,31.971699999999998,42.004100000000001,-25.922899999999998,-5.1403600000000003,-9.3161400000000008
8793.0,82.179500000000004,93.224199999999996,24.399699999999999,34.582799999999999,-26.985900000000001,-8.9285300000000003,-7.9570299999999996
8794.0,84.805999999999997,100.119,30.422999999999998,40.006300000000003,-27.831700000000001,-12.782,-5.6775399999999996
8795.0,89.733400000000003,100.601,28.172599999999999,35.311999999999998,-28.543199999999999,-16.4954,-1.98821
8796.0,99.295699999999997,118.254,38.344000000000001,42.830399999999997,-27.522600000000001,-22.457899999999999,2.9924200000000001
8797.0,108.458,127.777,41.784999999999997,45.542700000000004,-27.055599999999998,-27.921500000000002,6.8941699999999999
8798.0,107.386,125.432,42.368299999999998,53.615200000000002,-23.935300000000002,-34.7971,5.4361600000000001
8799.0,108.41,43.802500000000002,-37.065899999999999,-14.0189,-22.717500000000001,-40.8108,0.522424
8800.0,103.38,4.0878500000000004,-75.629000000000005,-43.876899999999999,-25.081299999999999,-35.941000000000003,-5.5728400000000002
8801.0,100.70699999999999,-19.368300000000001,-96.7453,-54.443199999999997,-22.827200000000001,-36.168199999999999,-7.0903099999999997
8802.0,105.369,-2.4965600000000001,-81.813800000000001,-43.2881,-20.817,-41.136600000000001,-1.4369000000000001
8803.0,106.675,57.992400000000004,-15.4521,16.5411,-15.832100000000001,-46.639400000000002,3.3639800000000002
8804.0,111.38,94.692700000000002,28.129100000000001,67.265500000000003,-7.8614699999999997,-53.966700000000003,6.4676600000000004
8805.0,109.49299999999999,82.449600000000004,21.145499999999998,65.310100000000006,-3.7465600000000001,-54.2151,6.5192899999999998
8806.0,99.703500000000005,76.638900000000007,24.2196,71.631,-2.3725200000000002,-49.607300000000002,3.2101799999999998
8807.0,92.528599999999997,59.284100000000002,13.128399999999999,63.021799999999999,-2.45939,-45.552599999999998,0.69667400000000002
8808.0,88.951599999999999,55.610599999999998,16.207100000000001,69.627300000000005,-3.0169199999999998,-43.1419,-0.049211100000000001
8809.0,88.950400000000002,41.872999999999998,7.5652699999999999,65.692099999999996,-3.0089399999999999,-42.1235,-0.31873800000000002
8810.0,88.945999999999998,43.265799999999999,14.0197,76.973699999999994,-2.59545,-40.467199999999998,-0.57824900000000001
8811.0,88.820499999999996,29.8628,5.5787399999999998,72.725099999999998,-1.9836100000000001,-38.331299999999999,-0.73938899999999996
8812.0,88.398300000000006,32.316099999999999,12.8293,83.787499999999994,-1.5124,-35.465200000000003,-0.81919699999999995
8813.0,88.250799999999998,19.982299999999999,4.7334199999999997,79.303600000000003,-1.0632299999999999,-32.279499999999999,-0.96261799999999997
8814.0,88.163799999999995,23.698799999999999,12.2135,90.069599999999994,-0.702349,-28.6797,-1.228
8815.0,65.917500000000004,95.563699999999997,40.293399999999998,58.263399999999997,-20.0,6.9158299999999997,-14.342499999999999
8816.0,69.484099999999998,87.563000000000002,28.4238,44.825699999999998,-21.394600000000001,6.0006700000000004,-13.5444
8817.0,72.067099999999996,100.66,38.538600000000002,53.160600000000002,-22.487100000000002,4.07864,-12.4129
8818.0,74.274699999999996,91.822199999999995,27.421800000000001,40.470199999999998,-23.502300000000002,1.5895999999999999,-11.176500000000001
8819.0,74.981800000000007,100.26600000000001,35.351700000000001,47.988500000000002,-24.192399999999999,-1.56176,-10.097
8820.0,75.656599999999997,89.283600000000007,24.583500000000001,37.121400000000001,-25.0243,-4.9855700000000001,-8.9182199999999998
8821.0,76.026300000000006,97.804900000000004,34.1843,46.469700000000003,-25.766300000000001,-8.1094500000000007,-7.6179600000000001
8822.0,79.067400000000006,89.164100000000005,24.224699999999999,34.686700000000002,-26.6325,-11.553599999999999,-5.0376099999999999
8823.0,84.257599999999996,109.271,40.439100000000003,47.305199999999999,-26.634899999999998,-14.7607,-1.2969900000000001
8824.0,94.969899999999996,111.342,34.804200000000002,37.6877,-25.792300000000001,-21.078900000000001,3.86999
8825.0,100.68300000000001,132.86099999999999,53.928600000000003,55.717700000000001,-25.337700000000002,-25.848099999999999,6.1764900000000003
8826.0,100.10899999999999,90.865899999999996,14.619300000000001,27.967700000000001,-22.1069,-34.2258,4.7470100000000004
8827.0,102.381,19.401900000000001,-58.546399999999998,-33.247500000000002,-23.6785,-36.701300000000003,2.22566
8828.0,96.430800000000005,-12.094099999999999,-88.874099999999999,-55.916699999999999,-24.4314,-31.778199999999998,-3.0420600000000002
8829.0,94.336299999999994,-1.9176200000000001,-75.632599999999996,-35.257800000000003,-21.192900000000002,-33.3904,-6.3075999999999999
8830.0,98.595600000000005,-11.3894,-85.869600000000005,-47.389299999999999,-18.026499999999999,-38.910299999999999,-3.7501199999999999
8831.0,102.185,40.512099999999997,-32.406399999999998,-0.75849100000000003,-14.157500000000001,-43.989199999999997,2.84552
8832.0,103.51000000000001,90.096100000000007,24.979700000000001,59.557400000000001,-7.0727799999999998,-49.088900000000002,7.0930900000000001
8833.0,104.911,97.864800000000002,41.581699999999998,83.5017,-0.79832700000000001,-52.619300000000003,6.64222
8834.0,95.533100000000005,70.986400000000003,22.776399999999999,64.178200000000004,-0.0037767899999999999,-48.407699999999998,4.2556000000000003
8835.0,84.744600000000005,65.055700000000002,25.927600000000002,69.445800000000006,-0.18340300000000001,-42.636200000000002,1.40798
8836.0,82.327500000000001,49.719299999999997,14.633100000000001,62.817599999999999,-1.89856,-40.4191,1.11229
8837.0,82.243799999999993,51.555799999999998,20.2058,73.969999999999999,-1.9918499999999999,-39.005200000000002,0.091024900000000006
8838.0,82.838099999999997,36.889400000000002,9.9674399999999999,68.297600000000003,-1.6220399999999999,-37.846800000000002,-0.307641
8839.0,82.409400000000005,39.879800000000003,17.343299999999999,79.657399999999996,-1.3555999999999999,-35.577300000000001,-0.81027099999999996
8840.0,82.125900000000001,26.598600000000001,8.2252200000000002,74.1648,-1.11548,-32.983699999999999,-1.01475
8841.0,81.870199999999997,30.194600000000001,15.760999999999999,85.035200000000003,-0.87770899999999996,-29.939399999999999,-1.1467400000000001
8842.0,82.103700000000003,18.501799999999999,7.5243799999999998,80.103300000000004,-0.59619900000000003,-26.727900000000002,-1.3345
8843.0,62.777200000000001,81.816000000000003,30.2578,49.7331,-20.322099999999999,5.49756,-13.8795
8844.0,65.538200000000003,91.815200000000004,36.545999999999999,55.056699999999999,-21.186,4.5941999999999998,-13.053000000000001
8845.0,68.084999999999994,86.687299999999993,28.3492,45.189300000000003,-22.157900000000001,3.1424599999999998,-11.951599999999999
8846.0,69.591300000000004,94.987200000000001,34.848700000000001,50.586599999999997,-22.869599999999998,0.96138999999999997,-10.8514
8847.0,70.194000000000003,87.390799999999999,26.793700000000001,42.059600000000003,-23.395800000000001,-1.94977,-9.8946799999999993
8848.0,70.340800000000002,91.139600000000002,31.3596,46.417299999999997,-24.082000000000001,-4.7468500000000002,-8.9474800000000005
8849.0,70.8797,83.033100000000005,23.623899999999999,38.067799999999998,-24.616499999999998,-7.4094100000000003,-7.3334000000000001
8850.0,73.474199999999996,94.010099999999994,33.3245,44.979700000000001,-25.3432,-9.9467599999999994,-4.6018699999999999
8851.0,80.264099999999999,97.841200000000001,31.3447,38.401699999999998,-24.857199999999999,-13.9598,-0.75990800000000003
8852.0,89.762900000000002,119.642,46.483499999999999,49.019399999999997,-24.5627,-18.563300000000002,3.6777299999999999
8853.0,91.574700000000007,117.277,44.413499999999999,50.034599999999998,-22.859100000000002,-24.563600000000001,5.0694400000000002
8854.0,94.745800000000003,67.441299999999998,-4.86456,11.609,-21.9465,-32.552799999999998,3.8468100000000001
8855.0,94.996899999999997,5.87812,-68.032499999999999,-43.310000000000002,-24.343299999999999,-31.583400000000001,1.5661700000000001
8856.0,91.721299999999999,0.75071600000000005,-72.047600000000003,-40.072200000000002,-22.844899999999999,-30.823399999999999,-0.93264999999999998
8857.0,89.3566,-2.75081,-74.151799999999994,-38.273000000000003,-18.839400000000001,-32.035400000000003,-2.4110800000000001
8858.0,91.002300000000005,-8.9651599999999991,-79.405600000000007,-41.679400000000001,-13.3002,-36.573099999999997,-1.85223
8859.0,97.449200000000005,17.866199999999999,-52.935299999999998,-22.869399999999999,-11.939500000000001,-41.851399999999998,2.9418899999999999
8860.0,97.0672,95.386099999999999,33.656599999999997,62.851399999999998,-6.7037300000000002,-45.914700000000003,5.8323900000000002
8861.0,99.491600000000005,89.944800000000001,39.111699999999999,77.105400000000003,0.72597999999999996,-50.634300000000003,6.0368599999999999
8862.0,90.030199999999994,74.424700000000001,28.968,67.591300000000004,1.50238,-45.612200000000001,4.2762700000000002
8863.0,77.092799999999997,63.771799999999999,26.392399999999999,68.404499999999999,0.39464300000000002,-38.043199999999999,1.7434099999999999
8864.0,75.353899999999996,52.071199999999997,19.1831,63.776299999999999,-1.66936,-36.791899999999998,1.3315600000000001
8865.0,75.808499999999995,43.029200000000003,15.066800000000001,64.116799999999998,-1.44018,-36.165399999999998,0.46698899999999999
8866.0,77.190899999999999,42.138100000000001,17.633400000000002,71.954800000000006,-0.94233500000000003,-35.286900000000003,0.20405400000000001
8867.0,76.651600000000002,30.7745,9.9099000000000004,67.872699999999995,-0.84905799999999998,-33.094499999999996,-0.79893700000000001
8868.0,76.009200000000007,31.651499999999999,14.531499999999999,75.638999999999996,-0.83412600000000003,-30.498100000000001,-1.1326400000000001
8869.0,75.885300000000001,20.976600000000001,7.2711899999999998,71.626499999999993,-0.85080299999999998,-27.712700000000002,-1.29053
8870.0,76.228899999999996,24.056100000000001,13.5113,81.059399999999997,-0.67061899999999997,-24.774699999999999,-1.4681999999999999
8871.0,60.560099999999998,84.712999999999994,36.1357,57.777500000000003,-20.728300000000001,4.2844600000000002,-13.498699999999999
8872.0,62.372399999999999,82.757999999999996,30.844000000000001,51.900700000000001,-21.122599999999998,3.2276400000000001,-12.586600000000001
8873.0,64.8703,89.793700000000001,34.664099999999998,54.1965,-21.968599999999999,2.28213,-11.5571
8874.0,65.646900000000002,85.451499999999996,29.002800000000001,47.911200000000001,-22.330100000000002,0.35925800000000002,-10.5924
8875.0,66.027100000000004,87.496899999999997,30.634,49.066299999999998,-22.717500000000001,-2.22526,-9.5122699999999991
8876.0,65.558400000000006,79.423699999999997,23.722899999999999,41.9572,-23.109100000000002,-4.3502400000000003,-8.5563900000000004
8877.0,66.441199999999995,86.076499999999996,30.3399,47.241599999999998,-23.713000000000001,-6.6245700000000003,-6.9679000000000002
8878.0,68.8078,88.668300000000002,30.8977,44.094999999999999,-23.856300000000001,-8.5372599999999998,-4.4457899999999997
8879.0,76.725099999999998,103.31699999999999,38.864400000000003,46.640999999999998,-23.533999999999999,-13.052300000000001,-0.478746
8880.0,83.767799999999994,114.919,45.398699999999998,50.064,-23.544599999999999,-16.456,1.9225399999999999
8881.0,84.013199999999998,107.429,39.408900000000003,51.057600000000001,-21.0868,-24.1097,1.86111
8882.0,89.035700000000006,27.702999999999999,-41.305,-22.846800000000002,-22.030200000000001,-29.6143,1.9401299999999999
8883.0,87.393900000000002,6.39703,-62.823300000000003,-40.660400000000003,-23.6203,-27.137499999999999,1.42503
8884.0,87.502499999999998,3.1678600000000001,-65.831500000000005,-37.366199999999999,-20.0747,-30.7212,1.7538199999999999
8885.0,86.800600000000003,9.0173699999999997,-60.450299999999999,-30.0471,-16.215699999999998,-32.178199999999997,0.61143199999999998
8886.0,85.736699999999999,-6.7375100000000003,-72.584100000000007,-38.170200000000001,-10.6151,-35.392400000000002,-0.51868999999999998
8887.0,90.9786,11.752599999999999,-52.916600000000003,-26.2775,-9.17807,-40.113999999999997,3.0538099999999999
8888.0,92.960999999999999,67.075400000000002,10.7532,33.286700000000003,-4.9102100000000002,-44.974600000000002,5.4912200000000002
8889.0,91.935699999999997,96.456000000000003,50.161999999999999,81.800200000000004,0.46943400000000002,-47.192599999999999,5.49634
8890.0,82.102000000000004,66.263499999999993,27.7743,66.1708,0.25938600000000001,-41.869999999999997,1.06226
8891.0,71.285700000000006,50.285499999999999,17.4209,54.7761,-3.32823,-35.549999999999997,-1.7496700000000001
8892.0,66.423699999999997,47.650700000000001,16.75,55.233499999999999,-3.9831099999999999,-32.234900000000003,-0.435755
8893.0,69.740499999999997,51.280799999999999,25.958200000000001,72.546899999999994,-1.3024899999999999,-32.792200000000001,0.46948899999999999
8894.0,72.503900000000002,37.546100000000003,15.3024,65.698999999999998,-0.83765999999999996,-33.363199999999999,0.77616200000000002
8895.0,71.089399999999998,39.7637,20.6553,74.667000000000002,-0.55521799999999999,-30.5502,-0.91556700000000002
8896.0,70.401600000000002,27.4148,11.204800000000001,68.0762,-0.864568,-28.137799999999999,-1.1092
8897.0,70.090500000000006,30.347999999999999,17.013999999999999,76.891999999999996,-1.0139100000000001,-25.417000000000002,-1.5022800000000001
8898.0,70.723399999999998,20.0687,9.5686999999999998,72.634299999999996,-0.93821699999999997,-22.8521,-1.5453699999999999
8899.0,58.863900000000001,73.451400000000007,27.374500000000001,51.833399999999997,-21.077200000000001,2.9208799999999999,-13.067600000000001
8900.0,60.436,86.168899999999994,36.808199999999999,60.887500000000003,-21.352799999999998,2.0624600000000002,-12.168200000000001
8901.0,62.2729,77.952600000000004,25.601500000000001,48.641300000000001,-21.8399,1.4321900000000001,-11.187900000000001
8902.0,62.777099999999997,87.375299999999996,33.7117,56.302500000000002,-21.964300000000001,-0.27702900000000003,-10.257
8903.0,62.712000000000003,77.7547,24.023199999999999,46.638300000000001,-22.1708,-2.2650899999999998,-9.2989599999999992
8904.0,62.126899999999999,82.510400000000004,29.559200000000001,52.010599999999997,-22.2712,-4.1032700000000002,-8.2086799999999993
8905.0,62.392600000000002,75.104799999999997,22.569600000000001,42.551600000000001,-22.7851,-5.5896100000000004,-6.6370399999999998
8906.0,65.458799999999997,90.959699999999998,34.774900000000002,49.662100000000002,-22.454699999999999,-7.8069899999999999,-3.9768400000000002
8907.0,73.021799999999999,97.290099999999995,34.825299999999999,43.418100000000003,-22.591200000000001,-10.976900000000001,-0.47573199999999999
8908.0,76.754999999999995,110.559,46.1145,53.518999999999998,-21.483000000000001,-16.074999999999999,0.52931799999999996
8909.0,78.843199999999996,61.808799999999998,-2.1408200000000002,12.3901,-19.688400000000001,-23.677199999999999,-0.143321
8910.0,81.654399999999995,10.5374,-55.984299999999998,-35.649299999999997,-21.392399999999999,-24.543800000000001,0.689164
8911.0,81.133200000000002,1.3212600000000001,-65.201400000000007,-42.576599999999999,-21.638000000000002,-24.062899999999999,1.7165600000000001
8912.0,85.199399999999997,13.6656,-53.4574,-28.982299999999999,-17.786100000000001,-30.6309,3.3391099999999998
8913.0,84.402199999999993,8.6753400000000003,-58.0259,-32.404699999999998,-13.6379,-32.379899999999999,2.8196599999999998
8914.0,81.914500000000004,-0.91464400000000001,-62.2973,-31.7209,-8.6784499999999998,-34.892200000000003,1.3839600000000001
8915.0,85.191599999999994,3.36937,-57.814599999999999,-32.771299999999997,-6.2264200000000001,-37.691899999999997,3.6911999999999998
8916.0,88.949600000000004,56.8399,1.27203,23.681100000000001,-2.63131,-42.397100000000002,7.1641599999999999
8917.0,83.738200000000006,90.4054,46.956499999999998,74.723500000000001,-0.73147200000000001,-42.673200000000001,5.6309800000000001
8918.0,74.169799999999995,33.926600000000001,4.3470000000000004,42.8932,0.098898399999999997,-37.732599999999998,-1.7614799999999999
8919.0,66.001099999999994,-19.8993,-50.629100000000001,-16.993500000000001,-4.3612900000000003,-32.850900000000003,-2.5477599999999998
8920.0,57.154899999999998,38.908000000000001,7.6831199999999997,39.339300000000001,-6.4174600000000002,-26.7698,-1.2397100000000001
8921.0,64.173900000000003,47.187600000000003,24.204899999999999,69.899000000000001,-1.6761699999999999,-29.1097,-0.76522699999999999
8922.0,68.730800000000002,39.574599999999997,17.7254,65.076599999999999,-0.94010800000000005,-31.787700000000001,1.2874399999999999
8923.0,65.493899999999996,34.0886,16.577999999999999,67.1995,-0.41032400000000002,-27.706499999999998,-1.04095
8924.0,65.397300000000001,29.787099999999999,14.2987,67.271600000000007,-0.97714900000000005,-26.111000000000001,-1.00824
8925.0,64.390299999999996,23.7057,10.703200000000001,66.368200000000002,-1.27718,-23.017700000000001,-1.623
8926.0,65.695099999999996,23.831600000000002,13.204800000000001,72.227099999999993,-1.24926,-21.088899999999999,-1.59046
8927.0,57.766100000000002,80.742599999999996,36.902299999999997,64.439300000000003,-21.513999999999999,1.44709,-12.504
8928.0,59.316600000000001,73.686899999999994,26.404199999999999,53.6128,-21.7578,1.2267600000000001,-11.608599999999999
8929.0,60.275300000000001,84.634200000000007,34.750599999999999,61.460999999999999,-21.758299999999998,0.63410900000000003,-10.6807
8930.0,60.7072,74.826899999999995,23.418800000000001,49.7879,-21.736000000000001,-0.73414800000000002,-9.7271400000000003
8931.0,59.9542,81.798599999999993,30.913499999999999,57.4908,-21.5488,-2.2218499999999999,-9.0071899999999996
8932.0,59.285600000000002,71.103999999999999,20.750499999999999,46.517000000000003,-21.423200000000001,-3.88611,-7.97187
8933.0,58.737000000000002,84.611000000000004,34.684399999999997,57.559699999999999,-21.527999999999999,-4.4702799999999998,-6.4770200000000004
8934.0,62.703299999999999,81.704700000000003,26.857700000000001,43.258200000000002,-21.273199999999999,-7.3570099999999998,-3.3681700000000001
8935.0,69.257999999999996,111.176,50.958500000000001,60.167700000000004,-21.654800000000002,-8.7971599999999999,-0.66632800000000003
8936.0,70.571899999999999,96.327799999999996,34.940100000000001,47.185899999999997,-18.9236,-15.6707,0.94955500000000004
8937.0,74.450699999999998,36.968299999999999,-26.156300000000002,-7.0539100000000001,-18.102900000000002,-21.689499999999999,1.2478100000000001
8938.0,74.715500000000006,-9.1554300000000008,-73.313599999999994,-51.545900000000003,-20.228000000000002,-19.671800000000001,0.37310900000000002
8939.0,76.188199999999995,13.405200000000001,-50.866599999999998,-28.123000000000001,-19.0288,-22.550899999999999,1.4552099999999999
8940.0,83.550700000000006,8.3933599999999995,-57.8658,-36.7239,-15.8133,-30.220400000000001,4.2547300000000003
8941.0,82.040199999999999,23.5198,-40.564999999999998,-18.229600000000001,-11.6021,-32.214100000000002,3.6118700000000001
8942.0,78.666799999999995,-8.0075699999999994,-65.627399999999994,-37.602200000000003,-7.4657499999999999,-34.241399999999999,2.0970200000000001
8943.0,80.266000000000005,13.674099999999999,-44.765099999999997,-19.741499999999998,-6.2727000000000004,-35.232799999999997,2.6821199999999998
8944.0,82.973100000000002,65.865899999999996,11.859500000000001,35.7956,-4.1541300000000003,-38.976300000000002,5.1120599999999996
8945.0,76.120900000000006,101.988,59.803400000000003,87.744399999999999,-2.4286099999999999,-37.9923,4.6512599999999997
8946.0,67.185699999999997,14.179600000000001,-16.9635,27.634,-0.0104332,-31.2971,-1.3492900000000001
8947.0,61.319499999999998,-34.232100000000003,-72.803200000000004,-31.900300000000001,-4.7788199999999996,-26.438300000000002,-1.95889
8948.0,51.789200000000001,29.2471,-7.2889499999999998,23.926600000000001,-7.9245299999999999,-20.925799999999999,-1.93668
8949.0,58.2014,55.517200000000003,33.701300000000003,77.435100000000006,-2.2436199999999999,-25.325399999999998,-2.13598
8950.0,64.856700000000004,33.247399999999999,12.307600000000001,56.629800000000003,-1.4388000000000001,-30.132000000000001,0.71636500000000003
8951.0,60.310299999999998,44.390599999999999,28.104299999999999,75.392799999999994,-0.92053799999999997,-25.165700000000001,-1.0891500000000001
8952.0,60.493699999999997,25.251000000000001,10.0044,59.7209,-1.2226300000000001,-23.8443,-1.02773
8953.0,59.282800000000002,34.2361,21.001999999999999,73.136099999999999,-1.7365999999999999,-20.771999999999998,-1.6136200000000001
8954.0,60.843699999999998,19.6692,8.4127299999999998,63.846499999999999,-1.6555200000000001,-19.2315,-1.6890400000000001
8955.0,57.607199999999999,70.552300000000002,28.578099999999999,59.346200000000003,-22.240400000000001,0.237844,-11.7965
8956.0,58.786700000000003,78.455699999999993,32.892699999999998,63.6098,-22.2196,0.49608000000000002,-10.8635
8957.0,59.280799999999999,73.336299999999994,25.2563,55.916899999999998,-21.917999999999999,-0.0131191,-9.9231800000000003
8958.0,59.355499999999999,78.8767,29.325800000000001,59.891300000000001,-21.604900000000001,-1.02624,-9.0297999999999998
8959.0,58.205100000000002,72.281700000000001,23.313199999999998,54.323099999999997,-21.0321,-2.1524399999999999,-8.2839399999999994
8960.0,56.988199999999999,74.338200000000001,25.877099999999999,55.597499999999997,-20.582000000000001,-3.3355399999999999,-7.1162999999999998
8961.0,55.826599999999999,72.529600000000002,24.090900000000001,50.053400000000003,-20.145,-3.46448,-5.7841699999999996
8962.0,59.552700000000002,87.325900000000004,34.023499999999999,51.777500000000003,-19.916599999999999,-6.4504700000000001,-2.6869999999999998
8963.0,65.211299999999994,101.334,43.370699999999999,52.469200000000001,-19.6812,-7.63523,-0.380328
8964.0,65.930199999999999,100.093,41.450099999999999,54.963099999999997,-16.927399999999999,-14.7562,1.2617
8965.0,69.955200000000005,32.605800000000002,-28.691099999999999,-7.0343200000000001,-16.694400000000002,-19.543399999999998,2.0784600000000002
8966.0,69.448899999999995,3.8130299999999999,-58.365600000000001,-35.335999999999999,-18.279199999999999,-16.862200000000001,1.02597
8967.0,72.550399999999996,7.7837300000000003,-55.1569,-33.115900000000003,-16.466999999999999,-21.456800000000001,1.7160899999999999
8968.0,80.910200000000003,18.615100000000002,-46.409100000000002,-27.514199999999999,-13.9749,-29.156700000000001,4.2305299999999999
8969.0,80.354799999999997,15.1267,-46.7806,-25.9434,-10.268700000000001,-32.239899999999999,3.8986200000000002
8970.0,75.537199999999999,2.4279600000000001,-53.689399999999999,-27.335000000000001,-6.8586,-32.580100000000002,2.2782800000000001
8971.0,73.330299999999994,-2.7469800000000002,-54.674599999999998,-29.594100000000001,-6.8322900000000004,-32.714100000000002,1.08324
8972.0,77.216200000000001,40.760899999999999,-7.0762799999999997,15.173400000000001,-6.72119,-36.9574,1.8428199999999999
8973.0,69.392899999999997,87.582899999999995,44.8994,71.756100000000004,-5.4921100000000003,-33.2318,2.2359100000000001
8974.0,62.3155,28.0258,-3.3696000000000002,44.497700000000002,-3.5445899999999999,-26.153300000000002,-2.54372
8975.0,58.857500000000002,-40.795400000000001,-79.234700000000004,-35.903500000000001,-7.4655699999999996,-22.761500000000002,-4.2107099999999997
8976.0,49.5105,24.874300000000002,-14.053699999999999,17.070699999999999,-8.9032599999999995,-17.308599999999998,-3.7509999999999999
8977.0,52.451000000000001,45.2483,22.2926,63.891399999999997,-2.6308199999999999,-21.638500000000001,-2.7797700000000001
8978.0,59.911900000000003,34.693399999999997,14.426299999999999,56.2729,-0.94547000000000003,-27.525200000000002,0.144701
8979.0,55.6875,33.822499999999998,18.005800000000001,62.157600000000002,-1.13243,-23.055,-0.68918800000000002
8980.0,55.579700000000003,31.361599999999999,16.479399999999998,63.102699999999999,-1.5244599999999999,-21.426100000000002,-1.0885899999999999
8981.0,54.7361,24.730799999999999,11.1639,60.078099999999999,-2.0591900000000001,-18.830100000000002,-1.47872
8982.0,56.133499999999998,26.121700000000001,14.301600000000001,66.284099999999995,-2.0131600000000001,-17.346800000000002,-1.69635
8983.0,57.536799999999999,75.869799999999998,35.886800000000001,69.123400000000004,-22.983899999999998,-0.40061099999999999,-10.813700000000001
8984.0,57.982599999999998,68.621700000000004,25.1951,58.212200000000003,-22.625299999999999,0.050769399999999999,-9.7311800000000002
8985.0,58.124699999999997,79.120699999999999,33.154800000000002,66.221900000000005,-22.0716,-0.240507,-8.7655499999999993
8986.0,57.725900000000003,69.170299999999997,21.818000000000001,55.108499999999999,-21.364100000000001,-1.0512600000000001,-7.8650500000000001
8987.0,56.3996,75.191800000000001,28.189900000000002,62.090600000000002,-20.4193,-1.8919699999999999,-7.1715400000000002
8988.0,54.805500000000002,66.482399999999998,19.793800000000001,52.344000000000001,-19.535399999999999,-2.70383,-6.2504400000000002
8989.0,53.218600000000002,81.7273,34.3932,62.390599999999999,-18.591999999999999,-2.6629100000000001,-4.9942000000000002
8990.0,55.950499999999998,83.058300000000003,31.444099999999999,49.945399999999999,-18.046299999999999,-5.3854899999999999,-2.2398500000000001
8991.0,61.561300000000003,111.935,55.343699999999998,65.432299999999998,-17.436499999999999,-6.9343300000000001,0.061441599999999999
8992.0,61.874299999999998,99.324200000000005,42.973700000000001,57.013100000000001,-15.3238,-13.331200000000001,1.7757000000000001
8993.0,64.792400000000001,47.816200000000002,-9.5907599999999995,11.6744,-15.2273,-17.931699999999999,1.89744
8994.0,65.571799999999996,3.3986299999999998,-56.731499999999997,-33.796599999999998,-16.220099999999999,-15.777900000000001,0.57746399999999998
8995.0,69.705500000000001,15.116400000000001,-46.719499999999996,-25.365100000000002,-14.575100000000001,-20.4407,1.7206600000000001
8996.0,77.647400000000005,15.641299999999999,-47.624699999999997,-29.883900000000001,-12.377800000000001,-27.859000000000002,3.9239600000000001
8997.0,78.479500000000002,22.0489,-38.201900000000002,-17.409500000000001,-9.5987799999999996,-31.761399999999998,3.9388200000000002
8998.0,72.647300000000001,0.42996400000000001,-54.820700000000002,-28.654,-7.5194099999999997,-30.575399999999998,1.9852399999999999
8999.0,66.018100000000004,-3.4645700000000001,-52.379300000000001,-23.483000000000001,-6.3159000000000001,-28.423400000000001,0.53298299999999998
9000.0,70.574600000000004,-11.2035,-56.615099999999998,-30.089400000000001,-7.1159100000000004,-32.956099999999999,1.7612099999999999
9001.0,65.029499999999999,64.616900000000001,22.991,46.2271,-8.2934099999999997,-30.075600000000001,1.0732200000000001
9002.0,55.410499999999999,30.748799999999999,3.4291499999999999,45.063499999999998,-4.3399799999999997,-23.5243,-1.9400299999999999
9003.0,53.859499999999997,-41.020099999999999,-73.864699999999999,-32.3429,-5.0556099999999997,-21.328700000000001,-2.6053899999999999
9004.0,46.825000000000003,11.9872,-25.768599999999999,4.1602499999999996,-7.4565700000000001,-16.2592,-3.7166700000000001
9005.0,47.390999999999998,53.436999999999998,28.512899999999998,66.980000000000004,-3.0535600000000001,-18.594799999999999,-3.5804499999999999
9006.0,54.258400000000002,37.944200000000002,17.373899999999999,57.786799999999999,-1.0660700000000001,-23.900099999999998,-0.79138799999999998
9007.0,51.585999999999999,43.736699999999999,27.237300000000001,69.3048,-1.6237299999999999,-20.853300000000001,-0.52045799999999998
9008.0,50.898899999999998,28.9057,13.653499999999999,57.585700000000003,-1.9790300000000001,-18.9984,-1.08409
9009.0,50.517899999999997,35.125399999999999,20.721699999999998,66.948499999999996,-2.4228900000000002,-16.837599999999998,-1.3395900000000001
9010.0,51.902999999999999,23.4513,10.4534,59.615400000000001,-2.4056999999999999,-15.508699999999999,-1.6486700000000001
9011.0,57.395200000000003,66.374399999999994,28.407599999999999,63.554000000000002,-23.645600000000002,-0.73903799999999997,-9.5373999999999999
9012.0,57.339799999999997,77.025599999999997,35.689100000000003,70.495000000000005,-23.055499999999999,-0.179173,-8.3998600000000003
9013.0,57.056399999999996,69.984999999999999,26.067399999999999,60.9114,-22.2151,-0.243895,-7.3514099999999996
9014.0,56.340200000000003,76.900300000000001,31.6191,67.022999999999996,-21.179400000000001,-0.891459,-6.4665100000000004
9015.0,54.893900000000002,68.801199999999994,23.494599999999998,59.697800000000001,-19.866099999999999,-1.4837100000000001,-5.7628199999999996
9016.0,52.944099999999999,73.250799999999998,27.835100000000001,62.732900000000001,-18.4832,-1.9399299999999999,-4.8773499999999999
9017.0,51.044600000000003,71.389799999999994,24.4558,54.2654,-16.915800000000001,-1.9572099999999999,-3.7989899999999999
9018.0,52.785800000000002,90.369799999999998,39.369199999999999,59.207099999999997,-15.6876,-4.3606400000000001,-1.64737
9019.0,57.377600000000001,99.612099999999998,45.175600000000003,56.284700000000001,-14.971500000000001,-6.7713599999999996,-0.25478800000000001
9020.0,57.435400000000001,101.29900000000001,48.369900000000001,62.311700000000002,-13.846500000000001,-12.434900000000001,0.78457900000000003
9021.0,59.692100000000003,40.690199999999997,-12.790800000000001,7.58446,-13.8232,-16.319199999999999,1.32717
9022.0,61.829900000000002,9.2178500000000003,-48.43,-27.0382,-14.2768,-14.871,0.32547900000000002
9023.0,66.498699999999999,8.9600399999999993,-51.0229,-31.106999999999999,-12.927,-19.272099999999998,1.4755199999999999
9024.0,74.627200000000002,21.7471,-39.585500000000003,-21.950700000000001,-11.231199999999999,-26.831800000000001,3.6457899999999999
9025.0,75.724500000000006,13.293699999999999,-45.020200000000003,-24.608899999999998,-9.2917199999999998,-30.569500000000001,3.8664700000000001
9026.0,69.090500000000006,5.1986499999999998,-47.688600000000001,-21.327500000000001,-7.7830700000000004,-28.7515,2.1613099999999998
9027.0,61.426400000000001,-14.302199999999999,-62.822400000000002,-30.637799999999999,-6.8821399999999997,-24.512499999999999,0.14391200000000001
9028.0,63.304900000000004,-19.552199999999999,-65.349000000000004,-32.126399999999997,-7.3142800000000001,-26.807400000000001,1.9582200000000001
9029.0,62.381799999999998,17.6859,-26.286300000000001,0.15733900000000001,-7.58209,-27.180900000000001,3.2951199999999998
9030.0,50.459699999999998,50.436,18.777899999999999,55.188099999999999,-3.3260399999999999,-21.068899999999999,1.4184099999999999
9031.0,49.952800000000003,-11.5504,-41.200299999999999,1.3273999999999999,-1.4963900000000001,-18.8066,-0.490452
9032.0,44.947600000000001,-2.5598900000000002,-37.185499999999998,-6.4426600000000001,-4.5518700000000001,-16.9483,-2.3683900000000002
9033.0,41.9373,41.252899999999997,16.107399999999998,49.030200000000001,-2.93255,-16.416899999999998,-3.4663300000000001
9034.0,48.191800000000001,43.708300000000001,24.987100000000002,62.902099999999997,-1.2800400000000001,-20.2468,-1.7813699999999999
9035.0,47.599699999999999,32.7956,16.185500000000001,55.364199999999997,-2.1000700000000001,-19.075800000000001,-0.49885200000000002
9036.0,46.283299999999997,34.429400000000001,18.970300000000002,60.223399999999998,-2.2852000000000001,-16.5413,-0.92545900000000003
9037.0,46.702800000000003,25.710100000000001,10.7896,54.3354,-2.6626599999999998,-15.136799999999999,-1.0619400000000001
9038.0,47.837400000000002,29.6387,15.8566,62.107300000000002,-2.5950700000000002,-13.7766,-1.54728
9039.0,55.911299999999997,73.401399999999995,38.4758,73.356800000000007,-23.940000000000001,-0.47050700000000001,-7.9119400000000004
9040.0,54.891800000000003,67.979100000000003,30.038499999999999,63.541899999999998,-23.057700000000001,0.378913,-6.5033500000000002
9041.0,53.866100000000003,77.880499999999998,37.6935,70.557699999999997,-21.934799999999999,0.35588199999999998,-5.2732999999999999
9042.0,52.948999999999998,68.819000000000003,27.241099999999999,60.7517,-20.719999999999999,-0.27812500000000001,-4.3597299999999999
9043.0,51.606299999999997,73.473100000000002,31.145399999999999,65.887600000000006,-19.064,-0.883741,-3.7622200000000001
9044.0,49.792299999999997,67.889600000000002,24.638100000000001,58.531100000000002,-17.219799999999999,-1.1280600000000001,-3.2858000000000001
9045.0,48.315800000000003,83.443799999999996,37.4285,66.5505,-15.0969,-1.3549800000000001,-2.5634299999999999
9046.0,50.300699999999999,88.239000000000004,37.610100000000003,58.299599999999998,-13.5489,-3.1905899999999998,-1.2969299999999999
9047.0,52.901400000000002,108.42700000000001,55.546199999999999,70.6374,-12.5745,-5.7130900000000002,-0.25001499999999999
9048.0,53.039299999999997,79.359300000000005,28.880299999999998,47.073300000000003,-12.3004,-11.524699999999999,0.14777299999999999
9049.0,55.985100000000003,30.563199999999998,-21.229500000000002,1.7337199999999999,-12.9778,-14.2424,-0.134131
9050.0,58.312100000000001,-2.6875599999999999,-58.926000000000002,-35.780799999999999,-12.6204,-13.2308,0.41028300000000001
9051.0,63.740499999999997,15.323399999999999,-43.116500000000002,-22.575600000000001,-11.515499999999999,-18.4009,2.0422699999999998
9052.0,71.631799999999998,17.914300000000001,-41.805,-23.6616,-10.374599999999999,-25.5731,3.3763200000000002
9053.0,72.323499999999996,20.129000000000001,-36.306800000000003,-15.3476,-8.9869800000000009,-28.8963,3.7400899999999999
9054.0,65.389600000000002,0.90234400000000003,-50.363399999999999,-23.037600000000001,-8.0124099999999991,-26.394600000000001,2.52826
9055.0,57.7789,-10.393700000000001,-56.435299999999998,-23.176500000000001,-7.2668200000000001,-22.246400000000001,0.44565300000000002
9056.0,57.221400000000003,-21.226299999999998,-64.429900000000004,-31.513400000000001,-7.5758200000000002,-22.883400000000002,1.0384800000000001
9057.0,59.222299999999997,25.2758,-16.787500000000001,11.133900000000001,-7.2716700000000003,-25.4663,3.08725
9058.0,49.817799999999998,71.103700000000003,39.709899999999998,69.730800000000002,-4.3291899999999996,-22.092199999999998,2.3830900000000002
9059.0,46.009500000000003,41.081299999999999,16.9284,54.692700000000002,-0.167437,-18.433700000000002,0.028676299999999998
9060.0,43.247599999999998,10.1008,-20.338200000000001,11.499499999999999,-1.0662,-17.251300000000001,-1.00928
9061.0,38.1511,47.450499999999998,21.5245,50.732300000000002,-2.25698,-14.837,-1.9834700000000001
9062.0,42.2346,44.980200000000004,25.997800000000002,61.861199999999997,-1.49159,-16.322099999999999,-2.0096500000000002
9063.0,43.593899999999998,41.68,23.129899999999999,60.459699999999998,-2.48814,-16.690100000000001,-0.58628000000000002
9064.0,42.279600000000002,35.278700000000001,18.3536,57.848399999999998,-2.8538899999999998,-13.9459,-0.77739400000000003
9065.0,43.432600000000001,35.747500000000002,19.082000000000001,60.863999999999997,-2.9603000000000002,-13.298299999999999,-0.89607099999999995
9066.0,44.327800000000003,29.463100000000001,13.8918,58.062100000000001,-2.8641899999999998,-11.957000000000001,-1.38358
163882.0,1737.26,-817.197,83.876800000000003,962.84400000000005,92.363500000000002,-452.65800000000002,20.370200000000001
163883.0,1734.01,-856.28599999999994,95.025800000000004,1010.66,92.245699999999999,-349.69099999999997,0.66931799999999997
163884.0,1730.46,-900.19399999999996,87.496799999999993,1028.97,89.950800000000001,-243.15899999999999,-18.594799999999999
163885.0,1726.72,-912.23099999999999,98.553299999999993,1054.3499999999999,85.558300000000003,-134.24299999999999,-37.389299999999999
163886.0,1722.4200000000001,-926.72699999999998,93.297499999999999,1051.95,78.426100000000005,-24.0595,-55.511699999999998
163887.0,1717.5799999999999,-902.46000000000004,113.18300000000001,1062.79,69.094800000000006,85.912199999999999,-72.738399999999999
163888.0,1712.71,-897.19600000000003,100.496,1029.8299999999999,58.3964,194.36699999999999,-88.632999999999996
163889.0,1707.3800000000001,-847.75900000000001,118.52800000000001,1016.16,45.737699999999997,299.99900000000002,-103.366
163890.0,1703.21,-817.66899999999998,103.205,960.79600000000005,32.140000000000001,401.62400000000002,-116.502
163891.0,1697.9400000000001,-748.88599999999997,114.58,919.43700000000001,17.066199999999998,498.19999999999999,-128.054
163892.0,1697.27,-686.53700000000003,100.54300000000001,853.62800000000004,-0.297296,589.274,-140.994
163893.0,1693.6800000000001,-561.46699999999998,138.661,833.65099999999995,-14.478199999999999,671.00900000000001,-138.29400000000001
163894.0,1678.8900000000001,-424.471,197.23500000000001,796.44399999999996,-33.976500000000001,738.63699999999994,-141.82400000000001
163895.0,1675.3699999999999,-290.91699999999997,234.18899999999999,742.80100000000004,-60.940300000000001,799.91600000000005,-157.727
163896.0,1675.3399999999999,-192.56899999999999,220.095,645.92499999999995,-82.090400000000002,852.79499999999996,-160.655
163897.0,1670.8099999999999,-73.289000000000001,230.73099999999999,557.05399999999997,-103.205,891.43600000000004,-160.774
163898.0,1668.3099999999999,26.460000000000001,218.41900000000001,442.24000000000001,-125.21299999999999,918.63499999999999,-157.738
163899.0,1664.4400000000001,158.136,238.92099999999999,356.56,-147.917,932.23500000000001,-150.18100000000001
163900.0,1660.54,266.77499999999998,237.029,247.399,-169.559,933.01099999999997,-140.173
163901.0,1655.98,385.20100000000002,247.07900000000001,150.03899999999999,-189.05099999999999,920.96400000000006,-127.31100000000001
163902.0,1651.54,487.66300000000001,243.88800000000001,41.310699999999997,-207.06899999999999,896.59199999999998,-111.783
163903.0,1647.71,592.63999999999999,247.56100000000001,-57.398899999999998,-222.88300000000001,860.63800000000003,-93.991699999999994
163904.0,1644.3699999999999,679.44600000000003,238.09299999999999,-163.95400000000001,-236.792,813.52499999999998,-73.887600000000006
163905.0,1641.55,778.36900000000003,246.52000000000001,-245.28700000000001,-248.721,756.05700000000002,-51.459400000000002
163906.0,1639.76,853.95100000000002,238.42400000000001,-335.63299999999998,-258.22199999999998,689.14800000000002,-27.309200000000001
163907.0,1638.8199999999999,936.38099999999997,244.37299999999999,-402.96600000000001,-265.24000000000001,613.404,-1.6883900000000001
163908.0,1657.8,-1190.95,97.806399999999996,421.08800000000002,-69.163899999999998,-428.52199999999999,-18.425599999999999
163909.0,1656.05,-1245.73,80.244600000000005,448.14499999999998,-68.880799999999994,-339.38999999999999,-20.912600000000001
163910.0,1654.3499999999999,-1255.8599999999999,97.558099999999996,500.41399999999999,-70.164599999999993,-245.732,-23.5303
163911.0,1652.0999999999999,-1289.8399999999999,80.355099999999993,507.39699999999999,-72.905600000000007,-148.893,-26.232099999999999
163912.0,1649.71,-1280.1600000000001,95.992400000000004,536.36599999999999,-76.927199999999999,-50.246000000000002,-28.673300000000001
163913.0,1646.8800000000001,-1300.3,70.596299999999999,513.11300000000006,-82.316699999999997,49.095100000000002,-30.7272
163914.0,1643.54,-1260.45,93.264099999999999,527.39700000000005,-89.181200000000004,147.846,-32.051499999999997
163915.0,1639.53,-1254.6099999999999,70.344999999999999,484.971,-97.273200000000003,244.762,-32.511299999999999
163916.0,1635.22,-1189.53,93.592399999999998,480.387,-106.483,338.88499999999999,-31.936699999999998
163917.0,1629.6800000000001,-1148.0599999999999,82.254999999999995,429.77499999999998,-116.648,428.32900000000001,-29.607800000000001
163918.0,1625.9000000000001,-1071.05,91.422899999999998,396.61599999999999,-128.45099999999999,513.87800000000004,-29.232399999999998
163919.0,1622.8299999999999,-1009.5,72.977900000000005,331.80599999999998,-135.96799999999999,593.94200000000001,-17.308599999999998
163920.0,1615.51,-847.31200000000001,159.898,343.46100000000001,-144.964,661.72199999999998,-6.8606299999999996
163921.0,1609.95,-742.59100000000001,177.25700000000001,283.50400000000002,-162.77500000000001,720.46299999999997,-6.4453699999999996
163922.0,1606.1900000000001,-624.18600000000004,191.404,227.15799999999999,-179.46600000000001,771.923,2.10534
163923.0,1601.0599999999999,-533.26300000000003,176.80699999999999,130.851,-194.37899999999999,811.53300000000002,14.281599999999999
163924.0,1596.3399999999999,-407.35399999999998,195.125,62.441299999999998,-207.5,839.88400000000001,27.497699999999998
163925.0,1591.8199999999999,-332.63600000000002,162.08500000000001,-61.333300000000001,-217.92599999999999,856.68200000000002,43.119399999999999
163926.0,1586.75,-217.61600000000001,170.09,-145.136,-227.43100000000001,860.91399999999999,62.242199999999997
163927.0,1581.78,-134.642,147.52000000000001,-259.55900000000003,-236.477,852.94100000000003,84.222099999999998
163928.0,1577.5899999999999,-22.328199999999999,156.864,-339.39400000000001,-243.44900000000001,833.92100000000005,108.404
163929.0,1573.4200000000001,58.345100000000002,138.44200000000001,-442.94499999999999,-248.12899999999999,803.89999999999998,134.56899999999999
163930.0,1569.5799999999999,166.78100000000001,152.11699999999999,-508.81799999999998,-250.26900000000001,763.76199999999994,162.22
163931.0,1566.27,230.208,126.10599999999999,-607.86500000000001,-249.68000000000001,714.34000000000003,190.94
163932.0,1563.1500000000001,323.09100000000001,135.76599999999999,-663.13599999999997,-246.26400000000001,656.40999999999997,220.51499999999999
163933.0,1560.79,371.95100000000002,108.735,-746.26700000000005,-240.173,591.46600000000001,250.43199999999999
163934.0,1459.01,-1134.8299999999999,100.20099999999999,198.89400000000001,-151.273,-364.50200000000001,-38.963999999999999
163935.0,1460.77,-1151.9300000000001,117.18000000000001,254.928,-152.12200000000001,-292.517,-33.125300000000003
163936.0,1462.95,-1194.95,100.87,269.39699999999999,-153.66200000000001,-216.886,-27.921099999999999
163937.0,1465.4100000000001,-1197.27,117.206,308.375,-156.12200000000001,-137.922,-22.717700000000001
163938.0,1467.6300000000001,-1222.6199999999999,101.70699999999999,306.55000000000001,-159.53,-56.569299999999998,-17.403700000000001
163939.0,1469.6400000000001,-1199.4400000000001,125.67700000000001,334.81999999999999,-163.90600000000001,26.0855,-11.7493
163940.0,1471.3900000000001,-1214.4300000000001,102.10299999999999,306.14100000000002,-169.04400000000001,108.992,-5.4995700000000003
163941.0,1472.54,-1175.1099999999999,123.08199999999999,312.50900000000001,-174.98599999999999,190.96199999999999,1.5721099999999999
163942.0,1473.0,-1173.4200000000001,95.979699999999994,262.37099999999998,-181.42699999999999,271.07900000000001,9.5538299999999996
163943.0,1472.7,-1124.3800000000001,106.008,240.86000000000001,-188.249,348.09100000000001,18.867999999999999
163944.0,1471.7,-1094.27,85.008700000000005,182.19300000000001,-195.59399999999999,421.88999999999999,28.423999999999999
163945.0,1469.3800000000001,-1006.79,108.77,163.78399999999999,-200.721,491.31700000000001,41.485199999999999
163946.0,1466.0599999999999,-947.04100000000005,100.468,100.56100000000001,-203.47800000000001,553.22199999999998,56.520699999999998
163947.0,1464.5699999999999,-824.40599999999995,151.56899999999999,87.8125,-209.49600000000001,606.84400000000005,68.676500000000004
163948.0,1464.4100000000001,-739.625,155.40899999999999,26.426100000000002,-218.22900000000001,653.00999999999999,81.833100000000002
163949.0,1462.8800000000001,-633.27700000000004,171.07300000000001,-23.574000000000002,-226.845,690.32100000000003,96.111500000000007
163950.0,1457.74,-564.38199999999995,141.90100000000001,-115.146,-233.63,715.93700000000001,115.777
163951.0,1448.8299999999999,-440.68900000000002,166.84299999999999,-158.149,-242.083,727.68499999999995,138.387
163952.0,1441.6400000000001,-360.73599999999999,146.77500000000001,-249.22900000000001,-249.739,730.625,159.53999999999999
163953.0,1436.6800000000001,-254.048,156.29599999999999,-309.01299999999998,-251.99299999999999,725.46000000000004,183.22
163954.0,1431.22,-187.89699999999999,131.03800000000001,-402.75200000000001,-252.22999999999999,709.65300000000002,208.41499999999999
163955.0,1425.49,-94.796099999999996,135.21299999999999,-462.96199999999999,-249.959,684.63599999999997,234.70699999999999
163956.0,1419.6900000000001,-42.581099999999999,102.53400000000001,-554.70100000000002,-245.10400000000001,651.19500000000005,261.71199999999999
163957.0,1413.73,47.664700000000003,112.11199999999999,-597.43899999999996,-237.84899999999999,610.05200000000002,288.98500000000001
163958.0,1408.02,91.317899999999995,79.990600000000001,-674.35599999999999,-228.16999999999999,562.49000000000001,315.93400000000003
163959.0,1402.52,170.262,88.473399999999998,-702.89400000000001,-215.755,509.029,342.73899999999998
163960.0,1140.1300000000001,-842.79300000000001,88.946299999999994,180.61199999999999,-170.929,-285.38099999999997,-44.619700000000002
163961.0,1148.3900000000001,-856.21699999999998,109.526,229.67500000000001,-172.89699999999999,-232.261,-37.243600000000001
163962.0,1156.26,-908.72400000000005,85.605999999999995,227.696,-175.21299999999999,-174.995,-30.589500000000001
163963.0,1164.1900000000001,-908.35400000000004,108.09,266.214,-178.29900000000001,-114.614,-23.632899999999999
163964.0,1172.2,-950.38699999999994,81.782300000000006,249.006,-181.90600000000001,-51.746600000000001,-16.4543
163965.0,1179.97,-944.08900000000006,96.7059,265.54899999999998,-186.29400000000001,12.8094,-8.8333300000000001
163966.0,1187.26,-965.29399999999998,76.452100000000002,239.489,-191.14500000000001,78.137,-0.57255299999999998
163967.0,1194.01,-941.44200000000001,93.490700000000004,242.76499999999999,-196.63499999999999,143.28,8.5731000000000002
163968.0,1200.0599999999999,-945.5,74.367699999999999,202.59100000000001,-202.32900000000001,207.31399999999999,18.7483
163969.0,1205.1800000000001,-895.22699999999998,100.751,201.13300000000001,-208.29599999999999,269.286,30.127700000000001
163970.0,1208.79,-890.62699999999995,71.896900000000002,138.51400000000001,-213.977,328.29500000000002,42.665399999999998
163971.0,1210.6099999999999,-836.18399999999997,82.087800000000001,110.786,-219.45699999999999,383.48000000000002,56.320300000000003
163972.0,1210.21,-803.39400000000001,60.619900000000001,47.273600000000002,-223.15299999999999,433.86599999999999,71.473699999999994
163973.0,1207.71,-719.14400000000001,82.988399999999999,23.2196,-224.85599999999999,478.04899999999998,86.126300000000001
163974.0,1204.04,-677.46799999999996,57.150199999999998,-51.5732,-226.56999999999999,514.45299999999997,100.20099999999999
163975.0,1200.49,-579.29200000000003,77.192599999999999,-75.180000000000007,-230.70500000000001,544.26999999999998,113.518
163976.0,1197.1099999999999,-508.952,65.180099999999996,-127.49299999999999,-230.82400000000001,565.99000000000001,136.71700000000001
163977.0,1193.27,-363.31,138.70400000000001,-114.709,-235.89500000000001,575.04899999999998,159.03800000000001
163978.0,1189.8499999999999,-302.27800000000002,119.339,-191.91999999999999,-243.33000000000001,578.495,173.91200000000001
163979.0,1183.5599999999999,-208.44300000000001,129.94399999999999,-228.20599999999999,-241.28899999999999,574.82600000000002,194.33600000000001
163980.0,1175.27,-168.161,94.8416,-313.57100000000003,-238.161,560.625,215.744
163981.0,1166.8699999999999,-71.451700000000002,116.93600000000001,-336.33999999999997,-232.874,539.78599999999994,237.50200000000001
163982.0,1157.8,-34.529800000000002,83.242400000000004,-410.363,-225.31200000000001,512.18499999999995,259.37400000000002
163983.0,1148.45,50.592500000000001,100.95,-426.803,-215.93000000000001,478.93299999999999,280.73599999999999
163984.0,1138.5799999999999,76.599299999999999,63.126199999999997,-492.10599999999999,-204.75200000000001,440.81599999999997,300.93900000000002
163985.0,1127.75,155.31200000000001,83.136899999999997,-492.36599999999999,-191.26499999999999,398.44900000000001,320.33499999999998
163986.0,854.57500000000005,-577.91099999999994,56.5946,200.125,-149.14500000000001,-219.61199999999999,-39.196599999999997
163987.0,864.48800000000006,-590.37800000000004,74.076099999999997,238.358,-151.82400000000001,-179.91800000000001,-33.814100000000003
163988.0,874.41300000000001,-631.77700000000004,59.493600000000001,238.79300000000001,-155.02199999999999,-136.70599999999999,-28.809100000000001
163989.0,884.48699999999997,-636.452,76.736500000000007,266.983,-158.626,-90.692899999999995,-23.398099999999999
163990.0,894.34900000000005,-668.27700000000004,61.856699999999996,257.279,-162.88999999999999,-42.296799999999998,-17.562999999999999
163991.0,904.22199999999998,-655.25699999999995,86.527799999999999,281.404,-167.61000000000001,7.7897800000000004,-11.237500000000001
163992.0,913.99199999999996,-684.322,63.672699999999999,251.453,-172.97200000000001,58.756100000000004,-4.0952099999999998
163993.0,923.31700000000001,-662.45899999999995,85.769599999999997,259.97500000000002,-178.65700000000001,109.809,3.92103
163994.0,931.904,-683.39999999999998,58.560699999999997,212.86000000000001,-184.64500000000001,160.05099999999999,13.1273
163995.0,939.56700000000001,-658.96299999999997,69.926699999999997,198.297,-190.59899999999999,208.81100000000001,23.588699999999999
163996.0,946.41300000000001,-660.39599999999996,48.067700000000002,145.791,-196.49299999999999,255.20699999999999,35.457999999999998
163997.0,952.04100000000005,-607.13,73.146199999999993,136.38,-201.87700000000001,298.45999999999998,48.619799999999998
163998.0,955.56500000000005,-603.43799999999999,38.942399999999999,66.787400000000005,-206.75800000000001,337.58800000000002,62.300899999999999
163999.0,956.44000000000005,-542.75199999999995,51.329999999999998,44.213099999999997,-210.97399999999999,371.75200000000001,77.226500000000001
164000.0,955.42999999999995,-515.79399999999998,21.6066,-18.180800000000001,-214.49100000000001,400.65899999999999,89.893500000000003
164001.0,953.02099999999996,-437.24200000000002,33.689799999999998,-29.843399999999999,-214.89500000000001,424.26600000000002,106.15900000000001
164002.0,947.33100000000002,-359.48000000000002,46.894300000000001,-52.256399999999999,-213.21600000000001,438.99000000000001,126.803
164003.0,940.74699999999996,-223.721,123.82899999999999,-27.208100000000002,-214.535,446.92000000000002,137.363
164004.0,935.19100000000003,-176.09399999999999,106.958,-84.713399999999993,-214.97800000000001,450.48500000000001,146.654
164005.0,927.80799999999999,-98.4148,119.90900000000001,-107.42100000000001,-212.16300000000001,446.07799999999997,162.398
164006.0,919.11400000000003,-65.6417,91.799599999999998,-173.05600000000001,-208.178,434.101,179.06100000000001
164007.0,910.00199999999995,2.7463799999999998,101.523,-196.495,-202.34299999999999,416.80000000000001,195.76599999999999
164008.0,900.32100000000003,23.788399999999999,66.427300000000002,-260.505,-194.965,394.41000000000003,212.214
164009.0,889.98199999999997,93.544499999999999,82.849299999999999,-267.61500000000001,-186.084,367.89600000000002,227.636
164010.0,878.99599999999998,109.791,48.666499999999999,-319.79599999999999,-176.173,337.76999999999998,241.684
164011.0,867.28399999999999,173.16399999999999,65.705799999999996,-315.25200000000001,-164.316,304.916,254.721
164012.0,641.37699999999995,-277.61099999999999,125.572,323.51499999999999,-113.73,-171.56299999999999,-30.0884
164013.0,650.09199999999998,-436.02600000000001,-8.4897600000000004,205.70699999999999,-116.167,-141.006,-27.342700000000001
164014.0,658.37,-327.46800000000002,122.126,347.74299999999999,-119.238,-107.19499999999999,-24.8353
164015.0,667.14499999999998,-477.22300000000001,-8.9497900000000001,224.71600000000001,-122.75700000000001,-71.040300000000002,-21.876200000000001
164016.0,676.20000000000005,-364.12799999999999,119.705,356.23599999999999,-127.15300000000001,-32.840800000000002,-18.476600000000001
164017.0,685.43200000000002,-513.17899999999997,-17.821899999999999,216.97,-131.95099999999999,6.7705200000000003,-14.546900000000001
164018.0,694.40099999999995,-386.488,116.105,343.43799999999999,-137.459,47.197400000000002,-9.7963900000000006
164019.0,703.27700000000004,-524.80999999999995,-19.3598,195.00999999999999,-143.34,87.789000000000001,-4.1453699999999998
164020.0,711.88199999999995,-387.51799999999997,116.26900000000001,311.71899999999999,-149.84399999999999,127.703,2.8251900000000001
164021.0,719.87900000000002,-506.84500000000003,-9.8970099999999999,161.839,-156.28899999999999,166.124,10.9771
164022.0,726.41600000000005,-367.74599999999998,115.999,260.18700000000001,-162.39599999999999,202.27600000000001,20.541799999999999
164023.0,731.33199999999999,-490.17200000000003,-26.750399999999999,87.855800000000002,-167.602,235.71799999999999,30.9924
164024.0,735.34100000000001,-330.56200000000001,104.697,190.46299999999999,-172.22,265.94999999999999,42.510899999999999
164025.0,737.53999999999996,-427.60199999999998,-26.962,29.8931,-175.256,292.56200000000001,53.2941
164026.0,737.92999999999995,-264.74599999999998,88.850499999999997,125.483,-177.44,315.71899999999999,62.517600000000002
164027.0,735.69500000000005,-318.53199999999998,-19.075099999999999,-0.45078200000000002,-175.876,333.58199999999999,79.625200000000007
164028.0,730.61500000000001,-74.221100000000007,179.54900000000001,158.61099999999999,-177.32499999999999,343.94900000000001,91.360600000000005
164029.0,725.76900000000001,-147.15600000000001,55.607300000000002,-0.75177499999999997,-180.49199999999999,350.87299999999999,94.536299999999997
164030.0,718.94600000000003,20.5867,169.60599999999999,86.966800000000006,-178.423,352.18400000000003,104.175
164031.0,711.54399999999998,-63.883499999999998,37.099699999999999,-77.471000000000004,-176.45400000000001,346.80500000000001,115.919
164032.0,704.322,103.884,157.441,13.5434,-173.12799999999999,337.00299999999999,128.541
164033.0,696.16200000000003,19.014700000000001,27.761800000000001,-142.91300000000001,-168.39099999999999,322.48599999999999,141.26900000000001
164034.0,687.64499999999998,188.53200000000001,153.94900000000001,-39.034700000000001,-162.62200000000001,304.38299999999998,153.251
164035.0,678.44200000000001,94.165099999999995,18.756900000000002,-192.417,-155.64599999999999,283.12599999999998,164.23500000000001
164036.0,668.84199999999998,257.53199999999998,143.566,-81.374600000000001,-148.07499999999999,259.22500000000002,173.93000000000001
164037.0,658.31500000000005,159.346,10.434200000000001,-223.935,-139.13200000000001,233.31,182.57499999999999
164038.0,512.23800000000006,-304.26799999999997,-39.016399999999997,184.643,-85.024799999999999,-140.79499999999999,-22.532699999999998
164039.0,518.38099999999997,-205.75800000000001,78.439700000000002,315.94799999999998,-86.884299999999996,-115.46299999999999,-21.5932
164040.0,524.476,-334.15499999999997,-32.579799999999999,214.875,-89.384699999999995,-87.555700000000002,-20.822700000000001
164041.0,530.65899999999999,-233.691,82.440399999999997,336.56999999999999,-92.452799999999996,-57.555300000000003,-19.659500000000001
164042.0,536.87,-355.87,-28.1417,228.749,-96.026399999999995,-25.790700000000001,-18.091999999999999
164043.0,543.44399999999996,-244.233,92.128699999999995,347.41199999999998,-100.379,7.2506399999999998,-16.007200000000001
164044.0,550.423,-366.18299999999999,-24.1691,224.72900000000001,-105.48399999999999,40.855699999999999,-13.254099999999999
164045.0,557.15899999999999,-251.55099999999999,92.593000000000004,330.05000000000001,-111.128,74.286199999999994,-9.6868300000000005
164046.0,563.053,-369.69400000000002,-27.5639,193.70699999999999,-116.879,106.848,-5.1638400000000004
164047.0,568.16099999999994,-258.74900000000002,77.162599999999998,277.49599999999998,-122.91500000000001,138.102,0.73992199999999997
164048.0,573.22500000000002,-361.12299999999999,-36.030799999999999,140.70699999999999,-129.191,167.28700000000001,7.8396600000000003
164049.0,577.65099999999995,-226.494,82.422300000000007,234.423,-135.25299999999999,193.65100000000001,16.4313
164050.0,580.32100000000003,-325.70699999999999,-39.847299999999997,88.665199999999999,-139.40199999999999,217.44200000000001,23.548400000000001
164051.0,580.41499999999996,-189.227,62.522799999999997,176.40799999999999,-141.54400000000001,237.21100000000001,31.364100000000001
164052.0,579.28700000000003,-244.488,-35.130699999999997,65.834900000000005,-144.32300000000001,253.23500000000001,42.974299999999999
164053.0,577.70299999999997,-47.721499999999999,122.93000000000001,197.14699999999999,-145.64099999999999,267.46899999999999,52.258800000000001
164054.0,574.74800000000005,-99.426299999999998,36.558199999999999,77.284700000000001,-145.703,278.08600000000001,54.662100000000002
164055.0,571.39200000000005,57.365200000000002,154.11799999999999,168.09899999999999,-146.46100000000001,283.464,58.229900000000001
164056.0,567.14300000000003,-15.682700000000001,40.927199999999999,28.709700000000002,-145.96700000000001,283.75099999999998,67.144499999999994
164057.0,561.71699999999998,128.566,148.126,107.346,-144.96799999999999,278.94400000000002,77.031999999999996
164058.0,556.13499999999999,49.591200000000001,33.070300000000003,-33.370699999999999,-142.81700000000001,270.46600000000001,87.284400000000005
164059.0,550.10500000000002,185.84200000000001,134.833,45.396299999999997,-139.69800000000001,258.46199999999999,97.466099999999997
164060.0,543.726,99.611800000000002,15.33,-93.387600000000006,-135.66399999999999,243.67599999999999,106.777
164061.0,536.80799999999999,238.40299999999999,122.831,-1.6438600000000001,-130.815,226.37200000000001,115.261
164062.0,529.46000000000004,150.078,5.1047900000000004,-131.655,-125.399,207.00299999999999,122.548
164063.0,521.64099999999996,283.786,112.36799999999999,-33.428800000000003,-119.009,186.09399999999999,129.22
164064.0,436.68799999999999,-124.39700000000001,67.016099999999994,293.267,-68.638900000000007,-121.7,-18.200600000000001
164065.0,440.11000000000001,-236.12299999999999,-30.387,208.422,-69.174300000000002,-99.775700000000001,-18.142199999999999
164066.0,443.25599999999997,-155.35900000000001,63.446199999999997,311.58800000000002,-70.172799999999995,-75.229900000000001,-18.073399999999999
164067.0,447.02600000000001,-261.11000000000001,-30.910399999999999,223.245,-72.174400000000006,-48.929000000000002,-17.6008
164068.0,451.39100000000002,-176.851,62.371499999999997,319.13,-75.227099999999993,-21.180599999999998,-16.8888
164069.0,455.99400000000003,-282.642,-37.487400000000001,218.46899999999999,-78.837400000000002,7.4644599999999999,-15.8459
164070.0,460.435,-188.35300000000001,59.270000000000003,310.66000000000003,-82.900000000000006,36.549500000000002,-14.2844
164071.0,464.91300000000001,-285.73500000000001,-38.685699999999997,203.714,-87.855000000000004,65.522599999999997,-12.006399999999999
164072.0,469.73399999999998,-183.042,60.424599999999998,289.95800000000003,-93.788700000000006,93.420299999999997,-8.8247900000000001
164073.0,473.20699999999999,-263.44,-26.837399999999999,185.53800000000001,-99.768600000000006,119.248,-4.8368599999999997
164074.0,475.18400000000003,-164.23500000000001,60.944200000000002,254.245,-104.291,143.25999999999999,-0.49849199999999999
164075.0,475.10199999999998,-252.16900000000001,-42.840299999999999,129.75899999999999,-107.11199999999999,164.82400000000001,4.5812900000000001
164076.0,475.786,-137.726,46.423900000000003,205.00999999999999,-110.233,183.90100000000001,8.0427900000000001
164077.0,477.964,-187.41300000000001,-35.623399999999997,116.458,-112.877,199.91499999999999,18.9252
164078.0,477.18900000000002,-4.59504,120.72199999999999,247.738,-116.55800000000001,213.625,27.628299999999999
164079.0,476.65499999999997,-36.9176,59.883800000000001,157.565,-119.214,226.678,26.131599999999999
164080.0,474.87799999999999,87.129400000000004,150.351,227.71700000000001,-118.90900000000001,235.08199999999999,28.444400000000002
164081.0,471.36900000000003,17.343900000000001,49.1036,101.327,-120.20099999999999,237.97399999999999,34.420000000000002
164082.0,468.50099999999998,131.98699999999999,133.45500000000001,159.50899999999999,-120.904,237.773,42.081800000000001
164083.0,464.80200000000002,64.562600000000003,37.085099999999997,37.484499999999997,-120.89100000000001,233.56,50.997100000000003
164084.0,460.81099999999998,180.43899999999999,124.45999999999999,101.73,-119.97199999999999,226.18899999999999,59.887500000000003
164085.0,456.36700000000002,116.018,32.595199999999998,-10.2849,-118.16200000000001,216.011,68.376599999999996
164086.0,451.59199999999998,234.94900000000001,125.02800000000001,65.085599999999999,-115.605,203.49700000000001,76.032600000000002
164087.0,446.38499999999999,163.13800000000001,28.339200000000002,-45.822899999999997,-112.321,188.93000000000001,82.985100000000003
164088.0,441.09399999999999,277.80200000000002,119.911,34.123699999999999,-108.568,172.70099999999999,89.241100000000003
164089.0,435.34899999999999,203.286,24.768799999999999,-69.909700000000001,-104.065,155.19200000000001,94.959900000000005
164090.0,385.30099999999999,-215.25399999999999,-65.813699999999997,151.44300000000001,-60.039099999999998,-107.81699999999999,-16.011600000000001
164091.0,389.82900000000001,-139.34200000000001,23.986899999999999,253.31700000000001,-61.189700000000002,-87.914500000000004,-16.548999999999999
164092.0,393.779,-231.77000000000001,-55.5383,181.04400000000001,-63.793799999999997,-66.645899999999997,-16.394100000000002
164093.0,396.45999999999998,-155.803,30.660599999999999,271.36700000000002,-66.032600000000002,-43.596800000000002,-16.3993
164094.0,398.767,-243.62899999999999,-50.353999999999999,192.72,-67.807299999999998,-18.907,-15.5898
164095.0,401.505,-157.44900000000001,39.116199999999999,282.387,-70.246799999999993,6.8168300000000004,-14.4367
164096.0,405.041,-242.45099999999999,-45.960700000000003,195.113,-73.518199999999993,32.803800000000003,-13.179500000000001
164097.0,407.91000000000003,-153.18100000000001,39.9452,275.47800000000001,-76.605400000000003,58.027799999999999,-11.869999999999999
164098.0,409.15300000000002,-237.084,-50.537100000000002,175.34100000000001,-78.882300000000001,82.564899999999994,-10.490500000000001
164099.0,409.87700000000001,-154.18299999999999,21.716699999999999,236.21700000000001,-81.312899999999999,105.30200000000001,-8.4773599999999991
164100.0,408.93200000000002,-218.56200000000001,-59.072600000000001,142.81999999999999,-85.582999999999998,124.89,-4.5515800000000004
164101.0,407.971,-107.88800000000001,30.145399999999999,219.10599999999999,-91.289199999999994,142.11199999999999,-1.82246
164102.0,411.45999999999998,-166.82300000000001,-54.003500000000003,127.458,-95.645499999999998,158.84399999999999,3.25034
164103.0,412.77300000000002,-18.814499999999999,74.017799999999994,238.41300000000001,-96.234399999999994,174.422,11.8926
164104.0,410.53699999999998,-35.301099999999998,41.0822,175.173,-97.124099999999999,187.75899999999999,11.884499999999999
164105.0,411.11200000000002,68.886499999999998,119.64400000000001,232.90000000000001,-99.407200000000003,198.23400000000001,10.4267
164106.0,410.63499999999999,4.7761399999999998,28.3078,121.833,-101.246,204.637,15.6912
164107.0,408.755,115.41800000000001,114.499,182.126,-103.514,207.31100000000001,22.284500000000001
164108.0,406.59100000000001,58.168599999999998,32.634799999999998,76.150300000000001,-104.926,206.68700000000001,29.965699999999998
164109.0,403.75299999999999,160.55099999999999,111.111,131.649,-105.574,202.78299999999999,38.143500000000003
164110.0,400.71300000000002,100.077,26.974799999999998,27.256799999999998,-105.35299999999999,196.31200000000001,45.949100000000001
164111.0,397.16899999999998,197.054,100.946,83.508799999999994,-104.306,187.42599999999999,53.233499999999999
164112.0,393.43299999999999,131.261,13.0116,-19.577999999999999,-102.60899999999999,176.58699999999999,59.877800000000001
164113.0,389.37299999999999,231.42400000000001,92.437600000000003,47.068800000000003,-100.30800000000001,164.00299999999999,65.964699999999993
164114.0,384.899,163.661,5.5319799999999999,-50.390999999999998,-97.440799999999996,149.86600000000001,71.433999999999997
164115.0,380.36599999999999,259.28399999999999,83.929599999999994,19.538499999999999,-93.948700000000002,134.624,76.685599999999994
164116.0,345.512,-68.538799999999995,39.998399999999997,252.08199999999999,-61.989199999999997,-95.332300000000004,-16.399100000000001
164117.0,351.13999999999999,-182.40899999999999,-57.1006,166.93199999999999,-58.707599999999999,-77.319500000000005,-18.783100000000001
164118.0,354.43000000000001,-129.98599999999999,12.878299999999999,239.42599999999999,-57.877800000000001,-59.800899999999999,-15.739699999999999
164119.0,355.83999999999997,-219.33099999999999,-63.155500000000004,162.60300000000001,-59.688499999999998,-39.204300000000003,-15.3528
164120.0,358.31799999999998,-148.32499999999999,14.2652,241.71100000000001,-62.575000000000003,-17.261299999999999,-14.187799999999999
164121.0,360.63200000000001,-232.215,-67.469800000000006,160.69999999999999,-64.884900000000002,5.6532299999999998,-13.375500000000001
164122.0,362.87799999999999,-151.00999999999999,11.0603,239.874,-66.028700000000001,28.550599999999999,-12.229699999999999
164123.0,363.93400000000003,-223.28700000000001,-70.062299999999993,158.11799999999999,-68.004900000000006,50.669499999999999,-11.023099999999999
164124.0,364.15800000000002,-124.23699999999999,13.8348,240.083,-72.016999999999996,71.379400000000004,-9.5992300000000004
164125.0,364.66899999999998,-174.34299999999999,-53.753300000000003,167.59800000000001,-77.0381,90.858199999999997,-7.7926099999999998
164126.0,365.92899999999997,-68.510999999999996,38.529200000000003,249.13900000000001,-81.270700000000005,109.035,-4.6885700000000003
164127.0,368.82499999999999,-116.899,-21.469200000000001,174.614,-85.415800000000004,126.31,-2.14703
164128.0,371.18700000000001,2.4416099999999998,83.639300000000006,263.988,-86.729399999999998,143.11199999999999,1.6294200000000001
164129.0,368.94600000000003,-34.459800000000001,31.9695,190.27799999999999,-85.5137,157.214,3.7934899999999998
164130.0,367.54599999999999,62.9816,110.337,247.596,-86.436899999999994,168.38800000000001,3.1617299999999999
164131.0,367.86099999999999,10.44,36.126399999999997,154.44900000000001,-88.487200000000001,177.02600000000001,6.2770099999999998
164132.0,367.34100000000001,109.309,114.27,209.72300000000001,-91.278099999999995,182.50200000000001,11.74
164133.0,366.16500000000002,45.130899999999997,28.827100000000002,101.47,-93.624200000000002,184.75200000000001,18.457799999999999
164134.0,364.185,135.19499999999999,98.045500000000004,148.80000000000001,-95.275899999999993,183.785,25.7987
164135.0,361.86000000000001,76.943899999999999,18.776399999999999,49.7958,-96.086100000000002,180.22200000000001,32.9816
164136.0,358.976,169.96600000000001,91.061000000000007,104.61799999999999,-96.048400000000001,174.27799999999999,39.704500000000003
164137.0,355.78399999999999,115.95,16.7517,15.1242,-95.312799999999996,166.35900000000001,45.817599999999999
164138.0,352.05399999999997,212.11799999999999,93.507199999999997,78.768000000000001,-93.878,156.60900000000001,51.283200000000001
164139.0,348.07400000000001,151.215,14.297000000000001,-11.750299999999999,-91.851799999999997,145.273,56.393700000000003
164140.0,344.32400000000001,244.38900000000001,90.756799999999998,55.155000000000001,-89.479699999999994,132.73400000000001,61.492899999999999
164141.0,340.45600000000002,181.19800000000001,12.757,-30.4863,-86.598799999999997,119.26000000000001,66.374099999999999
164142.0,318.25099999999998,-92.685000000000002,-5.1799400000000002,197.458,-61.523400000000002,-86.881299999999996,-16.651700000000002
164143.0,322.06700000000001,-60.389600000000002,33.510100000000001,252.27699999999999,-59.289200000000001,-69.931299999999993,-20.753799999999998
164144.0,322.17099999999999,-177.25,-77.419399999999996,148.56299999999999,-59.8185,-53.628100000000003,-16.702999999999999
164145.0,320.60599999999999,-119.917,-8.7731999999999992,214.71700000000001,-61.4739,-34.877800000000001,-14.8469
164146.0,322.887,-202.13399999999999,-80.958299999999994,141.68199999999999,-62.424100000000003,-15.399800000000001,-14.417899999999999
164147.0,325.89100000000002,-128.18700000000001,-4.3003099999999996,220.40299999999999,-63.282400000000003,3.5508000000000002,-12.590999999999999
164148.0,327.11200000000002,-191.40600000000001,-73.448300000000003,153.41800000000001,-65.884600000000006,22.590800000000002,-10.0939
164149.0,329.97199999999998,-92.052099999999996,17.708200000000001,245.185,-69.005700000000004,43.110100000000003,-9.3069100000000002
164150.0,334.55799999999999,-137.36799999999999,-33.860300000000002,190.95099999999999,-71.762900000000002,62.739199999999997,-7.0027400000000002
164151.0,336.75799999999998,-32.142699999999998,65.878,279.935,-74.880300000000005,81.802499999999995,-5.7638699999999998
164152.0,338.15600000000001,-80.122900000000001,9.4122400000000006,210.72300000000001,-76.046000000000006,100.542,-6.0000799999999996
164153.0,337.673,13.5101,92.5608,279.15499999999997,-75.089399999999998,117.23699999999999,-4.3794599999999999
164154.0,335.84100000000001,-43.793999999999997,22.228200000000001,191.13399999999999,-75.039400000000001,131.43899999999999,-3.0962800000000001
164155.0,335.11399999999998,40.710299999999997,90.063500000000005,242.40700000000001,-76.733999999999995,143.14099999999999,-1.40435
164156.0,335.38099999999997,-11.5223,19.715900000000001,154.38300000000001,-79.743099999999998,152.83600000000001,1.75431
164157.0,335.45600000000002,70.029499999999999,82.952200000000005,198.035,-82.760300000000001,160.16499999999999,6.4782400000000004
164158.0,334.84899999999999,11.9297,6.5172499999999998,100.86499999999999,-85.658000000000001,164.565,12.214600000000001
164159.0,333.798,103.81399999999999,79.676000000000002,154.03299999999999,-87.977900000000005,166.173,18.648800000000001
164160.0,331.94799999999998,53.561199999999999,10.442399999999999,66.127899999999997,-89.436599999999999,165.065,25.125399999999999
164161.0,329.58499999999998,140.65600000000001,78.588800000000006,117.511,-90.0518,161.68899999999999,31.180800000000001
164162.0,326.71600000000001,87.4452,6.7142799999999996,30.738499999999998,-89.915199999999999,156.31299999999999,36.664499999999997
164163.0,323.22699999999998,170.137,71.2791,82.153000000000006,-89.066299999999998,149.08500000000001,41.562800000000003
164164.0,319.52999999999997,112.20399999999999,-4.0815799999999998,-4.6581999999999999,-87.706100000000006,140.25299999999999,46.259
164165.0,315.63099999999997,198.62299999999999,66.081999999999994,55.698,-85.900800000000004,130.03800000000001,50.677100000000003
164166.0,311.25799999999998,137.715,-9.7777200000000004,-28.660599999999999,-83.415000000000006,118.548,54.623699999999999
164167.0,307.27300000000002,219.54900000000001,58.412799999999997,32.515000000000001,-80.4422,106.215,58.738300000000002
164168.0,289.96800000000002,21.042100000000001,92.200599999999994,286.85700000000003,-49.263100000000001,-80.468100000000007,-13.7752
164169.0,294.44099999999997,-65.868700000000004,11.2479,218.33099999999999,-52.156700000000001,-65.610299999999995,-16.5379
164170.0,297.73099999999999,-21.668800000000001,59.890799999999999,275.27199999999999,-57.767200000000003,-49.2483,-15.803599999999999
164171.0,297.11500000000001,-102.605,-14.644,201.03399999999999,-61.650599999999997,-31.808900000000001,-14.309699999999999
164172.0,297.553,-59.291600000000003,32.279800000000002,249.47399999999999,-62.770099999999999,-14.003399999999999,-15.072699999999999
164173.0,300.81200000000001,-140.398,-48.738900000000001,172.976,-63.784799999999997,2.2006899999999998,-11.358599999999999
164174.0,302.65499999999997,-48.759799999999998,44.8324,263.86799999999999,-65.891400000000004,19.505600000000001,-8.1108899999999995
164175.0,305.77100000000002,-95.159199999999998,-1.6248199999999999,214.22900000000001,-66.024500000000003,39.3063,-9.1669400000000003
164176.0,307.54300000000001,-14.706,75.436499999999995,287.06700000000001,-63.517499999999998,58.505499999999998,-8.5773700000000002
164177.0,306.88799999999998,-58.721200000000003,26.677600000000002,227.63300000000001,-61.844200000000001,76.682500000000005,-8.7244100000000007
164178.0,307.10300000000001,14.493399999999999,89.823300000000003,279.93200000000002,-62.914200000000001,93.184399999999997,-9.1477299999999993
164179.0,306.827,-45.804099999999998,15.372400000000001,194.02600000000001,-65.597499999999997,107.21299999999999,-7.3349099999999998
164180.0,306.55099999999999,32.2318,79.486500000000007,243.726,-68.898200000000003,119.298,-4.7675299999999998
164181.0,307.358,-17.664200000000001,15.9716,164.01499999999999,-72.421899999999994,130.00200000000001,-1.3104
164182.0,308.06599999999997,55.634099999999997,74.7624,204.82900000000001,-75.872799999999998,138.84700000000001,3.0592899999999998
164183.0,308.286,10.979200000000001,14.386100000000001,126.066,-79.098299999999995,145.15600000000001,8.0826600000000006
164184.0,307.78800000000001,91.166600000000003,77.900800000000004,171.46700000000001,-81.743499999999997,148.81800000000001,13.637499999999999
164185.0,306.464,38.229199999999999,7.8857100000000004,84.237700000000004,-83.5929,149.91,19.190999999999999
164186.0,304.548,112.23699999999999,64.586500000000001,125.157,-84.645899999999997,148.78,24.460899999999999
164187.0,301.90699999999998,65.005300000000005,0.066657800000000003,46.373600000000003,-84.916600000000003,145.608,29.189900000000002
164188.0,298.76499999999999,142.678,60.744199999999999,94.182299999999998,-84.549099999999996,140.66999999999999,33.462800000000001
164189.0,295.22000000000003,98.929599999999994,0.86407100000000003,22.752099999999999,-83.724299999999999,134.154,37.347099999999998
164190.0,290.66199999999998,178.69900000000001,65.692899999999995,76.871899999999997,-82.111400000000003,126.04000000000001,40.689
164191.0,285.78899999999999,127.518,0.13992599999999999,1.7102299999999999,-79.710999999999999,116.538,44.132899999999999
164192.0,282.09699999999998,207.053,65.658500000000004,59.895800000000001,-77.4285,106.09999999999999,48.239100000000001
164193.0,278.72399999999999,155.77000000000001,1.8801000000000001,-9.4826999999999995,-75.015299999999996,95.051699999999997,52.0929
164194.0,264.71699999999998,-53.446300000000001,-5.2242100000000002,186.22399999999999,-42.007800000000003,-73.425799999999995,-11.5105
164195.0,267.16899999999998,-0.50944699999999998,58.788400000000003,257.11399999999998,-42.716099999999997,-60.177100000000003,-12.000500000000001
164196.0,269.50400000000002,-64.921599999999998,5.2124499999999996,207.38300000000001,-44.887700000000002,-45.210000000000001,-12.718500000000001
164197.0,271.09199999999998,-15.298500000000001,61.789400000000001,265.95299999999997,-48.276800000000001,-29.640000000000001,-12.9056
164198.0,273.00799999999998,-76.411299999999997,2.8494100000000002,209.346,-52.2044,-13.5139,-13.1561
164199.0,275.697,-19.377800000000001,61.261600000000001,269.72699999999998,-54.195399999999999,2.9263699999999999,-11.556100000000001
164200.0,276.86000000000001,-74.424300000000002,9.0596999999999994,215.25,-53.223100000000002,19.6494,-9.9612499999999997
164201.0,277.60500000000002,-8.1995299999999993,72.591700000000003,276.14400000000001,-52.607799999999997,36.616900000000001,-10.537699999999999
164202.0,279.053,-60.621699999999997,11.3088,212.792,-53.652799999999999,53.546700000000001,-11.1181
164203.0,280.07299999999998,-5.3424500000000004,56.515000000000001,252.59100000000001,-55.604500000000002,69.372100000000003,-10.434699999999999
164204.0,280.62400000000002,-51.023899999999998,2.0465300000000002,187.773,-58.411000000000001,83.864400000000003,-9.0774899999999992
164205.0,281.75299999999999,18.610900000000001,63.343400000000003,235.584,-61.873600000000003,97.279600000000002,-6.7632899999999996
164206.0,282.81599999999997,-30.171700000000001,4.4496700000000002,161.648,-65.6113,109.05800000000001,-3.4993799999999999
164207.0,283.49000000000001,33.285899999999998,55.700600000000001,197.22200000000001,-69.203599999999994,118.738,0.31158400000000003
164208.0,283.97399999999999,-6.7671999999999999,1.9910300000000001,127.65300000000001,-72.560900000000004,126.246,4.5931899999999999
164209.0,283.92399999999998,55.508099999999999,49.551600000000001,159.29400000000001,-75.384900000000002,131.512,9.1821599999999997
164210.0,283.13900000000001,12.376099999999999,-8.9508299999999998,85.366399999999999,-77.5261,134.446,13.794600000000001
164211.0,281.62700000000001,85.147900000000007,47.976399999999998,127.78400000000001,-78.913799999999995,135.226,18.162299999999998
164212.0,279.38600000000002,50.063099999999999,-3.0327199999999999,63.308199999999999,-79.549400000000006,134.03999999999999,22.166899999999998
164213.0,276.81900000000002,118.76600000000001,50.044800000000002,103.93300000000001,-79.665899999999993,131.25299999999999,25.715499999999999
164214.0,273.40300000000002,79.961399999999998,-3.5531899999999998,38.797600000000003,-79.188999999999993,126.749,28.9238
164215.0,269.60599999999999,143.553,45.989100000000001,76.998099999999994,-78.300700000000006,120.73699999999999,32.181600000000003
164216.0,265.904,99.819299999999998,-11.011699999999999,11.054,-77.291799999999995,113.438,35.837800000000001
164217.0,261.02800000000002,168.072,44.953499999999998,59.584099999999999,-75.744799999999998,104.40300000000001,39.383600000000001
164218.0,255.93899999999999,119.90000000000001,-14.553599999999999,-8.7581500000000005,-72.746499999999997,94.929400000000001,41.879899999999999
164219.0,251.529,182.72499999999999,37.390000000000001,36.125700000000002,-69.029300000000006,85.152199999999993,44.390500000000003
164220.0,243.68100000000001,21.314800000000002,57.444899999999997,239.53,-38.104100000000003,-67.463099999999997,-10.514699999999999
164221.0,244.91999999999999,-37.667700000000004,5.50244,195.946,-38.1374,-54.567799999999998,-10.572800000000001
164222.0,245.55099999999999,3.7845900000000001,52.888199999999998,248.74199999999999,-38.829000000000001,-40.955300000000001,-10.8544
164223.0,247.161,-50.112400000000001,4.7997100000000001,204.078,-40.170699999999997,-26.9727,-11.4749
164224.0,248.55799999999999,-6.4712899999999998,54.120600000000003,253.77799999999999,-42.058900000000001,-12.532,-11.1173
164225.0,249.83600000000001,-61.255499999999998,1.71593,201.08500000000001,-43.498100000000001,3.0388999999999999,-12.191000000000001
164226.0,252.26400000000001,-19.191700000000001,40.909199999999998,242.34200000000001,-44.625399999999999,17.939900000000002,-11.5951
164227.0,253.422,-60.335999999999999,-3.0976499999999998,195.614,-46.687600000000003,32.740000000000002,-10.5152
164228.0,256.00200000000001,-3.8585500000000001,50.602699999999999,243.852,-49.266599999999997,48.496499999999997,-11.0113
164229.0,258.44400000000002,-40.3977,9.3244199999999999,195.34299999999999,-51.972900000000003,63.481499999999997,-9.5813199999999998
164230.0,259.351,11.7081,54.339300000000001,229.529,-55.295900000000003,77.314099999999996,-7.7456199999999997
164231.0,260.029,-32.828499999999998,0.41378300000000001,163.89500000000001,-58.607500000000002,89.369799999999998,-5.2848600000000001
164232.0,260.52300000000002,25.550699999999999,48.284300000000002,198.66800000000001,-62.099299999999999,99.560900000000004,-2.2589999999999999
164233.0,261.21600000000001,-8.6233500000000003,2.4116499999999998,139.18600000000001,-65.458200000000005,108.068,1.2483299999999999
164234.0,261.50099999999998,45.950499999999998,44.196599999999997,167.09399999999999,-68.373699999999999,114.589,4.9949700000000004
164235.0,261.28699999999998,17.3184,1.8535299999999999,111.116,-70.714299999999994,119.099,8.7061600000000006
164236.0,260.33800000000002,78.357699999999994,48.670900000000003,144.751,-72.373599999999996,121.593,12.208
164237.0,258.69900000000001,42.336399999999998,-1.6918500000000001,81.683700000000002,-73.409999999999997,122.22799999999999,15.491099999999999
164238.0,256.548,97.459800000000001,39.186399999999999,110.711,-73.870699999999999,121.247,18.2591
164239.0,253.678,65.803200000000004,-6.4900799999999998,53.800600000000003,-73.736500000000007,118.646,20.880800000000001
164240.0,250.726,123.842,38.395000000000003,87.855599999999995,-73.588499999999996,114.77200000000001,22.940200000000001
164241.0,246.10599999999999,94.089399999999998,-2.8677899999999998,36.661000000000001,-72.508899999999997,108.95399999999999,26.152999999999999
164242.0,241.90199999999999,150.255,44.570500000000003,69.421700000000001,-71.964299999999994,101.791,30.1951
164243.0,240.375,109.006,-5.1058199999999996,8.2983200000000004,-70.099599999999995,96.334299999999999,34.282499999999999
164244.0,235.232,169.69399999999999,45.507300000000001,57.8444,-67.257599999999996,88.152799999999999,38.333399999999997
164245.0,229.04400000000001,138.50700000000001,2.5805199999999999,12.7302,-65.510400000000004,76.476200000000006,40.170099999999998
164246.0,224.41,-38.069000000000003,-12.363799999999999,160.15000000000001,-35.012099999999997,-61.991799999999998,-9.9510500000000004
164247.0,226.05199999999999,-0.27430399999999999,32.871899999999997,212.72900000000001,-35.218699999999998,-50.569200000000002,-9.9666700000000006
164248.0,227.29400000000001,-45.636099999999999,-6.3664899999999998,178.977,-35.753500000000003,-38.066099999999999,-10.1236
164249.0,228.38,-8.35623,35.047400000000003,224.505,-36.506999999999998,-24.736799999999999,-10.366899999999999
164250.0,229.041,-49.318399999999997,-3.5633900000000001,187.905,-37.558900000000001,-11.2906,-10.504300000000001
164251.0,230.46899999999999,-6.8217100000000004,39.7012,231.96799999999999,-39.351599999999998,2.4074900000000001,-11.214700000000001
164252.0,233.05099999999999,-48.637599999999999,-2.25773,189.87700000000001,-41.567300000000003,16.298400000000001,-10.8697
164253.0,234.73599999999999,-4.0485499999999996,41.945700000000002,230.37700000000001,-43.535600000000002,30.6738,-10.066700000000001
164254.0,236.25399999999999,-43.1907,-0.43894499999999997,182.685,-45.681100000000001,44.997599999999998,-9.8373699999999999
164255.0,237.68199999999999,-4.7918599999999998,32.063000000000002,208.637,-48.403199999999998,58.301499999999997,-8.6216600000000003
164256.0,238.636,-36.496200000000002,-6.6215799999999998,160.59,-51.636600000000001,70.618700000000004,-6.8198600000000003
164257.0,239.49700000000001,15.518800000000001,37.016500000000001,193.50299999999999,-54.979199999999999,81.481200000000001,-4.4285300000000003
164258.0,240.11099999999999,-17.587700000000002,-5.9560300000000002,138.88300000000001,-58.114600000000003,90.765600000000006,-1.6288400000000001
164259.0,240.494,29.834399999999999,30.287600000000001,163.221,-60.849299999999999,98.307699999999997,1.26061
164260.0,240.67400000000001,4.7187799999999998,-7.0196699999999996,114.086,-63.146900000000002,104.128,4.10771
164261.0,240.27199999999999,50.992400000000004,26.512,135.84800000000001,-64.960499999999996,108.09999999999999,6.7605700000000004
164262.0,239.31299999999999,22.761399999999998,-14.8109,83.149100000000004,-66.223399999999998,110.366,9.0343099999999996
164263.0,237.27600000000001,78.511700000000005,27.9238,114.616,-66.897599999999997,110.782,11.0671
164264.0,235.22200000000001,56.691400000000002,-7.0819999999999999,68.833399999999997,-67.225399999999993,109.992,12.754799999999999
164265.0,232.453,109.55,33.747999999999998,99.125,-67.247299999999996,107.608,14.8895
164266.0,230.41,81.914599999999993,-5.8442100000000003,48.933799999999998,-67.705399999999997,104.306,16.357199999999999
164267.0,225.85499999999999,130.09200000000001,33.525199999999998,79.387600000000006,-66.495900000000006,99.249399999999994,19.952400000000001
164268.0,218.703,89.481999999999999,-13.3795,17.222999999999999,-67.618899999999996,89.863600000000005,22.497
164269.0,215.96000000000001,100.038,-11.8583,6.4360499999999998,-65.000100000000003,84.455500000000001,24.202000000000002
164270.0,212.393,69.4953,-45.936399999999999,-35.116900000000001,-58.683199999999999,81.163200000000003,30.684799999999999
164271.0,208.803,141.321,20.154699999999998,26.227699999999999,-58.109400000000001,72.259799999999998,35.693100000000001
164272.0,207.27000000000001,19.7501,36.7166,200.309,-32.378900000000002,-56.938800000000001,-9.3711699999999993
164273.0,208.59899999999999,-26.628900000000002,-3.1865999999999999,167.285,-32.386099999999999,-46.546300000000002,-9.3228500000000007
164274.0,209.81100000000001,4.91432,33.587499999999999,209.60900000000001,-32.5672,-35.200499999999998,-9.4643800000000002
164275.0,210.87899999999999,-35.795699999999997,-3.0435500000000002,176.76900000000001,-33.112400000000001,-23.134399999999999,-9.6706500000000002
164276.0,212.12100000000001,-3.4095499999999999,32.215200000000003,214.16300000000001,-34.173099999999998,-10.6075,-9.9707399999999993
164277.0,213.54400000000001,-44.592500000000001,-7.2929199999999996,175.13300000000001,-35.6267,2.3349600000000001,-10.0326
164278.0,214.857,-6.5918900000000002,30.575900000000001,211.81899999999999,-37.322699999999998,15.4716,-9.9961400000000005
164279.0,216.38900000000001,-43.598199999999999,-8.8511399999999991,170.04499999999999,-39.463000000000001,28.5291,-9.7214799999999997
164280.0,217.82599999999999,-1.87869,29.166799999999999,203.53200000000001,-42.049300000000002,41.329700000000003,-8.9238199999999992
164281.0,219.06999999999999,-27.616299999999999,-1.5042599999999999,166.16300000000001,-44.919199999999996,53.496299999999998,-7.7563500000000003
164282.0,219.96799999999999,12.722099999999999,32.071300000000001,191.52799999999999,-47.786999999999999,64.648300000000006,-6.07552
164283.0,220.45400000000001,-20.122900000000001,-9.0388699999999993,140.958,-50.488100000000003,74.425799999999995,-4.1164199999999997
164284.0,220.88300000000001,26.7151,28.236999999999998,168.20099999999999,-52.991700000000002,82.761099999999999,-1.9540500000000001
164285.0,221.28,3.2505500000000001,-5.8318000000000003,123.84999999999999,-55.237000000000002,89.608999999999995,0.23688999999999999
164286.0,221.55099999999999,46.964199999999998,26.4773,145.95599999999999,-57.098500000000001,94.941900000000004,2.2241900000000001
164287.0,221.36199999999999,28.373100000000001,-3.8746900000000002,105.43600000000001,-58.595399999999998,98.646500000000003,3.8280099999999999
164288.0,220.441,77.484099999999998,33.355699999999999,132.46799999999999,-59.677799999999998,100.723,5.0908499999999997
164289.0,218.74299999999999,51.8307,-3.8709500000000001,84.906300000000002,-60.504300000000001,101.169,6.3631099999999998
164290.0,216.726,95.141999999999996,27.938800000000001,106.441,-60.935000000000002,100.431,7.4956500000000004
164291.0,214.07300000000001,71.547399999999996,-6.3983100000000004,61.960599999999999,-60.947899999999997,98.383099999999999,8.6655200000000008
164292.0,211.76900000000001,117.10899999999999,28.262899999999998,86.401799999999994,-61.238100000000003,95.200999999999993,9.9633000000000003
164293.0,207.488,94.935299999999998,-1.41418,47.135199999999998,-60.765599999999999,90.402500000000003,12.824999999999999
164294.0,201.708,134.77000000000001,32.139499999999998,71.640500000000003,-62.809800000000003,81.697699999999998,16.2088
164295.0,197.529,82.047899999999998,-31.458100000000002,4.1136200000000001,-63.512700000000002,72.549800000000005,18.389399999999998
164296.0,190.83699999999999,97.911600000000007,-22.223299999999998,6.6390200000000004,-57.702300000000001,66.497100000000003,21.342099999999999
164297.0,186.12,71.303600000000003,-49.420000000000002,-32.7913,-52.636200000000002,61.808199999999999,25.980799999999999
164298.0,191.21799999999999,-26.9133,-18.053899999999999,137.61500000000001,-28.711500000000001,-52.238700000000001,-8.4507600000000007
164299.0,192.696,3.2418800000000001,18.125399999999999,180.05799999999999,-29.063099999999999,-42.893799999999999,-8.6514699999999998
164300.0,193.91900000000001,-34.061700000000002,-14.1693,152.78299999999999,-29.440100000000001,-32.553199999999997,-8.8614200000000007
164301.0,195.024,-4.0968600000000004,19.489799999999999,190.16499999999999,-29.968900000000001,-21.4635,-9.0527800000000003
164302.0,196.053,-37.022199999999998,-11.132899999999999,161.809,-30.7393,-9.8168900000000008,-9.2467799999999993
164303.0,197.05600000000001,-1.63626,25.061399999999999,198.715,-31.8782,2.1677499999999998,-9.3798200000000005
164304.0,198.22300000000001,-34.950499999999998,-8.73475,163.988,-33.535299999999999,14.232699999999999,-9.3482000000000003
164305.0,199.548,1.2966899999999999,25.7988,195.88200000000001,-35.6205,26.2926,-9.0048100000000009
164306.0,200.703,-30.059899999999999,-8.9968800000000009,156.78999999999999,-37.869799999999998,38.079000000000001,-8.3366199999999999
164307.0,201.55500000000001,1.6589100000000001,17.608499999999999,177.48599999999999,-40.222799999999999,49.134700000000002,-7.3712999999999997
164308.0,202.251,-23.023499999999999,-13.523099999999999,139.03899999999999,-42.7136,59.176099999999998,-6.0982700000000003
164309.0,202.828,20.764900000000001,22.5244,166.74799999999999,-45.171399999999998,68.067999999999998,-4.51037
164310.0,203.36799999999999,-4.8053600000000003,-11.9161,123.42400000000001,-47.387300000000003,75.703000000000003,-2.8190499999999998
164311.0,203.983,34.684199999999997,17.700700000000001,144.126,-49.251800000000003,82.061999999999998,-1.2596099999999999
164312.0,204.56399999999999,16.250299999999999,-11.2873,106.33199999999999,-50.786099999999998,87.091499999999996,-0.16060099999999999
164313.0,204.68100000000001,54.563000000000002,16.187799999999999,124.94,-52.0306,90.637900000000002,0.476076
164314.0,203.92699999999999,33.307400000000001,-15.5182,83.701599999999999,-53.071100000000001,92.648399999999995,0.66003800000000001
164315.0,201.68799999999999,78.921899999999994,20.09,109.22,-53.383099999999999,93.033900000000003,0.57615700000000003
164316.0,198.94900000000001,63.446899999999999,-5.9901099999999996,72.871600000000001,-53.408299999999997,92.113,1.1585399999999999
164317.0,197.631,107.526,27.694800000000001,97.083699999999993,-54.152999999999999,90.547600000000003,2.26892
164318.0,195.11199999999999,86.895700000000005,-1.595,58.115099999999998,-54.866199999999999,87.341499999999996,3.6561400000000002
164319.0,191.24600000000001,122.76300000000001,27.0747,77.054100000000005,-55.366199999999999,82.490300000000005,5.5695300000000003
164320.0,186.43799999999999,94.529600000000002,-6.0255400000000003,35.007899999999999,-55.885800000000003,76.246899999999997,9.6545900000000007
164321.0,182.50999999999999,127.693,21.895399999999999,57.295400000000001,-57.493299999999998,68.522499999999994,14.2179
164322.0,177.67699999999999,89.779700000000005,-24.405100000000001,12.532500000000001,-56.638800000000003,59.696300000000001,18.8796
164323.0,171.77600000000001,106.059,-13.442299999999999,15.5496,-54.124600000000001,50.517800000000001,21.648099999999999
164324.0,176.767,23.243400000000001,25.039100000000001,173.48099999999999,-24.7713,-48.071300000000001,-7.4914399999999999
164325.0,177.88200000000001,-14.962999999999999,-7.5189500000000002,146.506,-24.830200000000001,-39.5319,-7.71089
164326.0,178.982,10.004300000000001,21.925000000000001,180.685,-25.1647,-30.003,-8.05748
164327.0,180.054,-23.342099999999999,-7.9765300000000003,154.21299999999999,-25.754300000000001,-19.872299999999999,-8.3932800000000007
164328.0,180.96700000000001,2.1753900000000002,19.760899999999999,183.93100000000001,-26.618099999999998,-9.1383100000000006,-8.6618600000000008
164329.0,181.91999999999999,-31.182600000000001,-12.680999999999999,152.08199999999999,-27.771799999999999,1.9452799999999999,-8.7981800000000003
164330.0,182.827,-0.25290299999999999,17.6937,181.56399999999999,-29.1874,13.2003,-8.7730999999999995
164331.0,183.745,-29.1723,-13.3223,148.21600000000001,-30.8765,24.334399999999999,-8.54908
164332.0,184.71000000000001,5.0788599999999997,17.450500000000002,175.16,-32.919600000000003,35.092500000000001,-8.0756300000000003
164333.0,185.61099999999999,-14.319599999999999,-6.7584200000000001,145.67400000000001,-35.173400000000001,45.219999999999999,-7.3046300000000004
164334.0,186.33199999999999,18.963200000000001,20.459099999999999,166.31800000000001,-37.4587,54.455300000000001,-6.2899000000000003
164335.0,186.95400000000001,-7.0528399999999998,-12.7355,125.681,-39.632199999999997,62.6004,-5.1084899999999998
164336.0,187.655,31.433299999999999,17.475200000000001,148.072,-41.588900000000002,69.647999999999996,-3.9005999999999998
164337.0,188.62700000000001,14.3522,-8.8329199999999997,114.155,-43.186199999999999,75.599800000000002,-2.9967999999999999
164338.0,189.78200000000001,50.763300000000001,17.7362,133.28700000000001,-44.518799999999999,80.464500000000001,-2.6771600000000002
164339.0,190.31800000000001,38.653799999999997,-4.0228999999999999,103.54900000000001,-45.651000000000003,83.935900000000004,-3.21773
164340.0,189.523,79.628600000000006,27.393799999999999,125.991,-46.818300000000001,85.652199999999993,-3.3877700000000002
164341.0,188.05099999999999,61.222099999999998,-0.44595200000000002,88.808899999999994,-48.639400000000002,85.576599999999999,-3.19841
164342.0,186.08000000000001,97.426199999999994,26.905799999999999,107.07899999999999,-49.330100000000002,84.768500000000003,-2.6724800000000002
164343.0,183.36699999999999,76.636399999999995,-1.8953199999999999,68.063199999999995,-48.787999999999997,83.453500000000005,-2.69556
164344.0,180.11199999999999,114.523,28.002400000000002,86.9572,-48.819899999999997,80.437399999999997,-2.52162
164345.0,177.334,96.943399999999997,2.8729800000000001,52.292900000000003,-49.453899999999997,76.301199999999994,-0.82989100000000005
164346.0,171.79599999999999,132.52099999999999,34.261699999999998,75.1434,-49.793999999999997,70.116900000000001,2.3924400000000001
164347.0,167.03100000000001,105.688,3.7466300000000001,36.029400000000003,-49.890799999999999,63.703299999999999,6.1735100000000003
164348.0,160.82900000000001,143.22800000000001,40.926400000000001,68.069500000000005,-48.351500000000001,57.611800000000002,12.5083
164349.0,156.65000000000001,106.328,-0.43425900000000001,21.2286,-50.640000000000001,46.552599999999998,16.2258
164350.0,163.334,-15.595000000000001,-18.439699999999998,122.041,-20.220700000000001,-44.705500000000001,-6.1214700000000004
164351.0,164.423,9.8361000000000001,11.307499999999999,157.839,-20.307099999999998,-36.3748,-6.8091499999999998
164352.0,165.63200000000001,-21.272099999999998,-15.6434,135.37799999999999,-20.6447,-27.762899999999998,-7.16296
164353.0,166.34299999999999,3.0944400000000001,11.8179,165.79499999999999,-21.225300000000001,-18.3643,-7.7154999999999996
164354.0,167.107,-23.823499999999999,-13.132400000000001,142.709,-21.980799999999999,-8.4427199999999996,-8.0510099999999998
164355.0,167.75700000000001,5.40646,16.795300000000001,173.09100000000001,-23.001799999999999,1.80044,-8.3101900000000004
164356.0,168.48400000000001,-21.571999999999999,-10.813700000000001,144.63900000000001,-24.323799999999999,12.2134,-8.3809699999999996
164357.0,169.31100000000001,8.4779800000000005,17.2759,170.554,-25.953900000000001,22.518599999999999,-8.2406400000000009
164358.0,170.16499999999999,-16.556000000000001,-11.087999999999999,138.685,-27.787500000000001,32.517000000000003,-7.8899600000000003
164359.0,171.06299999999999,9.4835700000000003,10.347899999999999,155.447,-29.773399999999999,41.873899999999999,-7.3693299999999997
164360.0,171.83699999999999,-10.1104,-15.0152,124.22,-31.898900000000001,50.380699999999997,-6.6638900000000003
164361.0,172.70500000000001,26.532800000000002,14.8009,147.553,-33.9529,57.915300000000002,-5.8545800000000003
164362.0,173.63499999999999,6.7671200000000002,-12.683400000000001,113.155,-35.835500000000003,64.433700000000002,-5.0110999999999999
164363.0,175.30799999999999,39.241799999999998,11.2331,130.79400000000001,-37.240099999999998,70.171099999999996,-4.8330000000000002
164364.0,176.851,26.832000000000001,-10.156499999999999,103.018,-38.301600000000001,74.836500000000001,-5.2667200000000003
164365.0,178.53,57.933500000000002,12.0466,118.334,-39.486400000000003,78.551599999999993,-7.28146
164366.0,176.36000000000001,43.351799999999997,-9.3484999999999996,87.190899999999999,-40.536999999999999,79.576899999999995,-7.4436999999999998
164367.0,173.96199999999999,73.054500000000004,16.783899999999999,95.212999999999994,-42.718499999999999,80.958399999999997,-8.5856200000000005
164368.0,173.113,46.811599999999999,-14.186500000000001,55.6678,-40.732599999999998,82.543199999999999,-8.3890899999999995
164369.0,167.845,98.182000000000002,26.265799999999999,92.090599999999995,-40.177900000000001,78.329800000000006,-7.1077399999999997
164370.0,167.131,93.729600000000005,8.7571499999999993,64.887699999999995,-43.345399999999998,74.178200000000004,-7.91275
164371.0,165.524,120.151,28.773900000000001,76.674000000000007,-43.799399999999999,71.284700000000001,-6.6165200000000004
164372.0,159.042,97.600099999999998,3.8517999999999999,42.331099999999999,-44.733800000000002,64.791899999999998,-3.4238400000000002
164373.0,154.0,124.741,26.281300000000002,57.620699999999999,-44.511099999999999,58.2562,0.096518599999999996
164374.0,146.74100000000001,97.938999999999993,-1.77911,25.104800000000001,-43.079700000000003,51.389499999999998,4.3598800000000004
164375.0,143.084,121.352,18.683700000000002,41.076999999999998,-44.398499999999999,43.2438,8.2881599999999995
164376.0,151.28999999999999,26.297999999999998,18.776399999999999,152.447,-15.759499999999999,-41.484099999999998,-4.5350200000000003
164377.0,152.47900000000001,-3.8087900000000001,-6.35703,132.72,-15.8385,-33.6477,-5.9462299999999999
164378.0,153.60300000000001,15.5655,16.578600000000002,159.95699999999999,-16.008600000000001,-25.839300000000001,-6.2878999999999996
164379.0,153.95599999999999,-11.6296,-7.7199099999999996,138.155,-16.577999999999999,-16.982600000000001,-7.0178099999999999
164380.0,154.59800000000001,8.8723299999999998,14.5328,162.11199999999999,-17.325800000000001,-7.8352300000000001,-7.4978199999999999
164381.0,154.96799999999999,-18.831199999999999,-12.545,135.24700000000001,-18.355,1.70045,-7.8491600000000004
164382.0,155.50399999999999,6.9538200000000003,12.597200000000001,159.535,-19.571100000000001,11.379200000000001,-8.0032999999999994
164383.0,156.126,-16.8292,-13.153600000000001,131.74100000000001,-21.017099999999999,20.978100000000001,-7.9439000000000002
164384.0,156.96899999999999,12.201000000000001,12.584099999999999,154.38999999999999,-22.722799999999999,30.260100000000001,-7.7393400000000003
164385.0,157.97900000000001,-3.2735500000000002,-7.4308399999999999,130.34200000000001,-24.569299999999998,38.971200000000003,-7.4019000000000004
164386.0,158.893,25.475300000000001,15.6981,148.346,-26.555499999999999,46.877099999999999,-6.9499899999999997
164387.0,160.04599999999999,3.6503199999999998,-12.6737,114.40900000000001,-28.414899999999999,53.920900000000003,-6.5316799999999997
164388.0,161.167,36.780700000000003,13.142799999999999,134.28700000000001,-30.0016,59.960799999999999,-6.2554999999999996
164389.0,163.56999999999999,23.161200000000001,-8.5905000000000005,107.535,-31.030000000000001,65.617400000000004,-6.91364
164390.0,165.69900000000001,56.505899999999997,16.680700000000002,127.455,-31.849799999999998,70.134200000000007,-8.3912099999999992
164391.0,168.59700000000001,47.3795,-0.49962200000000001,103.762,-33.206899999999997,74.297499999999999,-11.333600000000001
164392.0,164.887,84.666200000000003,31.874700000000001,125.673,-34.768999999999998,74.1892,-11.7735
164393.0,161.57499999999999,49.373699999999999,-11.9924,66.462299999999999,-38.704300000000003,72.716300000000004,-14.6411
164394.0,161.64400000000001,54.206099999999999,-15.876799999999999,62.655000000000001,-36.309199999999997,73.058499999999995,-13.977499999999999
164395.0,154.86099999999999,73.000799999999998,0.100065,69.835400000000007,-35.431800000000003,70.279799999999994,-10.071
164396.0,155.74100000000001,117.596,37.223100000000002,89.281899999999993,-39.163899999999998,68.942899999999995,-11.67
164397.0,154.65899999999999,96.853700000000003,10.3009,54.939700000000002,-38.620399999999997,66.962299999999999,-11.1434
164398.0,147.97900000000001,128.13300000000001,38.716799999999999,73.649799999999999,-40.044800000000002,60.024799999999999,-7.8728499999999997
164399.0,142.553,103.679,11.7812,40.202800000000003,-40.145800000000001,54.1496,-4.0301400000000003
164400.0,136.14400000000001,131.58199999999999,38.244399999999999,61.8262,-39.754800000000003,47.347799999999999,0.66808400000000001
164401.0,132.863,108.423,10.928599999999999,31.1797,-39.252600000000001,40.943100000000001,4.48881
164402.0,141.17400000000001,-6.18649,-16.414999999999999,110.955,-11.987399999999999,-38.428100000000001,-3.8237800000000002
164403.0,141.90000000000001,15.073,9.8795800000000007,141.547,-11.695499999999999,-31.483599999999999,-4.90923
164404.0,142.72999999999999,-11.5451,-13.507300000000001,122.06999999999999,-11.8855,-24.0488,-5.5949
164405.0,143.03700000000001,9.3041099999999997,9.9921699999999998,147.959,-12.375500000000001,-15.805199999999999,-6.3362800000000004
164406.0,143.31399999999999,-13.701599999999999,-11.443199999999999,127.854,-13.0543,-7.2686500000000001,-6.97159
164407.0,143.464,11.480600000000001,14.2499,153.63399999999999,-13.9946,1.6238999999999999,-7.4094499999999996
164408.0,143.69900000000001,-11.5579,-9.4926999999999992,128.91399999999999,-15.157,10.627000000000001,-7.6345499999999999
164409.0,144.215,14.4602,14.558,151.083,-16.528600000000001,19.5916,-7.6224600000000002
164410.0,145.03200000000001,-6.6362800000000002,-9.7862100000000005,124.032,-18.0184,28.2562,-7.5099200000000002
164411.0,146.14099999999999,16.153600000000001,8.5337099999999992,138.93700000000001,-19.550799999999999,36.408000000000001,-7.4060600000000001
164412.0,147.13999999999999,-0.062054199999999997,-13.2187,112.871,-21.0093,43.773299999999999,-7.41134
164413.0,148.352,32.666499999999999,13.0327,134.32900000000001,-22.293299999999999,50.436,-7.50983
164414.0,149.995,17.346499999999999,-9.3978300000000008,107.08799999999999,-23.454000000000001,56.244700000000002,-7.9397200000000003
164415.0,153.148,46.471400000000003,12.1472,124.586,-24.2346,61.830500000000001,-9.3442600000000002
164416.0,156.66499999999999,37.623600000000003,-3.7158699999999998,104.265,-24.933499999999999,66.644800000000004,-12.2393
164417.0,159.46000000000001,65.468199999999996,17.343599999999999,118.29300000000001,-26.308900000000001,70.648799999999994,-15.5852
164418.0,155.43600000000001,50.749899999999997,-0.39179199999999997,88.400400000000005,-29.864799999999999,70.060699999999997,-16.3368
164419.0,151.44,68.562100000000001,12.9033,85.656599999999997,-36.461199999999998,68.243799999999993,-14.5212
164420.0,151.81100000000001,39.4619,-18.537600000000001,48.3307,-37.433300000000003,69.717299999999994,-10.0739
164421.0,145.92699999999999,83.869900000000001,24.930800000000001,85.1357,-34.320999999999998,68.334599999999995,-8.20838
164422.0,143.09200000000001,88.626199999999997,17.690899999999999,66.140600000000006,-34.379300000000001,64.595299999999995,-12.5097
164423.0,144.06100000000001,118.09099999999999,36.128900000000002,76.543199999999999,-34.724299999999999,61.964799999999997,-13.889099999999999
164424.0,139.035,97.1708,12.194100000000001,43.905200000000001,-35.960500000000003,56.488700000000001,-10.7461
164425.0,132.297,116.726,30.765899999999998,56.320099999999996,-36.677300000000002,49.936399999999999,-6.8432700000000004
164426.0,126.169,92.755099999999999,4.80504,26.000399999999999,-36.063299999999998,43.510599999999997,-2.3876599999999999
164427.0,122.47799999999999,116.46299999999999,25.381499999999999,43.556699999999999,-35.297699999999999,37.803600000000003,1.2857499999999999
164428.0,132.005,29.8475,19.384,139.49799999999999,-8.43384,-36.051699999999997,-3.3070300000000001
164429.0,132.52500000000001,1.7369699999999999,-5.0699100000000001,119.404,-8.2711600000000001,-29.5307,-4.0266599999999997
164430.0,132.97200000000001,19.880299999999998,16.354600000000001,144.12200000000001,-8.3804300000000005,-22.440999999999999,-4.9518399999999998
164431.0,133.244,-4.7370599999999996,-5.9029600000000002,124.155,-8.7995000000000001,-14.802,-5.7622900000000001
164432.0,133.215,13.761100000000001,14.033300000000001,145.09999999999999,-9.4517500000000005,-6.7736299999999998,-6.4901
164433.0,133.09399999999999,-10.8073,-10.1305,120.82599999999999,-10.3484,1.5247999999999999,-6.9977799999999997
164434.0,133.03899999999999,12.079000000000001,12.034599999999999,141.886,-11.4108,9.9333799999999997,-7.2413100000000004
164435.0,133.339,-8.6933500000000006,-10.714399999999999,117.333,-12.586499999999999,18.306100000000001,-7.2448499999999996
164436.0,134.26400000000001,17.265499999999999,12.014799999999999,137.88499999999999,-13.762,26.3963,-7.2671999999999999
164437.0,135.40000000000001,4.6924999999999999,-4.9240500000000003,118.077,-14.8141,33.999000000000002,-7.4878200000000001
164438.0,136.61799999999999,31.592300000000002,16.474299999999999,136.024,-15.6538,40.923999999999999,-7.9931200000000002
164439.0,137.80099999999999,14.795199999999999,-6.7408900000000003,108.673,-16.279699999999998,47.155500000000004,-8.65123
164440.0,140.202,44.460599999999999,16.226800000000001,127.75700000000001,-16.4161,53.076300000000003,-10.160600000000001
164441.0,143.84999999999999,35.793500000000002,0.731375,108.672,-16.360399999999998,58.692599999999999,-12.3736
164442.0,149.63200000000001,64.836200000000005,23.334700000000002,127.176,-17.2103,64.467699999999994,-16.705100000000002
164443.0,151.63300000000001,61.934100000000001,14.9498,112.13500000000001,-19.459299999999999,67.441699999999997,-19.365200000000002
164444.0,147.11600000000001,86.465199999999996,37.045000000000002,118.03700000000001,-26.115200000000002,66.993600000000001,-19.437000000000001
164445.0,140.76499999999999,34.8889,-13.3331,48.716900000000003,-32.187899999999999,65.251999999999995,-15.8073
164446.0,137.298,5.1536900000000001,-41.491,9.2924100000000003,-33.1096,65.153099999999995,-12.127800000000001
164447.0,135.53100000000001,-1.07152,-50.240299999999998,2.0085899999999999,-29.810300000000002,65.463999999999999,-9.4417899999999992
164448.0,131.19499999999999,91.237099999999998,30.588100000000001,78.438699999999997,-30.373100000000001,60.792900000000003,-9.8540799999999997
164449.0,133.66399999999999,98.044300000000007,23.3492,59.235599999999998,-33.2029,57.246400000000001,-13.4252
164450.0,130.815,118.791,39.096899999999998,68.015600000000006,-32.485700000000001,53.5563,-12.3714
164451.0,122.821,99.738299999999995,19.2712,41.716000000000001,-33.572699999999998,45.906799999999997,-8.3398800000000008
164452.0,117.379,119.246,36.785200000000003,56.281199999999998,-33.246400000000001,40.1845,-3.8858100000000002
164453.0,113.05200000000001,99.839600000000004,14.9879,32.144300000000001,-32.454500000000003,34.556699999999999,0.049146099999999998
164454.0,123.492,-0.694523,-11.6683,101.529,-5.5730199999999996,-33.883400000000002,-2.6386699999999998
164455.0,123.979,17.489100000000001,10.278700000000001,127.428,-5.5420499999999997,-27.753799999999998,-3.49411
164456.0,124.27800000000001,-5.6131799999999998,-9.8578899999999994,110.373,-5.6302899999999996,-21.047699999999999,-4.3857699999999999
164457.0,124.32299999999999,12.491099999999999,10.4252,132.63200000000001,-5.9746600000000001,-13.887600000000001,-5.2937599999999998
164458.0,124.123,-7.4678699999999996,-8.2174600000000009,114.81399999999999,-6.5675999999999997,-6.3653899999999997,-6.0688000000000004
164459.0,123.611,14.5509,14.1274,136.72399999999999,-7.3876999999999997,1.39249,-6.6289800000000003
164460.0,123.31,-5.4378099999999998,-6.6322799999999997,114.79000000000001,-8.3354199999999992,9.2430800000000009,-6.8516399999999997
164461.0,123.414,17.8309,14.6859,134.39599999999999,-9.2567299999999992,17.0,-6.9058999999999999
164462.0,124.486,-0.105716,-6.3305800000000003,111.709,-9.9443900000000003,24.5915,-7.0393100000000004
164463.0,125.861,21.3154,11.0525,126.83199999999999,-10.4876,31.673200000000001,-7.7326100000000002
164464.0,127.13,7.6132499999999999,-6.9354399999999998,105.41,-10.3592,38.264200000000002,-9.1109600000000004
164465.0,127.79600000000001,39.191099999999999,19.639800000000001,127.18600000000001,-9.6731099999999994,44.278500000000001,-10.384399999999999
164466.0,131.40899999999999,28.154499999999999,1.9769300000000001,106.474,-8.9582300000000004,50.664499999999997,-12.35
164467.0,136.26300000000001,58.835599999999999,26.139099999999999,128.017,-8.6276499999999992,56.323300000000003,-15.388400000000001
164468.0,143.947,50.155999999999999,11.1387,108.79000000000001,-9.73414,63.076000000000001,-20.433299999999999
164469.0,144.32499999999999,77.521000000000001,34.891800000000003,124.63,-13.308999999999999,65.460499999999996,-21.5901
164470.0,138.35300000000001,50.157499999999999,3.9378199999999999,73.269999999999996,-23.043600000000001,64.604100000000003,-20.726199999999999
164471.0,133.16,17.734999999999999,-30.311299999999999,29.6875,-30.0718,60.850200000000001,-17.174800000000001
164472.0,124.41500000000001,-30.471399999999999,-82.398499999999999,-23.555299999999999,-32.404299999999999,53.960000000000001,-12.787699999999999
164473.0,123.294,-9.5609500000000001,-63.515799999999999,-9.2203099999999996,-30.334599999999998,55.488399999999999,-9.5631799999999991
164474.0,122.429,27.128,-24.631900000000002,19.624199999999998,-27.6401,58.253700000000002,-7.5128700000000004
164475.0,122.113,96.466399999999993,34.0015,65.623099999999994,-29.998200000000001,54.505099999999999,-11.148999999999999
164476.0,121.771,90.106200000000001,16.471599999999999,42.6252,-30.069400000000002,49.866900000000001,-12.587
164477.0,114.831,110.94499999999999,34.910200000000003,54.825800000000001,-30.656199999999998,42.633499999999998,-9.1351700000000005
164478.0,108.785,85.2239,8.2004900000000003,25.881799999999998,-30.5776,36.8536,-4.8746099999999997
164479.0,104.325,105.26300000000001,26.063099999999999,42.446300000000001,-29.837599999999998,31.453499999999998,-0.69599200000000006
164480.0,115.681,30.006399999999999,19.408799999999999,125.69499999999999,-3.6664400000000001,-31.857600000000001,-2.1929400000000001
164481.0,116.075,5.1922300000000003,-1.9740800000000001,108.036,-3.4889100000000002,-26.100999999999999,-3.0539900000000002
164482.0,116.28700000000001,21.0062,16.640799999999999,129.489,-3.5653999999999999,-19.799700000000001,-3.9722
164483.0,116.22499999999999,-0.57327300000000003,-2.9045200000000002,111.72499999999999,-3.8551000000000002,-13.0778,-4.91526
164484.0,115.736,15.7423,14.5974,129.74799999999999,-4.4100400000000004,-6.0248200000000001,-5.7287699999999999
164485.0,114.999,-5.8203199999999997,-6.6831300000000002,107.851,-5.1695900000000004,1.21902,-6.3266099999999996
164486.0,114.23,14.566599999999999,12.9405,125.988,-5.9573999999999998,8.4934600000000007,-6.50427
164487.0,114.497,-3.55525,-6.9639699999999998,104.74299999999999,-6.5140700000000002,15.727499999999999,-6.6084399999999999
164488.0,115.614,20.4419,14.309699999999999,124.717,-6.5833199999999996,22.647099999999998,-7.0178700000000003
164489.0,117.417,10.1991,0.84668100000000002,109.27500000000001,-6.6280200000000002,29.5901,-8.12974
164490.0,118.66500000000001,36.400599999999997,22.5777,128.18199999999999,-6.6974099999999996,35.4345,-9.9370799999999999
164491.0,119.123,25.084,5.77705,107.179,-6.0361599999999997,40.6633,-11.877599999999999
164492.0,122.639,52.381,28.532399999999999,126.149,-4.3012899999999998,47.052399999999999,-13.8239
164493.0,129.72399999999999,46.075200000000002,18.430399999999999,112.492,-2.8818899999999998,54.267099999999999,-17.860600000000002
164494.0,137.667,74.953999999999994,40.755699999999997,131.434,-3.2955000000000001,61.0563,-21.946999999999999
164495.0,135.91,70.864699999999999,31.894200000000001,110.488,-9.3366900000000008,63.417000000000002,-22.450299999999999
164496.0,131.57300000000001,57.9024,15.255800000000001,74.980199999999996,-20.4862,62.847099999999998,-21.326699999999999
164497.0,125.809,-25.177700000000002,-68.957800000000006,-11.9207,-26.9056,58.119799999999998,-16.828900000000001
164498.0,113.877,-22.733799999999999,-67.422399999999996,-11.835100000000001,-30.2194,49.496899999999997,-9.5852199999999996
164499.0,111.72199999999999,-39.774799999999999,-90.520799999999994,-42.847099999999998,-31.5871,47.8459,-8.0035299999999996
164500.0,114.261,-4.4790400000000004,-56.950200000000002,-12.263199999999999,-26.6037,52.5396,-9.0488099999999996
164501.0,111.536,49.294600000000003,-7.27013,28.132200000000001,-25.253900000000002,50.877299999999998,-10.184799999999999
164502.0,111.61,109.59399999999999,42.681100000000001,66.387200000000007,-28.128399999999999,45.495899999999999,-11.8385
164503.0,107.86799999999999,93.741900000000001,21.997699999999998,39.877699999999997,-28.319500000000001,39.867800000000003,-9.6093700000000002
164504.0,100.48399999999999,109.509,37.515099999999997,53.818100000000001,-28.110299999999999,33.536999999999999,-5.0720999999999998
164505.0,96.412899999999993,89.195499999999996,14.8826,31.198399999999999,-27.501799999999999,28.5626,-0.96431900000000004
164506.0,108.38500000000001,2.0892200000000001,-7.9470599999999996,91.6541,-2.21278,-29.9998,-1.92313
164507.0,108.733,18.505299999999998,11.741400000000001,114.842,-2.0615000000000001,-24.557600000000001,-2.7452200000000002
164508.0,108.889,-2.3002400000000001,-6.4577200000000001,99.285700000000006,-2.0721599999999998,-18.655200000000001,-3.6773099999999999
164509.0,108.70999999999999,14.0519,11.791399999999999,119.11799999999999,-2.3390900000000001,-12.332000000000001,-4.6117699999999999
164510.0,108.05200000000001,-3.8927999999999998,-5.0517399999999997,102.58,-2.83372,-5.75345,-5.4973799999999997
164511.0,106.935,15.8256,14.882099999999999,121.57899999999999,-3.5594899999999998,1.01356,-6.04434
164512.0,105.968,-1.8551,-3.4394300000000002,101.645,-4.1387299999999998,7.6988000000000003,-6.3552499999999998
164513.0,106.07299999999999,19.449999999999999,16.238900000000001,120.09099999999999,-4.3087200000000001,14.334199999999999,-6.2566699999999997
164514.0,108.244,4.3575200000000001,-0.75045600000000001,102.667,-3.7560199999999999,20.964200000000002,-7.3708200000000001
164515.0,109.892,24.756599999999999,16.8415,118.782,-3.2384400000000002,26.939499999999999,-8.5633499999999998
164516.0,109.854,11.244999999999999,2.0495000000000001,97.005899999999997,-5.2011099999999999,33.808599999999998,-10.4817
164517.0,111.316,33.407400000000003,24.284800000000001,113.745,-6.8220499999999999,39.191400000000002,-11.1577
164518.0,112.28700000000001,28.3675,14.7339,101.736,-5.9204999999999997,42.929600000000001,-11.6234
164519.0,120.937,57.609499999999997,35.924500000000002,122.304,-4.0559599999999998,50.738300000000002,-16.276199999999999
164520.0,127.816,60.4636,32.211100000000002,116.5,-3.5738799999999999,56.942900000000002,-18.706399999999999
164521.0,126.61799999999999,70.953999999999994,37.402299999999997,103.614,-10.488899999999999,60.747199999999999,-21.160599999999999
164522.0,126.108,-9.1726700000000001,-48.0321,7.2785599999999997,-17.188800000000001,61.074300000000001,-21.654299999999999
164523.0,116.032,-26.745799999999999,-71.410899999999998,-13.8696,-20.691600000000001,53.331600000000002,-17.4207
164524.0,104.92,-36.465699999999998,-84.774799999999999,-30.436199999999999,-25.268899999999999,44.676900000000003,-12.1531
164525.0,102.084,-20.9846,-71.563500000000005,-24.547999999999998,-29.047899999999998,41.618200000000002,-10.0494
164526.0,105.443,-31.201799999999999,-84.916499999999999,-39.388399999999997,-26.6815,45.365699999999997,-9.9292800000000003
164527.0,104.387,45.142800000000001,-9.8492999999999995,29.5319,-22.949300000000001,47.056600000000003,-9.3856800000000007
164528.0,101.78400000000001,82.098299999999995,21.449200000000001,44.262500000000003,-25.602599999999999,41.7119,-10.933999999999999
164529.0,100.455,103.282,36.213099999999997,51.747700000000002,-26.304099999999998,36.665700000000001,-9.7417300000000004
164530.0,92.989900000000006,79.170500000000004,11.3544,26.967400000000001,-25.653500000000001,30.658899999999999,-4.7931900000000001
164531.0,88.938599999999994,94.463200000000001,24.729099999999999,41.259300000000003,-25.480599999999999,25.676400000000001,-0.60306099999999996
164532.0,101.508,29.404800000000002,19.977599999999999,113.209,-1.2901199999999999,-28.210999999999999,-1.7661100000000001
164533.0,101.79600000000001,7.0886199999999997,0.77928900000000001,97.253,-1.0960700000000001,-23.1004,-2.5523899999999999
164534.0,102.024,21.254000000000001,17.430299999999999,116.45699999999999,-1.0672900000000001,-17.582000000000001,-3.4622600000000001
164535.0,101.642,2.11591,0.049719899999999997,100.366,-1.3285800000000001,-11.6508,-4.4013900000000001
164536.0,101.015,16.436499999999999,15.400700000000001,116.01000000000001,-1.7701100000000001,-5.4977499999999999,-5.3231000000000002
164537.0,99.337500000000006,-1.9908600000000001,-2.8778199999999998,96.275400000000005,-2.49837,0.72129600000000005,-5.8722799999999999
164538.0,98.519099999999995,15.0402,13.7072,111.40600000000001,-2.8624299999999998,6.9660900000000003,-6.3030999999999997
164539.0,98.051900000000003,1.2360899999999999,-1.25125,94.824399999999997,-2.6631100000000001,12.7059,-6.0781099999999997
164540.0,102.07299999999999,20.093299999999999,16.465900000000001,113.44199999999999,-1.45007,19.684699999999999,-7.8360000000000003
164541.0,103.663,17.526399999999999,11.9818,108.309,-0.82469999999999999,24.140599999999999,-8.5643399999999996
164542.0,100.93300000000001,32.282600000000002,25.049199999999999,109.566,-4.0433899999999996,32.207700000000003,-12.1433
164543.0,103.157,-27.9892,-31.019600000000001,45.851100000000002,-6.2923999999999998,38.280000000000001,-12.127000000000001
164544.0,102.38500000000001,-9.0775400000000008,-8.6829999999999998,64.079499999999996,-7.6314700000000002,39.822200000000002,-8.7048100000000002
164545.0,109.952,-1.8260000000000001,-6.0930499999999999,64.447900000000004,-7.9664299999999999,47.780299999999997,-10.906499999999999
164546.0,116.735,35.347999999999999,25.664200000000001,92.808899999999994,-7.0974300000000001,54.823799999999999,-12.9999
164547.0,118.703,16.0976,-5.6449800000000003,49.153300000000002,-11.189,58.872799999999998,-18.5535
164548.0,118.48099999999999,-3.0930599999999999,-39.990299999999998,17.173300000000001,-13.0215,56.815800000000003,-21.016200000000001
164549.0,107.611,-23.211300000000001,-68.280900000000003,-12.0947,-16.5806,48.9895,-17.315999999999999
164550.0,99.586699999999993,-13.5839,-60.449300000000001,-12.4321,-22.514500000000002,43.305799999999998,-13.1524
164551.0,94.858599999999996,-38.932899999999997,-86.748199999999997,-43.287100000000002,-25.7805,39.1584,-10.116899999999999
164552.0,96.587400000000002,-14.3797,-65.073499999999996,-23.883600000000001,-24.854900000000001,40.872300000000003,-9.7603899999999992
164553.0,97.600700000000003,17.093599999999999,-34.277000000000001,3.17239,-20.959299999999999,43.889400000000002,-10.190899999999999
164554.0,93.720100000000002,95.729900000000001,39.503,61.177500000000002,-22.555199999999999,38.697600000000001,-10.8348
164555.0,92.825000000000003,90.042400000000001,27.340699999999998,41.086500000000001,-24.155100000000001,33.409199999999998,-9.2914200000000005
164556.0,85.859200000000001,98.238100000000003,34.840200000000003,49.344000000000001,-23.6417,27.877800000000001,-4.2175900000000004
164557.0,81.752099999999999,76.395300000000006,11.5733,27.040800000000001,-23.213200000000001,23.297599999999999,-0.0201736
164558.0,94.963999999999999,4.4943400000000002,-4.2351700000000001,82.861699999999999,-0.68037700000000001,-26.497299999999999,-1.7022900000000001
164559.0,95.277000000000001,18.873699999999999,13.071400000000001,103.255,-0.49693999999999999,-21.721499999999999,-2.4470999999999998
164560.0,95.515199999999993,0.37902000000000002,-3.0621700000000001,89.538399999999996,-0.443637,-16.549099999999999,-3.3112699999999999
164561.0,95.102699999999999,15.024100000000001,13.2021,106.965,-0.69215499999999996,-11.021699999999999,-4.2667599999999997
164562.0,94.354399999999998,-1.2843899999999999,-2.1559300000000001,91.741500000000002,-1.1137699999999999,-5.2584999999999997,-5.1774699999999996
164563.0,92.473500000000001,16.782499999999999,16.016200000000001,108.259,-1.8257300000000001,0.42141800000000001,-5.8360099999999999
164564.0,91.415000000000006,0.12814300000000001,-0.91998400000000002,89.661900000000003,-2.0548000000000002,6.1774699999999996,-6.2798400000000001
164565.0,91.016900000000007,21.037400000000002,19.465900000000001,108.471,-1.57294,11.174099999999999,-6.2607100000000004
164566.0,95.960700000000003,5.8783200000000004,3.94177,94.480400000000003,0.21724299999999999,18.1526,-8.0433699999999995
164567.0,98.363600000000005,28.933499999999999,26.375900000000001,116.754,0.95671499999999998,22.3491,-8.7665500000000005
164568.0,93.391099999999994,12.011900000000001,3.4659200000000001,82.112300000000005,-3.8689499999999999,29.388000000000002,-12.9078
164569.0,94.001900000000006,-23.991,-36.0946,36.2104,-7.3735299999999997,34.487000000000002,-14.210599999999999
164570.0,91.427199999999999,-73.441699999999997,-81.465900000000005,-11.145099999999999,-7.4172500000000001,34.009599999999999,-9.6399500000000007
164571.0,95.735600000000005,-48.2423,-55.267299999999999,9.8398400000000006,-6.80288,40.2986,-10.3865
164572.0,104.471,-47.651600000000002,-58.3461,3.05911,-5.6070000000000002,48.288600000000002,-14.097200000000001
164573.0,110.154,-28.008500000000002,-50.394799999999996,6.1338499999999998,-7.7527600000000003,53.191699999999997,-18.5687
164574.0,109.48099999999999,-32.744399999999999,-66.247900000000001,-9.3820700000000006,-10.2164,52.229799999999997,-18.601800000000001
164575.0,101.75700000000001,-2.16065,-42.287199999999999,6.6485599999999998,-14.887499999999999,47.662700000000001,-16.664300000000001
164576.0,94.469999999999999,-22.578499999999998,-65.905900000000003,-24.1755,-18.617100000000001,42.559399999999997,-14.609
164577.0,87.875100000000003,-16.313300000000002,-61.040999999999997,-24.577999999999999,-21.322199999999999,37.710500000000003,-11.4407
164578.0,90.175299999999993,-30.468499999999999,-77.599299999999999,-41.066800000000001,-20.399899999999999,39.346200000000003,-11.6135
164579.0,90.063500000000005,38.826300000000003,-10.3848,25.392199999999999,-17.367799999999999,39.938000000000002,-12.652699999999999
164580.0,87.877300000000005,79.177999999999997,23.860499999999998,43.195399999999999,-20.236799999999999,35.253700000000002,-11.5623
164581.0,85.987099999999998,97.087199999999996,38.7072,51.3598,-21.783100000000001,31.206499999999998,-8.5454000000000008
164582.0,78.384600000000006,70.075800000000001,10.7264,24.8322,-21.6357,24.529599999999999,-4.1058700000000004
164583.0,75.328599999999994,78.016000000000005,15.8347,33.148099999999999,-20.762699999999999,20.7271,-0.93061499999999997
164584.0,88.702699999999993,28.735800000000001,20.498699999999999,101.81699999999999,-0.38452799999999998,-24.8216,-1.70912
164585.0,89.113500000000002,8.8949300000000004,3.4647000000000001,87.766900000000007,-0.191413,-20.375,-2.3891900000000001
164586.0,89.3489,21.529499999999999,18.323399999999999,104.883,-0.14430000000000001,-15.562099999999999,-3.2301099999999998
164587.0,88.985100000000003,4.35839,2.6589399999999999,90.339699999999993,-0.37567299999999998,-10.3954,-4.1604799999999997
164588.0,88.117999999999995,17.4664,16.606999999999999,104.25700000000001,-0.80666000000000004,-5.0605000000000002,-5.1019600000000001
164589.0,86.211699999999993,0.77884299999999995,-0.0247274,85.951300000000003,-1.5016499999999999,0.18171000000000001,-5.8354999999999997
164590.0,84.830200000000005,16.435500000000001,15.551600000000001,99.533699999999996,-1.70519,5.3168100000000003,-6.4052800000000003
164591.0,84.697500000000005,3.2178,2.39649,84.968500000000006,-1.06274,9.8369700000000009,-6.5570000000000004
164592.0,89.906999999999996,21.389600000000002,21.3949,105.46599999999999,1.0522899999999999,16.385300000000001,-8.2905200000000008
164593.0,93.147900000000007,18.950399999999998,18.460000000000001,103.06999999999999,1.9520200000000001,20.8002,-9.1204900000000002
164594.0,87.263999999999996,35.836500000000001,28.696400000000001,101.777,-4.1905900000000003,27.302299999999999,-12.3299
164595.0,86.694000000000003,-38.2834,-53.477800000000002,13.8323,-10.553100000000001,30.9925,-13.6793
164596.0,83.8874,-62.812800000000003,-81.7684,-10.1678,-11.4056,27.3583,-9.5334800000000008
164597.0,85.241500000000002,-67.236000000000004,-88.589100000000002,-18.836400000000001,-10.0441,30.565799999999999,-10.4674
164598.0,94.402299999999997,-40.6477,-64.112799999999993,2.9966599999999999,-7.9200200000000001,39.080800000000004,-14.856199999999999
164599.0,101.41200000000001,-37.021000000000001,-64.200100000000006,-3.3976299999999999,-7.6999899999999997,46.220500000000001,-17.459099999999999
164600.0,101.3,-8.5203399999999991,-37.396700000000003,13.7141,-9.0703800000000001,48.781100000000002,-17.376200000000001
164601.0,97.063199999999995,-20.558299999999999,-53.379600000000003,-12.482200000000001,-12.839399999999999,47.333100000000002,-16.308700000000002
164602.0,88.645600000000002,-11.4846,-49.709600000000002,-13.1652,-16.1465,41.402700000000003,-13.3368
164603.0,83.735100000000003,-33.933399999999999,-78.0154,-44.7121,-18.366800000000001,36.386400000000002,-12.1571
164604.0,86.307500000000005,-3.6764000000000001,-50.575099999999999,-12.355700000000001,-15.5595,37.801900000000003,-13.759499999999999
164605.0,83.423400000000001,52.228299999999997,4.22194,36.8095,-15.078799999999999,36.340299999999999,-13.081200000000001
164606.0,83.706000000000003,101.161,47.508899999999997,62.243699999999997,-19.125299999999999,32.813600000000001,-11.165800000000001
164607.0,79.569100000000006,79.440399999999997,24.871600000000001,37.000900000000001,-19.442,29.142900000000001,-7.8813399999999998
164608.0,71.554400000000001,91.110399999999998,34.894300000000001,50.556399999999996,-19.516400000000001,21.753499999999999,-3.2985099999999998
164609.0,69.846500000000006,71.185000000000002,11.5701,31.446400000000001,-19.140499999999999,18.394400000000001,-0.325766
164610.0,82.727099999999993,6.6392800000000003,-1.1545099999999999,74.685000000000002,-0.32048399999999999,-23.1875,-1.75054
164611.0,83.254800000000003,19.813700000000001,14.664899999999999,93.421099999999996,-0.13902999999999999,-19.067,-2.38686
164612.0,83.531999999999996,2.7768099999999998,-0.297653,80.613600000000005,-0.094242900000000004,-14.6043,-3.18235
164613.0,83.188800000000001,16.411100000000001,14.7181,96.685299999999998,-0.328704,-9.7844599999999993,-4.0878199999999998
164614.0,82.372100000000003,1.1774100000000001,0.216115,82.154300000000006,-0.750946,-4.8559599999999996,-5.0565899999999999
164615.0,80.369200000000006,17.884599999999999,16.8796,97.064700000000002,-1.4688000000000001,-0.049958200000000001,-5.8496699999999997
164616.0,79.018600000000006,2.19753,1.25339,79.440100000000001,-1.7012499999999999,4.5605000000000002,-6.6489200000000004
164617.0,78.640500000000003,21.667999999999999,21.159700000000001,97.721599999999995,-1.10554,8.4962800000000005,-6.8564100000000003
164618.0,84.354299999999995,7.0327900000000003,8.3699899999999996,86.592299999999994,1.00292,14.7919,-8.7771299999999997
164619.0,87.551599999999993,29.801100000000002,31.215399999999999,110.11,2.03803,18.859200000000001,-9.0904399999999992
164620.0,81.661000000000001,13.4658,6.7472200000000004,74.395099999999999,-4.23522,26.024799999999999,-11.7752
164621.0,81.541499999999999,-25.4054,-40.183100000000003,22.8001,-11.1578,29.017700000000001,-12.8443
164622.0,77.764399999999995,-76.218599999999995,-93.037099999999995,-26.3156,-13.3284,23.5444,-8.9233799999999999
164623.0,78.921899999999994,-52.993499999999997,-71.474699999999999,-6.8185099999999998,-13.427,26.392600000000002,-9.5053900000000002
164624.0,87.529499999999999,-54.177799999999998,-73.565799999999996,-11.0359,-11.1906,35.116,-13.0738
164625.0,93.267499999999998,-32.7714,-54.720799999999997,0.89497800000000005,-9.29894,42.161099999999998,-15.8385
164626.0,94.612799999999993,-39.446899999999999,-65.770600000000002,-18.824000000000002,-9.0668100000000003,45.343899999999998,-17.084700000000002
164627.0,91.218400000000003,-19.093399999999999,-51.972900000000003,-11.8651,-11.1426,44.1218,-15.6755
164628.0,83.3018,-26.352900000000002,-63.728200000000001,-29.552099999999999,-14.614599999999999,38.9758,-12.295
164629.0,81.068899999999999,-12.463900000000001,-54.069000000000003,-21.498699999999999,-16.183900000000001,36.340000000000003,-11.3712
164630.0,81.879599999999996,9.1076499999999996,-33.255800000000001,3.1662599999999999,-13.1258,37.331000000000003,-11.9491
164631.0,78.470699999999994,84.994399999999999,40.8431,64.703100000000006,-14.337899999999999,34.985900000000001,-11.6004
164632.0,79.538399999999996,84.052099999999996,33.945399999999999,44.225200000000001,-17.392600000000002,31.565899999999999,-10.4619
164633.0,73.218800000000002,86.066999999999993,34.238799999999998,46.496899999999997,-17.392299999999999,26.539999999999999,-6.8141999999999996
164634.0,65.592299999999994,66.588399999999993,13.5082,30.062100000000001,-17.252700000000001,19.868300000000001,-2.0232299999999999
164635.0,64.0745,77.502600000000001,22.014299999999999,41.310099999999998,-17.415400000000002,16.472100000000001,0.59575599999999995
164636.0,77.0779,28.716100000000001,21.027200000000001,91.880499999999998,-0.44842300000000002,-21.5718,-1.8116300000000001
164637.0,77.651600000000002,10.914,5.7116499999999997,79.339600000000004,-0.28562399999999999,-17.766300000000001,-2.4153799999999999
164638.0,78.046999999999997,22.283100000000001,19.031400000000001,94.779600000000002,-0.24981900000000001,-13.651899999999999,-3.1596899999999999
164639.0,77.699299999999994,6.9610799999999999,4.9392300000000002,81.656899999999993,-0.49511500000000003,-9.1809200000000004,-4.0412100000000004
164640.0,77.045299999999997,18.720700000000001,17.333200000000001,94.135900000000007,-0.91115900000000005,-4.6213800000000003,-5.0134699999999999
164641.0,74.997900000000001,4.2394499999999997,2.6573899999999999,77.679599999999994,-1.67086,-0.26588699999999998,-5.8864200000000002
164642.0,73.854900000000001,17.485299999999999,16.0105,89.219399999999993,-2.0047000000000001,3.9478900000000001,-6.87967
164643.0,73.029799999999994,6.1576599999999999,5.3711500000000001,76.557400000000001,-1.6510800000000001,7.1910600000000002,-7.2554299999999996
164644.0,78.938000000000002,20.156199999999998,21.7483,94.714100000000002,0.14671899999999999,13.411,-9.1080400000000008
164645.0,81.943299999999994,20.8584,23.058900000000001,96.982699999999994,1.3196300000000001,16.618400000000001,-9.1053800000000003
164646.0,76.269999999999996,34.158099999999997,28.196899999999999,90.3459,-4.3314700000000004,24.739899999999999,-11.505100000000001
164647.0,77.867599999999996,-49.762599999999999,-64.159999999999997,-4.1259699999999997,-10.1844,27.979299999999999,-12.3375
164648.0,73.623000000000005,-63.835599999999999,-82.439099999999996,-16.934899999999999,-12.234,20.682200000000002,-9.4828899999999994
164649.0,74.484300000000005,-62.336300000000001,-82.577799999999996,-20.468299999999999,-13.1869,23.228100000000001,-11.5106
164650.0,81.657399999999996,-43.396999999999998,-61.1203,-2.4146200000000002,-11.235799999999999,31.361499999999999,-14.359400000000001
164651.0,85.952399999999997,-38.000700000000002,-57.721499999999999,-5.7904900000000001,-10.413500000000001,37.805100000000003,-15.4186
164652.0,88.111099999999993,-15.5426,-40.253,5.1738,-10.8613,41.484099999999998,-15.2227
164653.0,84.408199999999994,-24.496600000000001,-56.184800000000003,-16.445399999999999,-12.152699999999999,40.440199999999997,-12.266
164654.0,79.778599999999997,-21.176100000000002,-59.173000000000002,-25.349,-14.973000000000001,36.837899999999998,-10.3012
164655.0,78.528899999999993,-33.051499999999997,-72.416799999999995,-39.479100000000003,-13.9445,36.0687,-10.6875
164656.0,77.135599999999997,31.735700000000001,-5.1596900000000003,25.9282,-10.9049,36.683900000000001,-11.184900000000001
164657.0,75.052300000000002,74.997399999999999,33.941299999999998,50.7012,-13.245200000000001,33.958599999999997,-11.084099999999999
164658.0,74.759600000000006,95.912700000000001,48.201300000000003,57.5396,-15.4994,29.981400000000001,-9.1943900000000003
164659.0,66.993600000000001,73.094300000000004,23.299900000000001,36.872500000000002,-15.6356,23.723400000000002,-5.1143099999999997
164660.0,60.601900000000001,83.474500000000006,32.177199999999999,50.8249,-15.4229,17.613399999999999,-1.38191
164661.0,59.411999999999999,65.870099999999994,12.5405,33.928100000000001,-15.813499999999999,14.360300000000001,0.12778400000000001
164662.0,71.662999999999997,9.3136500000000009,1.5470900000000001,67.724599999999995,-0.75265000000000004,-19.975300000000001,-1.9175500000000001
164663.0,72.3733,21.110700000000001,15.666499999999999,84.572100000000006,-0.60218700000000003,-16.4953,-2.45208
164664.0,72.811999999999998,5.6954799999999999,2.0326300000000002,72.973299999999995,-0.59350800000000004,-12.706799999999999,-3.16174
164665.0,72.5702,18.172899999999998,15.607900000000001,87.532600000000002,-0.83009200000000005,-8.5808,-4.0092400000000001
164666.0,72.009900000000002,4.1073599999999999,2.0282100000000001,74.107699999999994,-1.26522,-4.3742299999999998,-4.9436299999999997
164667.0,70.190399999999997,19.474,17.068899999999999,87.581800000000001,-2.02901,-0.41032600000000002,-5.93208
164668.0,69.098799999999997,4.6797000000000004,2.1828099999999999,71.030500000000004,-2.52738,3.3973,-6.9885400000000004
164669.0,68.249799999999993,22.760400000000001,20.943999999999999,87.741,-2.5188700000000002,6.17049,-7.7668200000000001
164670.0,73.174400000000006,7.8103999999999996,8.3220700000000001,76.465999999999994,-1.16764,11.8094,-9.1885200000000005
164671.0,76.4773,29.255299999999998,31.1798,100.37,-0.211089,14.9781,-9.1562099999999997
164672.0,72.414400000000001,13.552899999999999,7.2950200000000001,67.308899999999994,-3.1939000000000002,22.438099999999999,-12.077199999999999
164673.0,74.161000000000001,-31.0443,-44.870899999999999,12.300000000000001,-6.1153899999999997,26.741099999999999,-13.8226
164674.0,70.573899999999995,-77.718400000000003,-90.649600000000007,-31.380600000000001,-9.32287,21.988399999999999,-10.891299999999999
164675.0,71.696299999999994,-55.811500000000002,-70.463800000000006,-13.814500000000001,-12.972799999999999,23.1675,-11.992900000000001
164676.0,77.3947,-58.540999999999997,-75.413799999999995,-19.916499999999999,-13.090299999999999,28.3993,-14.468999999999999
164677.0,79.449600000000004,-40.642000000000003,-61.023899999999998,-10.2803,-12.916499999999999,33.153199999999998,-13.6411
164678.0,81.811400000000006,-49.3705,-74.132000000000005,-29.6858,-12.9939,37.347299999999997,-13.090400000000001
164679.0,78.828999999999994,-26.532599999999999,-56.365600000000001,-16.0366,-11.444800000000001,37.108699999999999,-11.204000000000001
164680.0,75.721800000000002,-31.191600000000001,-68.206599999999995,-36.608800000000002,-12.753,35.107599999999998,-10.7906
164681.0,76.8917,-9.1161899999999996,-46.435400000000001,-15.6922,-11.2506,36.217700000000001,-11.645799999999999
164682.0,73.339200000000005,30.898,-3.7903799999999999,25.208600000000001,-9.1513799999999996,35.039000000000001,-11.6318
164683.0,71.140000000000001,90.786900000000003,50.426400000000001,63.911799999999999,-12.377700000000001,31.6584,-10.4556
164684.0,69.569500000000005,76.496300000000005,30.689900000000002,40.899500000000003,-13.529999999999999,28.23,-7.4190699999999996
164685.0,61.097799999999999,79.803399999999996,31.635999999999999,47.234499999999997,-14.016299999999999,20.800699999999999,-3.34104
164686.0,56.656799999999997,59.146700000000003,9.4335799999999992,30.253699999999998,-14.191599999999999,15.660299999999999,-0.26562999999999998
164687.0,56.028100000000002,71.709299999999999,20.372499999999999,44.3917,-14.7407,12.982799999999999,0.87642699999999996
164688.0,66.431100000000001,29.842300000000002,21.536200000000001,83.458200000000005,-1.1397600000000001,-18.332599999999999,-1.99553
164689.0,67.466700000000003,13.0778,6.9657799999999996,71.707300000000004,-0.98111099999999996,-15.243600000000001,-2.49234
164690.0,67.783699999999996,24.132000000000001,19.595300000000002,86.147599999999997,-1.0242199999999999,-11.7418,-3.16317
164691.0,67.819800000000001,9.6274800000000003,6.0937700000000001,73.799300000000002,-1.2375,-7.9632100000000001,-3.9757199999999999
164692.0,67.212500000000006,21.297999999999998,18.039000000000001,85.844200000000001,-1.71315,-4.11646,-4.8540999999999999
164693.0,65.931399999999996,7.3828699999999996,3.69157,70.441800000000001,-2.4595600000000002,-0.448658,-5.9265999999999996
164694.0,64.698800000000006,20.6663,16.548500000000001,81.628399999999999,-3.1559900000000001,2.8637700000000001,-7.0018399999999996
164695.0,64.346400000000003,7.8649800000000001,4.1918600000000001,67.670000000000002,-3.5230600000000001,5.5381499999999999,-8.1937999999999995
164696.0,67.442300000000003,22.416699999999999,20.767600000000002,84.650599999999997,-2.7509399999999999,9.8866300000000003,-9.2035199999999993
164697.0,70.926400000000001,17.833500000000001,18.1708,82.491299999999995,-1.9357200000000001,13.916499999999999,-9.6499400000000009
164698.0,70.4392,38.110300000000002,32.098500000000001,92.866200000000006,-2.6221000000000001,19.563099999999999,-11.9634
164699.0,72.496700000000004,-7.2769000000000004,-23.970300000000002,35.265799999999999,-1.6517500000000001,23.629999999999999,-16.0596
164700.0,72.448300000000003,-34.360599999999998,-53.952399999999997,5.8694600000000001,-0.57126600000000005,22.710899999999999,-17.415900000000001
164701.0,70.403000000000006,-53.053199999999997,-71.942400000000006,-17.569400000000002,-5.7297500000000001,24.213999999999999,-16.4617
164702.0,74.934700000000007,-45.358199999999997,-63.873800000000003,-11.735099999999999,-12.442500000000001,27.913599999999999,-15.4635
164703.0,73.749499999999998,-44.240299999999998,-66.989599999999996,-15.224,-14.525,27.9163,-12.227499999999999
164704.0,76.855999999999995,-27.156300000000002,-56.929299999999998,-11.1081,-15.080399999999999,32.4925,-12.0489
164705.0,76.849000000000004,-25.324000000000002,-56.039700000000003,-8.0280699999999996,-10.116400000000001,33.3855,-12.663600000000001
164706.0,71.367199999999997,10.3088,-29.8657,4.0124599999999999,-9.3754500000000007,30.752500000000001,-14.044600000000001
164707.0,77.136600000000001,-9.4435800000000008,-49.366999999999997,-21.347000000000001,-9.1484900000000007,35.725000000000001,-14.257
164708.0,69.783600000000007,53.327599999999997,21.377400000000002,48.716200000000001,-8.2978299999999994,33.709299999999999,-10.9468
164709.0,65.795199999999994,80.757199999999997,39.890000000000001,52.710900000000002,-12.1311,28.176200000000001,-8.0680800000000001
164710.0,64.781099999999995,84.294300000000007,38.079999999999998,53.520200000000003,-12.3284,25.798200000000001,-5.2721099999999996
164711.0,55.976199999999999,67.676299999999998,20.206,39.978400000000001,-12.9025,17.489699999999999,-1.86816
164712.0,53.481200000000001,72.339200000000005,23.245200000000001,46.735399999999998,-12.941599999999999,13.527699999999999,0.037427500000000002
164713.0,52.876600000000003,58.175699999999999,8.7794699999999999,34.612099999999998,-13.6172,11.629799999999999,0.93307499999999999
164714.0,61.609200000000001,12.759399999999999,3.7338800000000001,61.838099999999997,-1.6149899999999999,-16.7561,-2.03546
164715.0,62.7819,22.963699999999999,15.955399999999999,76.827699999999993,-1.45305,-13.9977,-2.5491000000000001
164716.0,63.106000000000002,9.3493700000000004,3.7046899999999998,66.292699999999996,-1.5323,-10.7941,-3.1602000000000001
164717.0,63.301499999999997,20.416499999999999,15.651400000000001,79.460700000000003,-1.7383,-7.3380000000000001,-3.92435
164718.0,62.792299999999997,7.9943799999999996,3.30518,67.289500000000004,-2.2267299999999999,-3.83969,-4.7549799999999998
164719.0,61.955100000000002,21.178799999999999,15.9251,79.299599999999998,-2.9344999999999999,-0.44038500000000003,-5.8036300000000001
164720.0,60.8887,8.9405400000000004,2.8816600000000001,64.851299999999995,-3.7577600000000002,2.4498500000000001,-6.9662499999999996
164721.0,60.897500000000001,23.452200000000001,17.296399999999998,78.137500000000003,-4.3732800000000003,5.0560799999999997,-8.3552900000000001
164722.0,62.692900000000002,12.137600000000001,7.5131199999999998,68.058700000000002,-4.2489699999999999,8.21251,-9.4293800000000001
164723.0,65.915599999999998,25.577300000000001,23.179300000000001,83.556700000000006,-3.5928800000000001,12.5242,-10.475
164724.0,68.312399999999997,16.5167,13.188000000000001,72.365499999999997,-3.22905,17.4741,-11.593
164725.0,71.049199999999999,41.265799999999999,31.2865,90.438500000000005,-3.0408400000000002,21.3156,-14.707599999999999
164726.0,73.596699999999998,32.422800000000002,14.050000000000001,75.195300000000003,-2.4414400000000001,22.126100000000001,-18.046199999999999
164727.0,72.115200000000002,20.268699999999999,-3.3882699999999999,49.692300000000003,-5.0602400000000003,25.096499999999999,-19.259699999999999
164728.0,74.472200000000001,-49.272300000000001,-70.690799999999996,-22.5579,-9.6023800000000001,29.372199999999999,-17.670400000000001
164729.0,68.309399999999997,-51.298900000000003,-72.033799999999999,-23.921199999999999,-12.8331,25.704499999999999,-12.149100000000001
164730.0,72.4542,-61.751199999999997,-91.089399999999998,-48.609400000000001,-15.363099999999999,30.285299999999999,-11.1198
164731.0,76.794700000000006,-17.6617,-44.447200000000002,7.5540500000000002,-10.603,32.272100000000002,-11.647500000000001
164732.0,67.088200000000001,50.040100000000002,14.5746,48.497199999999999,-11.164099999999999,28.623899999999999,-12.429500000000001
164733.0,75.114199999999997,43.037199999999999,4.8658000000000001,27.102699999999999,-10.2796,34.876300000000001,-13.824400000000001
164734.0,65.186099999999996,49.443600000000004,18.0181,43.603000000000002,-7.5975299999999999,31.537700000000001,-9.2021300000000004
164735.0,60.783200000000001,90.235200000000006,48.306100000000001,62.965600000000002,-12.198399999999999,24.738099999999999,-4.2423400000000004
164736.0,59.916499999999999,58.392800000000001,14.069100000000001,34.179600000000001,-11.894299999999999,23.5868,-2.5104899999999999
164737.0,51.727800000000002,72.714100000000002,26.1374,49.6492,-11.612399999999999,14.652900000000001,-0.072551099999999993
164738.0,51.565100000000001,50.0319,1.2703899999999999,27.488,-12.2897,11.816000000000001,0.34614800000000001
164739.0,50.030299999999997,60.851500000000001,13.2217,41.384300000000003,-12.576499999999999,10.135,0.077141899999999999
164740.0,57.206499999999998,31.166399999999999,21.049199999999999,75.867099999999994,-1.94896,-15.232100000000001,-2.0310700000000002
164741.0,58.315800000000003,16.421800000000001,8.1287400000000005,65.503,-1.82873,-12.7339,-2.5476800000000002
164742.0,58.778500000000001,26.429099999999998,19.322800000000001,78.425799999999995,-1.9146300000000001,-9.8459400000000006,-3.1320199999999998
164743.0,59.000500000000002,13.3491,6.9574400000000001,67.230999999999995,-2.1360100000000002,-6.6996200000000004,-3.8385899999999999
164744.0,58.726300000000002,24.347999999999999,17.860900000000001,78.513499999999993,-2.6133700000000002,-3.5141100000000001,-4.6147499999999999
164745.0,58.210900000000002,11.6995,4.4907599999999999,64.858800000000002,-3.2979400000000001,-0.42294100000000001,-5.6052600000000004
164746.0,57.607300000000002,24.327200000000001,16.003499999999999,75.486199999999997,-4.1686800000000002,2.2045300000000001,-6.8198299999999996
164747.0,57.841200000000001,11.617100000000001,2.7320600000000002,61.410800000000002,-4.9733599999999996,4.57707,-8.3222299999999994
164748.0,59.208599999999997,25.3583,17.366099999999999,75.536199999999994,-5.3680599999999998,7.0695300000000003,-9.7732700000000001
164749.0,62.104999999999997,17.9238,12.140599999999999,70.031499999999994,-5.1029,10.8192,-11.2212
164750.0,65.457300000000004,37.666600000000003,34.999000000000002,91.521900000000002,-4.2850900000000003,15.5579,-12.2781
164751.0,69.751900000000006,26.169799999999999,27.1373,80.555999999999997,-4.3937200000000001,21.287600000000001,-13.4381
164752.0,72.257300000000001,48.173900000000003,48.956400000000002,100.09,-5.9330499999999997,24.57,-14.710900000000001
164753.0,71.719200000000001,40.430700000000002,29.3217,75.633300000000006,-7.74695,27.329000000000001,-17.974699999999999
164754.0,74.333500000000001,9.6264699999999994,-13.3119,33.487200000000001,-6.1796199999999999,29.118200000000002,-20.202999999999999
164755.0,67.337900000000005,-20.5623,-47.278500000000001,-0.97341,-6.0529599999999997,25.047899999999998,-17.5258
164756.0,69.864199999999997,-20.831199999999999,-51.120899999999999,-11.3249,-9.1551399999999994,29.360900000000001,-15.786
164757.0,73.185900000000004,-15.7376,-37.218699999999998,6.8230300000000002,-8.3642199999999995,32.674900000000001,-12.757999999999999
164758.0,65.754599999999996,55.207900000000002,28.724399999999999,57.452800000000003,-11.962400000000001,30.614100000000001,-10.2768
164759.0,68.066199999999995,48.944699999999997,13.167199999999999,37.1173,-11.3306,30.7669,-11.7088
164760.0,59.134099999999997,72.986900000000006,34.166200000000003,62.600900000000003,-9.7700399999999998,25.201899999999998,-5.5783199999999997
164761.0,58.761299999999999,54.453600000000002,8.9527800000000006,32.612400000000001,-13.0473,21.501999999999999,-0.73437699999999995
164762.0,54.7973,59.2605,14.7224,44.483699999999999,-10.919700000000001,19.049600000000002,-2.0413399999999999
164763.0,49.605200000000004,60.386899999999997,12.5845,40.200699999999998,-10.546099999999999,11.537699999999999,-0.13253599999999999
164764.0,49.3765,60.240900000000003,12.946400000000001,40.883200000000002,-11.383800000000001,10.8331,-0.63648300000000002
164765.0,47.491599999999998,55.7898,9.5691500000000005,39.932600000000001,-11.351900000000001,8.39649,-0.90958399999999995
164766.0,53.075000000000003,16.423999999999999,5.1628600000000002,56.915599999999998,-2.29738,-13.742599999999999,-2.0143800000000001
164767.0,54.203400000000002,26.017199999999999,16.318899999999999,70.516199999999998,-2.2167500000000002,-11.523400000000001,-2.52393
164768.0,54.708100000000002,13.4452,4.7712500000000002,60.624699999999997,-2.29664,-8.9087899999999998,-3.0917699999999999
164769.0,55.0077,23.804400000000001,15.651199999999999,72.684399999999997,-2.53159,-6.0736100000000004,-3.7281200000000001
164770.0,54.904600000000002,12.207100000000001,3.84856,61.378799999999998,-2.96224,-3.1805099999999999,-4.4393000000000002
164771.0,54.741599999999998,24.283899999999999,15.1053,72.697999999999993,-3.5644499999999999,-0.39117400000000002,-5.3394599999999999
164772.0,54.607700000000001,13.1614,2.73522,59.932699999999997,-4.3260199999999998,2.0359699999999998,-6.5706499999999997
164773.0,55.184199999999997,26.8095,15.478400000000001,72.298500000000004,-5.1120799999999997,4.1960600000000001,-8.1853300000000004
164774.0,56.640900000000002,16.395099999999999,5.26858,61.738999999999997,-5.7851400000000002,6.3333300000000001,-10.0509
164775.0,59.330500000000001,27.248799999999999,18.286999999999999,74.331299999999999,-6.1168899999999997,9.4352099999999997,-11.856999999999999
164776.0,62.5092,16.2959,10.9986,65.754400000000004,-5.8090000000000002,13.499599999999999,-13.2067
164777.0,66.973799999999997,38.6601,37.308500000000002,89.436499999999995,-4.8093500000000002,19.318999999999999,-14.693899999999999
164778.0,70.329300000000003,34.228000000000002,35.934699999999999,83.841399999999993,-4.6463400000000004,24.086200000000002,-15.9297
164779.0,71.024799999999999,48.6693,44.178800000000003,88.287800000000004,-6.9372400000000001,27.596299999999999,-16.810500000000001
164780.0,70.936700000000002,40.232799999999997,21.886299999999999,69.061899999999994,-7.8576800000000002,27.2637,-17.514199999999999
164781.0,68.535300000000007,42.760199999999998,12.414400000000001,60.054499999999997,-7.7665800000000003,24.5275,-17.9497
164782.0,71.1995,7.6091300000000004,-25.7178,17.1004,-7.3414599999999997,27.911899999999999,-18.738399999999999
164783.0,69.519900000000007,22.689299999999999,-3.2955100000000002,36.003300000000003,-6.4571899999999998,29.743400000000001,-16.886700000000001
164784.0,64.154300000000006,43.499099999999999,12.862,42.216700000000003,-11.2613,29.0579,-10.021000000000001
164785.0,61.737900000000003,69.388499999999993,33.023600000000002,63.818600000000004,-15.6676,25.156600000000001,-2.9266000000000001
164786.0,57.601100000000002,41.710099999999997,-0.031653500000000001,33.444600000000001,-16.013500000000001,18.9255,1.67309
164787.0,56.429600000000001,27.552499999999998,-17.565100000000001,15.110200000000001,-13.486000000000001,18.272400000000001,1.63358
164788.0,51.529400000000003,38.352400000000003,-4.6652500000000003,30.365200000000002,-10.509,15.8316,0.66282399999999997
164789.0,48.461300000000001,63.032600000000002,15.926399999999999,46.610700000000001,-10.3012,10.243499999999999,-0.29847699999999999
164790.0,47.3399,47.995199999999997,1.54122,31.869299999999999,-10.161099999999999,9.0920699999999997,-2.1923900000000001
164791.0,45.659100000000002,65.234800000000007,20.061199999999999,51.272599999999997,-10.6126,6.7742800000000001,-1.20103
164792.0,49.305700000000002,33.450699999999998,20.956199999999999,69.969300000000004,-2.4514100000000001,-12.3331,-1.88958
164793.0,50.308,20.333600000000001,9.1373700000000007,60.359499999999997,-2.38917,-10.3302,-2.4535300000000002
164794.0,50.936100000000003,29.637899999999998,19.325399999999998,72.207300000000004,-2.4686499999999998,-7.9993299999999996,-2.9858199999999999
164795.0,51.208300000000001,17.688600000000001,7.70113,61.665100000000002,-2.7030699999999999,-5.4416000000000002,-3.5890200000000001
164796.0,51.3367,28.207999999999998,17.9177,72.559700000000007,-3.0903100000000001,-2.8405499999999999,-4.2128399999999999
164797.0,51.450499999999998,16.817699999999999,5.6566299999999998,60.610599999999998,-3.6169500000000001,-0.34171899999999999,-5.0461600000000004
164798.0,51.860799999999998,28.6739,16.330500000000001,71.423000000000002,-4.2411799999999999,1.89049,-6.2542099999999996
164799.0,52.819800000000001,16.9467,3.6804800000000002,58.760899999999999,-4.9507899999999996,3.88252,-8.0009700000000006
164800.0,54.565199999999997,29.479299999999999,16.227,71.157399999999996,-5.7257100000000003,5.8919899999999998,-10.162699999999999
164801.0,57.1248,22.279,10.069900000000001,64.786199999999994,-6.3965699999999996,8.3736800000000002,-12.3187
164802.0,60.206800000000001,39.619300000000003,30.547000000000001,83.959699999999998,-7.0532300000000001,11.804500000000001,-14.2234
164803.0,63.494,24.628900000000002,18.835799999999999,70.372200000000007,-7.6909299999999998,16.203600000000002,-15.0039
164804.0,66.805000000000007,41.750100000000003,35.344999999999999,85.418499999999995,-8.3297500000000007,20.672599999999999,-15.758900000000001
164805.0,68.033799999999999,41.104999999999997,31.400600000000001,78.639200000000002,-9.12378,24.375599999999999,-15.589700000000001
164806.0,67.211799999999997,55.2378,43.794800000000002,86.6922,-11.324999999999999,26.439800000000002,-13.604200000000001
164807.0,66.458100000000002,55.8309,39.895400000000002,80.2333,-13.0802,26.8932,-12.850199999999999
164808.0,68.388400000000004,70.684899999999999,47.447000000000003,86.595600000000005,-12.0939,28.581600000000002,-14.428900000000001
164809.0,66.590999999999994,64.735200000000006,37.615900000000003,76.068899999999999,-11.1098,27.547699999999999,-14.3315
164810.0,59.043799999999997,58.171700000000001,20.5291,51.480800000000002,-13.1302,23.203299999999999,-6.9260099999999998
164811.0,59.178600000000003,-9.7914899999999996,-51.548999999999999,-21.579599999999999,-17.076899999999998,20.219999999999999,1.85171
164812.0,55.725200000000001,-15.443099999999999,-54.417200000000001,-13.5762,-15.6165,15.972799999999999,2.0864799999999999
164813.0,50.532600000000002,1.0743,-42.947699999999998,-2.6767500000000002,-10.0739,12.2552,-1.97038
164814.0,49.092199999999998,35.4086,-10.081799999999999,25.185700000000001,-7.7944300000000002,12.837899999999999,-2.8578700000000001
164815.0,46.581699999999998,52.244500000000002,7.4187799999999999,40.078600000000002,-8.9114000000000004,10.0398,-2.39554
164816.0,45.040300000000002,70.574700000000007,25.725300000000001,56.629199999999997,-9.8472100000000005,6.9150400000000003,-2.1427700000000001
164817.0,43.886600000000001,55.820700000000002,12.184699999999999,43.3108,-10.029400000000001,5.7572000000000001,-1.8360700000000001
164818.0,45.939700000000002,20.527899999999999,6.2252599999999996,52.981200000000001,-2.6599499999999998,-10.915100000000001,-1.8127
164819.0,46.828299999999999,30.195699999999999,16.954899999999999,65.702699999999993,-2.6271800000000001,-9.1155000000000008,-2.3593500000000001
164820.0,47.531100000000002,18.093699999999998,5.5658000000000003,55.917700000000004,-2.7062599999999999,-7.0796599999999996,-2.9099300000000001
164821.0,47.800800000000002,28.219799999999999,15.846500000000001,67.193299999999994,-2.92997,-4.8046199999999999,-3.4472499999999999
164822.0,48.073999999999998,16.962499999999999,4.3055899999999996,56.376399999999997,-3.2276199999999999,-2.52169,-4.0113099999999999
164823.0,48.457099999999997,28.3186,14.958600000000001,67.547899999999998,-3.5748199999999999,-0.31805299999999997,-4.75807
164824.0,49.287999999999997,17.757300000000001,3.68987,56.738999999999997,-3.9460700000000002,1.73176,-5.99322
164825.0,50.613599999999998,31.366,16.835999999999999,70.126800000000003,-4.47119,3.6891099999999999,-7.8362100000000003
164826.0,52.6218,21.720500000000001,7.1252599999999999,60.464799999999997,-5.1557000000000004,5.6410900000000002,-10.2342
164827.0,54.917099999999998,32.694000000000003,18.470400000000001,71.271600000000007,-6.6378199999999996,7.8911100000000003,-12.351100000000001
164828.0,58.360900000000001,19.242999999999999,5.05281,58.125700000000002,-8.1743900000000007,10.4047,-14.3269
164829.0,60.759099999999997,44.051699999999997,29.460899999999999,82.1417,-9.2635699999999996,12.981999999999999,-15.3744
164830.0,63.818899999999999,32.552900000000001,19.401399999999999,69.518900000000002,-12.327500000000001,17.495699999999999,-14.978199999999999
164831.0,64.699600000000004,35.518700000000003,24.7498,71.038899999999998,-14.229799999999999,20.577200000000001,-13.517200000000001
164832.0,63.409599999999998,24.349399999999999,12.3855,54.079300000000003,-12.331200000000001,23.465800000000002,-13.291399999999999
164833.0,63.760300000000001,32.261800000000001,18.5594,57.260300000000001,-10.7301,25.811,-13.7372
164834.0,64.906099999999995,36.978000000000002,18.7697,54.048499999999997,-12.527900000000001,27.914999999999999,-12.522600000000001
164835.0,62.959299999999999,62.459899999999998,35.194600000000001,73.349500000000006,-14.2727,25.2606,-9.6534899999999997
164836.0,56.329900000000002,55.680399999999999,11.0685,46.588999999999999,-15.3187,15.6477,-4.7334500000000004
164837.0,58.047499999999999,-17.305900000000001,-70.712199999999996,-34.348100000000002,-14.1092,12.866899999999999,-3.7917800000000002
164838.0,55.102699999999999,-57.929699999999997,-100.67700000000001,-49.110799999999998,-7.9716399999999998,12.103,-6.4336099999999998
164839.0,50.514899999999997,35.383499999999998,-10.299799999999999,37.056699999999999,-6.21272,7.0157600000000002,-6.3796299999999997
164840.0,50.947000000000003,50.663600000000002,0.31597500000000001,38.106099999999998,-7.8801500000000004,9.0252199999999991,-5.9051099999999996
164841.0,45.765599999999999,61.977699999999999,17.741199999999999,51.532299999999999,-8.4159799999999994,8.8410100000000007,-3.8129
164842.0,42.268099999999997,53.8705,11.5916,42.1892,-9.1913199999999993,5.3557499999999996,-2.38124
164843.0,42.4527,61.816400000000002,19.6083,51.775799999999997,-9.3518699999999999,4.4617899999999997,-2.6829800000000001
164844.0,1735.74,-792.89599999999996,106.206,993.77999999999997,22.568300000000001,-453.53300000000002,2.0240300000000002
164845.0,1732.75,-846.56600000000003,102.488,1026.1600000000001,22.9604,-351.08300000000003,-13.8545
164846.0,1729.3,-879.36400000000003,105.59099999999999,1054.8599999999999,20.941700000000001,-245.172,-29.4251
164847.0,1725.4400000000001,-903.65499999999997,103.84099999999999,1067.3499999999999,16.632200000000001,-136.928,-44.554600000000001
164848.0,1721.1600000000001,-909.13400000000001,107.039,1073.6900000000001,10.549899999999999,-27.432700000000001,-59.166699999999999
164849.0,1716.0699999999999,-907.87199999999996,103.376,1061.3,2.3894099999999998,81.860299999999995,-72.699600000000004
164850.0,1710.8,-883.20000000000005,108.976,1047.7,-8.1556700000000006,189.50299999999999,-85.429400000000001
164851.0,1704.5999999999999,-852.63499999999999,107.10299999999999,1015.0,-20.422899999999998,294.24299999999999,-96.510999999999996
164852.0,1699.5699999999999,-801.13699999999994,111.461,981.22199999999998,-34.836599999999997,394.77499999999998,-106.929
164853.0,1692.77,-736.44600000000003,116.872,936.16999999999996,-50.529800000000002,490.01299999999998,-113.935
164854.0,1690.1400000000001,-665.90899999999999,111.22499999999999,878.26199999999994,-68.004300000000001,579.49099999999999,-125.021
164855.0,1686.8399999999999,-563.44100000000003,124.306,836.07799999999997,-83.203299999999999,660.75300000000004,-123.468
164856.0,1673.6099999999999,-392.09300000000002,211.04300000000001,835.75199999999995,-102.05500000000001,728.59000000000003,-124.331
164857.0,1671.1500000000001,-272.36599999999999,229.71100000000001,772.85299999999995,-125.39,789.99099999999999,-133.57300000000001
164858.0,1670.0,-167.678,221.69300000000001,685.00400000000002,-143.441,842.35699999999997,-131.42599999999999
164859.0,1664.5999999999999,-54.9542,224.96100000000001,592.06299999999999,-163.80000000000001,880.327,-128.584
164860.0,1661.71,62.628300000000003,228.09999999999999,498.53800000000001,-184.054,907.38699999999994,-121.56999999999999
164861.0,1657.3499999999999,174.64500000000001,228.102,396.04399999999998,-203.89500000000001,920.96199999999999,-111.85299999999999
164862.0,1653.27,288.67700000000002,230.262,295.512,-222.18199999999999,922.24599999999998,-99.544499999999999
164863.0,1648.0999999999999,396.36799999999999,228.89699999999999,190.93799999999999,-238.898,910.63,-84.5304
164864.0,1643.1400000000001,505.06799999999998,230.78800000000001,91.988299999999995,-253.999,887.01199999999994,-66.894499999999994
164865.0,1638.46,606.91600000000005,230.02699999999999,-5.7297099999999999,-267.45100000000002,851.85400000000004,-46.592100000000002
164866.0,1634.4100000000001,707.56600000000003,232.91399999999999,-94.483699999999999,-278.78300000000002,805.91099999999994,-24.270600000000002
164867.0,1631.0699999999999,795.61500000000001,229.33199999999999,-183.405,-287.572,750.00900000000001,-0.45182800000000001
164868.0,1628.9200000000001,881.928,230.45099999999999,-260.06900000000002,-293.92500000000001,685.01499999999999,24.979399999999998
164869.0,1627.6900000000001,956.38400000000001,226.84,-332.92399999999998,-297.70299999999997,611.428,51.658900000000003
164870.0,1687.6900000000001,-1272.49,50.180300000000003,360.30700000000002,-92.508399999999995,-433.94600000000003,-25.015499999999999
164871.0,1685.54,-1300.0799999999999,59.738700000000001,414.90600000000001,-92.828500000000005,-343.97300000000001,-26.144200000000001
164872.0,1683.45,-1332.8399999999999,54.0732,444.84500000000003,-94.603499999999997,-249.47999999999999,-27.271599999999999
164873.0,1680.6900000000001,-1341.77,61.516399999999997,476.78500000000003,-97.854699999999994,-151.822,-28.488
164874.0,1677.77,-1352.1099999999999,56.286200000000001,485.58999999999997,-102.54600000000001,-52.450200000000002,-29.447399999999998
164875.0,1674.28,-1336.3800000000001,65.919799999999995,497.69999999999999,-108.654,47.528599999999997,-29.890699999999999
164876.0,1670.3199999999999,-1326.79,57.239600000000003,481.30900000000003,-115.88800000000001,146.87899999999999,-29.7852
164877.0,1665.53,-1288.05,66.206400000000002,471.06400000000002,-124.374,244.239,-28.390999999999998
164878.0,1660.51,-1256.0899999999999,55.176000000000002,432.69900000000001,-133.83600000000001,338.83800000000002,-26.8004
164879.0,1654.1500000000001,-1193.8900000000001,63.2742,402.27999999999997,-143.916,428.56400000000002,-22.251999999999999
164880.0,1648.96,-1140.3299999999999,48.680999999999997,344.04399999999998,-156.14699999999999,513.95399999999995,-20.843699999999998
164881.0,1644.6600000000001,-1043.99,63.261299999999999,312.45800000000003,-165.90100000000001,593.85400000000004,-10.6228
164882.0,1636.9400000000001,-905.81299999999999,120.455,299.59199999999998,-176.328,662.60599999999999,-0.12007
164883.0,1630.96,-771.29200000000003,161.31800000000001,269.24799999999999,-192.63300000000001,722.63499999999999,4.1585999999999999
164884.0,1626.22,-675.86900000000003,149.803,189.161,-207.01499999999999,774.48599999999999,16.010899999999999
164885.0,1620.5599999999999,-562.42399999999998,156.30000000000001,114.59099999999999,-220.76599999999999,814.25999999999999,29.6233
164886.0,1615.8900000000001,-468.31599999999997,141.24100000000001,14.2704,-232.29300000000001,843.18600000000004,44.8626
164887.0,1611.6300000000001,-359.85700000000003,141.154,-76.120800000000003,-241.792,860.43200000000002,62.141800000000003
164888.0,1606.6600000000001,-263.96899999999999,128.845,-179.23699999999999,-250.221,865.03399999999999,82.636700000000005
164889.0,1601.45,-156.75,129.19300000000001,-269.786,-257.976,857.23099999999999,105.809
164890.0,1597.0,-64.9131,116.732,-370.38999999999999,-263.41399999999999,838.43899999999996,131.04400000000001
164891.0,1592.5799999999999,32.220700000000001,113.735,-458.012,-266.517,808.58500000000004,157.96000000000001
164892.0,1588.5599999999999,113.065,98.677700000000002,-552.13499999999999,-266.94200000000001,768.68700000000001,186.18600000000001
164893.0,1585.0999999999999,200.42099999999999,95.443799999999996,-627.86699999999996,-264.79300000000001,719.42899999999997,215.50800000000001
164894.0,1581.9300000000001,269.20999999999998,79.797700000000006,-708.04700000000003,-259.72199999999998,661.70399999999995,245.46899999999999
164895.0,1579.6099999999999,339.73700000000002,73.240200000000002,-770.36000000000001,-251.96600000000001,597.00800000000004,275.65300000000002
164896.0,1489.8499999999999,-1146.6099999999999,131.30099999999999,208.69800000000001,-147.93299999999999,-370.41800000000001,-38.3733
164897.0,1491.54,-1189.97,122.378,239.58199999999999,-149.191,-297.16899999999998,-32.532499999999999
164898.0,1493.6400000000001,-1211.3399999999999,127.925,276.37,-151.27500000000001,-220.31399999999999,-27.282699999999998
164899.0,1496.04,-1237.5,120.443,292.02999999999997,-154.215,-140.12799999999999,-21.874600000000001
164900.0,1498.1800000000001,-1243.3399999999999,124.459,309.82499999999999,-158.137,-57.540999999999997,-16.378599999999999
164901.0,1500.1199999999999,-1254.03,114.36199999999999,304.18599999999998,-162.97399999999999,26.303000000000001,-10.4009
164902.0,1501.75,-1239.21,120.27200000000001,304.863,-168.78899999999999,110.343,-3.8600500000000002
164903.0,1502.76,-1230.1700000000001,110.423,280.351,-175.30799999999999,193.35599999999999,3.6226799999999999
164904.0,1502.96,-1195.8900000000001,115.209,261.76600000000002,-182.52099999999999,274.41800000000001,11.9148
164905.0,1502.3399999999999,-1164.55,106.512,221.53299999999999,-190.01499999999999,352.267,21.702200000000001
164906.0,1500.99,-1111.1300000000001,108.361,184.66800000000001,-198.17500000000001,426.65600000000001,31.689399999999999
164907.0,1498.3599999999999,-1058.0,96.9953,130.53899999999999,-205.22300000000001,496.32799999999997,44.106299999999997
164908.0,1494.71,-961.72900000000004,122.191,102.258,-210.875,558.78200000000004,58.819600000000001
164909.0,1492.7,-858.97000000000003,148.654,67.677599999999998,-218.31200000000001,613.56600000000003,71.938000000000002
164910.0,1491.9000000000001,-747.35299999999995,175.50899999999999,31.046900000000001,-226.643,660.71400000000006,87.182699999999997
164911.0,1489.8800000000001,-660.25300000000004,169.63,-40.988399999999999,-234.822,698.64099999999996,102.887
164912.0,1484.77,-557.59900000000005,172.36099999999999,-102.643,-241.197,725.06700000000001,122.64700000000001
164913.0,1476.21,-467.17000000000002,162.655,-181.42699999999999,-247.91300000000001,737.92700000000002,144.72999999999999
164914.0,1468.9300000000001,-366.75900000000001,162.197,-252.762,-253.83699999999999,741.38199999999995,166.34999999999999
164915.0,1463.5899999999999,-284.59699999999998,146.262,-338.553,-255.292,736.10900000000004,190.80500000000001
164916.0,1457.75,-194.636,143.827,-410.39999999999998,-255.209,719.96299999999997,216.37899999999999
164917.0,1451.6400000000001,-118.84,129.285,-489.91699999999997,-252.28899999999999,694.66200000000003,243.11699999999999
164918.0,1445.52,-35.408900000000003,126.84999999999999,-552.34000000000003,-247.095,660.67399999999998,270.47899999999998
164919.0,1439.3299999999999,29.7973,110.209,-622.12800000000004,-239.214,619.06299999999999,297.98099999999999
164920.0,1433.4000000000001,101.893,105.762,-672.39400000000001,-229.12,570.82899999999995,325.10700000000003
164921.0,1427.79,157.411,89.653700000000001,-726.41300000000001,-216.077,516.73400000000004,351.95699999999999
164922.0,1157.6500000000001,-879.05100000000004,84.603099999999998,158.34899999999999,-161.53299999999999,-289.48099999999999,-42.195399999999999
164923.0,1166.22,-921.75400000000002,76.498500000000007,179.41399999999999,-163.36500000000001,-235.55600000000001,-35.1494
164924.0,1174.3299999999999,-942.62599999999998,84.884399999999999,209.71700000000001,-165.91300000000001,-177.33600000000001,-28.8126
164925.0,1182.5699999999999,-973.58900000000006,76.404300000000006,217.75999999999999,-169.048,-116.044,-21.988800000000001
164926.0,1190.8499999999999,-981.21699999999998,84.991399999999999,235.08099999999999,-173.11699999999999,-52.2072,-15.018700000000001
164927.0,1198.9400000000001,-996.47699999999998,78.519199999999998,230.48099999999999,-177.666,13.301299999999999,-7.5160499999999999
164928.0,1206.49,-992.49599999999998,83.7791,229.274,-183.035,79.540400000000005,0.70217799999999997
164929.0,1213.5799999999999,-994.05399999999997,75.437700000000007,207.09899999999999,-188.774,145.63200000000001,9.7848000000000006
164930.0,1219.97,-974.33900000000006,80.279899999999998,189.971,-195.19399999999999,210.465,20.069199999999999
164931.0,1225.53,-962.12300000000005,68.5214,150.02000000000001,-201.654,273.315,31.3855
164932.0,1229.4100000000001,-923.68499999999995,73.471900000000005,120.176,-208.14599999999999,332.94499999999999,44.130800000000001
164933.0,1231.71,-893.12699999999995,59.670099999999998,67.8429,-214.32400000000001,388.88499999999999,57.553199999999997
164934.0,1232.0599999999999,-836.24699999999996,62.039900000000003,27.3994,-219.72999999999999,439.76900000000001,72.881600000000006
164935.0,1230.22,-784.78200000000004,49.817100000000003,-31.034700000000001,-223.37,484.84500000000003,87.431700000000006
164936.0,1226.6400000000001,-704.55499999999995,60.075400000000002,-69.439800000000005,-226.226,521.85500000000002,102.827
164937.0,1222.9300000000001,-644.65800000000002,40.7121,-135.184,-230.977,552.24099999999999,116.151
164938.0,1219.23,-545.0,56.603000000000002,-162.53299999999999,-231.92599999999999,574.68600000000004,136.91900000000001
164939.0,1214.5,-415.19200000000001,110.59699999999999,-167.28100000000001,-235.38200000000001,584.95799999999997,157.79300000000001
164940.0,1209.8599999999999,-312.81599999999997,129.65700000000001,-203.39500000000001,-240.60900000000001,588.70100000000002,174.20400000000001
164941.0,1202.5999999999999,-256.30200000000002,102.39700000000001,-278.41500000000002,-237.673,584.54200000000003,195.47399999999999
164942.0,1193.6700000000001,-174.946,107.749,-324.786,-234.988,569.59299999999996,216.91300000000001
164943.0,1184.8199999999999,-122.02500000000001,84.749899999999997,-393.20400000000001,-229.25,548.49599999999998,238.893
164944.0,1175.25,-51.005899999999997,84.786600000000007,-434.81099999999998,-222.00800000000001,520.00699999999995,260.94400000000002
164945.0,1165.5,-2.66208,64.568299999999994,-489.87599999999998,-212.38499999999999,486.267,282.27699999999999
164946.0,1155.1700000000001,60.6387,63.745399999999997,-519.13800000000003,-201.48599999999999,447.14699999999999,302.68099999999998
164947.0,1143.9200000000001,100.322,43.654200000000003,-559.96299999999997,-187.857,404.11200000000002,321.97000000000003
164948.0,860.17200000000003,-564.03499999999997,90.508600000000001,221.637,-137.60499999999999,-221.84800000000001,-36.472700000000003
164949.0,870.44600000000003,-602.97699999999998,82.280799999999999,234.02199999999999,-140.42400000000001,-181.66999999999999,-31.215199999999999
164950.0,880.84100000000001,-622.67399999999998,90.103300000000004,257.02800000000002,-143.495,-137.91200000000001,-26.790800000000001
164951.0,891.30899999999997,-652.25900000000001,83.0916,260.78100000000001,-147.232,-91.326999999999998,-21.6065
164952.0,901.60900000000004,-664.57799999999997,88.453500000000005,271.12900000000002,-151.39699999999999,-42.277200000000001,-16.194199999999999
164953.0,911.91700000000003,-686.37800000000004,78.927899999999994,260.63999999999999,-156.30799999999999,8.4518699999999995,-10.0564
164954.0,922.20100000000002,-685.86800000000005,86.270300000000006,260.495,-161.768,60.109099999999998,-3.2242500000000001
164955.0,932.0,-695.92200000000003,76.978300000000004,236.96600000000001,-167.78,111.78,4.6867900000000002
164956.0,941.06200000000001,-684.62,82.516900000000007,221.952,-173.899,162.697,13.6144
164957.0,949.13699999999994,-681.221,73.210599999999999,185.81,-180.227,212.04400000000001,24.028099999999998
164958.0,956.58100000000002,-657.96600000000001,76.421599999999998,157.459,-186.56899999999999,259.11000000000001,35.609400000000001
164959.0,962.83199999999999,-641.03700000000003,65.350899999999996,110.896,-192.685,302.92399999999998,48.800899999999999
164960.0,967.048,-601.14099999999996,67.689899999999994,76.538300000000007,-198.12200000000001,342.798,62.081499999999998
164961.0,968.62,-569.57600000000002,50.992600000000003,23.662199999999999,-203.01499999999999,377.68099999999998,76.941199999999995
164962.0,968.11500000000001,-516.20699999999999,47.968899999999998,-14.438599999999999,-207.345,407.12799999999999,89.497399999999999
164963.0,965.67600000000004,-463.15199999999999,35.095399999999998,-55.479799999999997,-208.98500000000001,431.32799999999997,103.357
164964.0,959.20000000000005,-344.08600000000001,87.494500000000002,-38.540500000000002,-207.99299999999999,446.76999999999998,120.71599999999999
164965.0,951.68200000000002,-241.101,126.673,-45.752699999999997,-208.90700000000001,454.97199999999998,131.911
164966.0,945.18100000000004,-168.15199999999999,132.00999999999999,-78.606499999999997,-208.398,458.351,143.27500000000001
164967.0,936.91999999999996,-120.173,114.91500000000001,-132.761,-205.52199999999999,453.26400000000001,159.554
164968.0,927.65899999999999,-57.526499999999999,115.785,-170.33099999999999,-201.80699999999999,440.83100000000002,176.131
164969.0,917.97299999999996,-13.154199999999999,100.904,-219.02500000000001,-196.14599999999999,422.91800000000001,193.048
164970.0,907.82899999999995,44.735999999999997,102.078,-247.714,-189.16300000000001,399.88600000000002,209.35900000000001
164971.0,897.00400000000002,83.292699999999996,86.829400000000007,-286.98700000000002,-180.535,372.697,224.87
164972.0,885.53800000000001,133.905,86.644999999999996,-305.87200000000001,-171.024,341.83699999999999,238.761
164973.0,873.322,166.94499999999999,72.955100000000002,-332.38400000000001,-159.506,308.22000000000003,251.75
164974.0,639.45100000000002,-385.10599999999999,24.351500000000001,217.142,-106.411,-172.00700000000001,-28.319600000000001
164975.0,648.255,-366.56,67.9619,276.43099999999998,-108.71299999999999,-141.36699999999999,-25.636299999999999
164976.0,656.79399999999998,-432.35500000000002,24.805499999999999,244.815,-111.238,-107.43300000000001,-23.4635
164977.0,665.71500000000003,-407.93599999999998,68.5535,296.084,-114.761,-71.090299999999999,-20.626999999999999
164978.0,675.10599999999999,-465.80599999999998,26.831099999999999,257.20699999999999,-118.874,-32.652700000000003,-17.520099999999999
164979.0,684.57799999999997,-432.11000000000001,72.705799999999996,300.73200000000003,-123.80500000000001,7.1770399999999999,-13.7104
164980.0,693.93899999999996,-485.38,27.372900000000001,247.72300000000001,-129.04300000000001,47.911000000000001,-9.1952499999999997
164981.0,703.13199999999995,-444.84100000000001,71.529200000000003,278.08800000000002,-135.119,88.731099999999998,-3.5687700000000002
164982.0,712.27200000000005,-489.15899999999999,26.252300000000002,213.49100000000001,-141.624,128.99299999999999,3.2289300000000001
164983.0,720.73299999999995,-440.78500000000003,68.631500000000003,231.10300000000001,-148.48400000000001,167.58500000000001,11.4276
164984.0,727.77499999999998,-475.59899999999999,21.374700000000001,155.566,-154.56899999999999,204.142,20.6633
164985.0,733.02700000000004,-415.84300000000002,61.7331,164.86000000000001,-159.98500000000001,237.833,31.009699999999999
164986.0,737.41999999999996,-440.161,9.7400000000000002,82.9529,-164.76400000000001,268.58499999999998,41.724800000000002
164987.0,739.93799999999999,-361.17500000000001,54.535699999999999,97.468900000000005,-168.11500000000001,295.47699999999998,52.579799999999999
164988.0,740.58500000000004,-371.66399999999999,-1.2409600000000001,17.694900000000001,-170.62,319.23500000000001,60.039499999999997
164989.0,737.726,-254.98099999999999,61.388800000000003,60.261600000000001,-170.07300000000001,337.39100000000002,73.560900000000004
164990.0,732.20399999999995,-181.798,85.148600000000002,49.158799999999999,-171.52799999999999,348.20299999999997,84.012299999999996
164991.0,727.25800000000004,-73.836399999999998,138.697,72.072900000000004,-174.39699999999999,355.04300000000001,89.529300000000006
164992.0,719.947,-75.201099999999997,82.760900000000007,-10.2638,-172.31100000000001,355.98500000000001,100.27200000000001
164993.0,712.029,14.7318,124.312,-1.45289,-170.85400000000001,350.06599999999997,112.14700000000001
164994.0,704.47699999999998,11.014099999999999,72.486800000000002,-82.796300000000002,-167.571,340.08100000000002,124.815
164995.0,695.89099999999996,93.211200000000005,109.928,-72.836399999999998,-163.328,324.92899999999997,137.685
164996.0,687.13699999999994,85.801699999999997,58.780799999999999,-146.667,-157.84299999999999,306.54199999999997,149.465
164997.0,677.55399999999997,164.25800000000001,96.455299999999994,-127.43600000000001,-151.28299999999999,284.70600000000002,160.56399999999999
164998.0,667.73299999999995,153.965,47.283799999999999,-190.53200000000001,-144.13200000000001,260.428,170.06700000000001
164999.0,656.86300000000006,227.06,85.369900000000001,-161.59299999999999,-135.536,234.06100000000001,178.83600000000001
165000.0,508.57100000000003,-210.434,55.203600000000002,276.92599999999999,-80.607500000000002,-140.411,-21.475899999999999
165001.0,514.76199999999994,-267.07400000000001,17.654499999999999,253.12200000000001,-82.357200000000006,-115.175,-20.6234
165002.0,520.84000000000003,-244.02099999999999,58.231200000000001,303.46300000000002,-84.828299999999999,-87.305700000000002,-20.022200000000002
165003.0,527.05200000000002,-295.97000000000003,21.123699999999999,272.89299999999997,-87.706699999999998,-57.331899999999997,-18.930099999999999
165004.0,533.26800000000003,-271.036,58.174999999999997,312.28800000000001,-91.093199999999996,-25.533799999999999,-17.465800000000002
165005.0,539.98800000000006,-319.89699999999999,18.5078,270.74000000000001,-95.226900000000001,7.5711700000000004,-15.4312
165006.0,547.13300000000004,-286.69400000000002,57.953000000000003,303.358,-100.30800000000001,41.234900000000003,-12.716100000000001
165007.0,554.13599999999997,-328.61099999999999,18.907499999999999,252.447,-105.81399999999999,74.733599999999996,-9.1730199999999993
165008.0,560.21699999999998,-291.03399999999999,55.418700000000001,272.00700000000001,-111.379,107.367,-4.7195799999999997
165009.0,565.52700000000004,-325.947,15.242000000000001,210.13900000000001,-117.146,138.751,1.1120699999999999
165010.0,570.70299999999997,-280.11799999999999,51.046199999999999,221.38399999999999,-123.488,167.99600000000001,8.0008999999999997
165011.0,575.24800000000005,-304.536,10.981299999999999,155.935,-129.625,194.429,16.2989
165012.0,577.98599999999999,-245.57300000000001,47.590899999999998,167.77600000000001,-134.11500000000001,218.22300000000001,23.234999999999999
165013.0,578.24300000000005,-261.03699999999998,-0.31620100000000001,102.087,-136.34,238.608,29.655200000000001
165014.0,576.78499999999997,-170.17400000000001,49.726900000000001,136.666,-138.81100000000001,255.26400000000001,38.139600000000002
165015.0,574.93799999999999,-112.916,66.623599999999996,130.083,-140.26300000000001,269.35399999999998,45.538800000000002
165016.0,572.21500000000003,-7.8821500000000002,133.27199999999999,168.654,-140.81399999999999,279.58999999999997,49.200400000000002
165017.0,568.80600000000004,-8.0394299999999994,92.308400000000006,102.47499999999999,-141.47300000000001,284.88999999999999,54.2117
165018.0,564.23299999999995,62.9724,123.196,106.411,-141.09700000000001,284.97899999999998,63.5032
165019.0,558.62800000000004,58.778100000000002,81.670299999999997,35.995100000000001,-140.42699999999999,279.97800000000001,73.436400000000006
165020.0,552.81799999999998,126.627,113.40300000000001,41.739899999999999,-138.535,271.22899999999998,83.819199999999995
165021.0,546.61699999999996,120.79300000000001,73.119900000000001,-22.000699999999998,-135.74700000000001,258.96600000000001,93.9191
165022.0,540.07399999999996,186.893,105.989,-8.6148699999999998,-132.07599999999999,243.88399999999999,103.21299999999999
165023.0,533.05999999999995,178.03999999999999,65.866200000000006,-64.618300000000005,-127.553,226.36799999999999,111.60899999999999
165024.0,525.53899999999999,239.023,97.579800000000006,-45.225000000000001,-122.488,206.733,118.837
165025.0,517.64999999999998,226.126,58.151499999999999,-93.576999999999998,-116.398,185.67500000000001,125.389
165026.0,433.27100000000002,-197.31,-9.8101199999999995,217.26900000000001,-67.340900000000005,-120.90000000000001,-17.978999999999999
165027.0,436.53500000000003,-180.255,21.691400000000002,260.96600000000001,-67.599900000000005,-99.238200000000006,-17.830300000000001
165028.0,439.50900000000001,-225.154,-9.8934099999999994,238.37700000000001,-68.313599999999994,-74.846800000000002,-17.729199999999999
165029.0,443.11200000000002,-204.751,22.043600000000001,276.07299999999998,-70.1935,-48.636400000000002,-17.2363
165030.0,447.36700000000002,-242.22800000000001,-6.36761,250.13800000000001,-73.200500000000005,-20.938099999999999,-16.557700000000001
165031.0,451.935,-214.238,27.7974,283.30000000000001,-76.700999999999993,7.6339100000000002,-15.4739
165032.0,456.423,-250.358,-5.32043,245.28700000000001,-80.517499999999998,36.674199999999999,-13.9316
165033.0,460.91699999999997,-218.143,26.8751,268.12,-85.2393,65.581199999999995,-11.5733
165034.0,465.79199999999997,-246.922,-5.0843299999999996,223.02199999999999,-91.108599999999996,93.386300000000006,-8.4528099999999995
165035.0,469.25400000000002,-207.827,27.727599999999999,238.27600000000001,-97.011600000000001,119.01900000000001,-4.3356599999999998
165036.0,471.41199999999998,-233.833,-8.5522100000000005,182.06200000000001,-101.45399999999999,142.97200000000001,-0.23349200000000001
165037.0,471.51900000000001,-189.125,21.671800000000001,190.63900000000001,-104.09099999999999,164.47,4.8764599999999998
165038.0,471.78699999999998,-209.30500000000001,-21.6312,130.239,-107.127,183.66900000000001,7.3818599999999996
165039.0,473.42099999999999,-135.042,21.563800000000001,164.21600000000001,-109.45399999999999,200.25299999999999,14.9162
165040.0,472.392,-66.215699999999998,62.259799999999998,182.78100000000001,-112.38500000000001,213.99299999999999,21.3611
165041.0,472.202,21.573599999999999,118.68600000000001,215.51900000000001,-114.798,226.49299999999999,21.061499999999999
165042.0,470.601,14.0688,76.494600000000005,154.774,-115.054,234.50399999999999,24.941299999999998
165043.0,467.15100000000001,76.541499999999999,107.182,160.154,-116.858,237.32499999999999,31.222799999999999
165044.0,464.20299999999997,71.558400000000006,71.769599999999997,98.740600000000001,-117.68300000000001,237.066,39.168900000000001
165045.0,460.37,127.864,99.344800000000006,100.205,-117.953,232.71199999999999,48.127299999999998
165046.0,456.31200000000001,120.926,64.101399999999998,41.537100000000002,-117.23,225.25299999999999,57.023699999999998
165047.0,451.81299999999999,174.041,90.118300000000005,47.037300000000002,-115.7,214.94499999999999,65.465400000000002
165048.0,447.03300000000002,165.09899999999999,54.945799999999998,-5.4028999999999998,-113.38500000000001,202.357,73.034400000000005
165049.0,441.81299999999999,216.21100000000001,81.424199999999999,6.7758200000000004,-110.331,187.72399999999999,79.911699999999996
165050.0,436.56900000000002,205.965,48.244700000000002,-37.911299999999997,-106.863,171.44200000000001,86.1571
165051.0,430.875,253.71199999999999,75.489199999999997,-19.342300000000002,-102.643,153.93100000000001,91.842200000000005
165052.0,383.86099999999999,-144.47999999999999,3.6786500000000002,220.83600000000001,-59.636200000000002,-107.426,-16.091100000000001
165053.0,387.84300000000002,-181.726,-20.9114,208.40899999999999,-61.0212,-87.773799999999994,-16.441700000000001
165054.0,391.12099999999998,-162.28999999999999,10.3062,247.124,-63.772100000000002,-66.416499999999999,-16.281199999999998
165055.0,393.45699999999999,-197.61500000000001,-15.1455,225.798,-65.955500000000001,-43.419400000000003,-16.217400000000001
165056.0,395.59899999999999,-178.648,10.8239,253.87200000000001,-67.610200000000006,-18.750299999999999,-15.355600000000001
165057.0,398.27100000000002,-211.203,-18.177600000000002,224.82499999999999,-69.890000000000001,6.9589999999999996,-14.206200000000001
165058.0,401.82900000000001,-181.751,11.3284,252.053,-73.0595,32.913600000000002,-12.8645
165059.0,404.88600000000002,-207.12200000000001,-16.859500000000001,218.072,-76.025899999999993,58.045099999999998,-11.460699999999999
165060.0,406.41000000000003,-176.727,8.0818300000000001,232.75800000000001,-78.0976,82.504599999999996,-9.9070199999999993
165061.0,407.29899999999998,-199.06700000000001,-23.3721,188.71700000000001,-80.241200000000006,105.306,-8.07029
165062.0,406.33800000000002,-156.54599999999999,4.1089799999999999,202.458,-83.769599999999997,125.13200000000001,-4.6887400000000001
165063.0,404.68200000000002,-164.005,-23.2988,160.733,-88.402000000000001,142.297,-2.4207800000000002
165064.0,407.09100000000001,-108.06699999999999,8.6836900000000004,183.20699999999999,-92.274299999999997,158.863,0.71550100000000005
165065.0,407.99599999999998,-63.238500000000002,31.789000000000001,190.93700000000001,-93.192700000000002,173.95500000000001,6.9109800000000003
165066.0,406.35399999999998,29.8035,104.339,239.02099999999999,-94.451599999999999,186.608,7.2775699999999999
165067.0,407.21699999999998,28.665900000000001,75.772900000000007,192.613,-96.836500000000001,196.75999999999999,7.66188
165068.0,406.69200000000001,77.728899999999996,98.142899999999997,194.71600000000001,-98.859499999999997,203.16399999999999,13.375500000000001
165069.0,404.90300000000002,72.965800000000002,69.114099999999993,139.595,-101.318,205.94300000000001,20.014900000000001
165070.0,402.726,117.739,89.535300000000007,135.69300000000001,-102.824,205.35499999999999,27.890899999999998
165071.0,399.858,112.176,60.478700000000003,83.136200000000002,-103.694,201.41999999999999,36.0762
165072.0,396.85000000000002,157.93799999999999,82.944500000000005,85.027799999999999,-103.631,194.959,43.8628
165073.0,393.29500000000002,152.46700000000001,54.868600000000001,38.878300000000003,-102.76900000000001,186.036,51.076300000000003
165074.0,389.61500000000001,198.28399999999999,78.802599999999998,47.566200000000002,-101.246,175.20599999999999,57.657200000000003
165075.0,385.60599999999999,190.839,50.900599999999997,6.8367599999999999,-99.128,162.63499999999999,63.697200000000002
165076.0,381.16800000000001,232.09899999999999,73.305099999999996,18.579499999999999,-96.375200000000007,148.565,69.063999999999993
165077.0,376.71300000000002,220.24600000000001,44.414900000000003,-18.797899999999998,-92.989000000000004,133.416,74.263400000000004
165078.0,344.762,-133.875,-23.727499999999999,187.45500000000001,-59.595799999999997,-95.671099999999996,-15.8688
165079.0,350.09399999999999,-140.553,-14.9764,207.61799999999999,-57.780099999999997,-78.257800000000003,-17.384699999999999
165080.0,352.78100000000001,-191.24799999999999,-49.057099999999998,175.721,-58.306899999999999,-60.194000000000003,-15.0601
165081.0,354.12900000000002,-175.18100000000001,-20.399799999999999,204.16300000000001,-60.446899999999999,-39.184699999999999,-15.231999999999999
165082.0,356.32799999999997,-204.06899999999999,-43.3964,183.01900000000001,-63.3431,-17.2042,-13.979900000000001
165083.0,358.43000000000001,-176.60400000000001,-13.9559,213.10300000000001,-65.587299999999999,5.8036500000000002,-13.2277
165084.0,360.80399999999997,-202.661,-42.012799999999999,185.27600000000001,-66.503900000000002,28.845400000000001,-12.027100000000001
165085.0,361.96600000000001,-169.45500000000001,-16.470300000000002,209.37899999999999,-67.827500000000001,51.252200000000002,-11.161899999999999
165086.0,362.053,-178.39400000000001,-39.179600000000001,183.86000000000001,-70.614699999999999,72.217299999999994,-9.99376
165087.0,362.06200000000001,-133.89099999999999,-10.8634,206.33799999999999,-74.360699999999994,91.710599999999999,-8.8294099999999993
165088.0,362.58699999999999,-126.393,-16.901299999999999,189.58799999999999,-77.712900000000005,109.533,-6.42143
165089.0,364.60000000000002,-63.291200000000003,33.9499,226.22800000000001,-81.401700000000005,126.316,-4.5935499999999996
165090.0,366.45100000000002,-49.3279,32.400500000000001,210.124,-82.906899999999993,142.43899999999999,-1.76942
165091.0,364.54599999999999,15.660299999999999,80.148899999999998,239.05500000000001,-82.673100000000005,155.70400000000001,0.28264600000000001
165092.0,363.96499999999997,14.477499999999999,57.958799999999997,198.655,-84.494799999999998,166.58099999999999,0.65597000000000005
165093.0,364.512,57.259700000000002,78.9422,201.018,-86.787800000000004,175.303,4.4590100000000001
165094.0,364.02499999999998,51.019100000000002,52.194299999999998,151.256,-89.731499999999997,180.85499999999999,10.0319
165095.0,362.904,93.034400000000005,73.090199999999996,149.34,-92.214200000000005,183.15299999999999,16.9529
165096.0,360.93400000000003,88.311000000000007,47.981699999999996,101.892,-94.027799999999999,182.22399999999999,24.321999999999999
165097.0,358.649,129.18799999999999,68.278499999999994,102.059,-94.926699999999997,178.726,31.480799999999999
165098.0,355.77199999999999,122.898,41.710799999999999,57.620699999999999,-95.006299999999996,172.80199999999999,38.125599999999999
165099.0,352.63999999999999,163.27000000000001,62.171599999999998,62.6556,-94.372500000000002,164.93799999999999,44.160699999999999
165100.0,348.94099999999997,155.12,35.0259,22.113900000000001,-93.020700000000005,155.245,49.523899999999998
165101.0,345.01600000000002,193.738,55.628500000000003,31.253499999999999,-91.038499999999999,143.999,54.557400000000001
165102.0,341.358,185.12200000000001,30.450800000000001,-3.3731900000000001,-88.799599999999998,131.51300000000001,59.673999999999999
165103.0,337.60599999999999,221.887,52.526200000000003,11.1671,-86.058199999999999,118.13,64.543700000000001
165104.0,316.76400000000001,-25.855399999999999,61.919600000000003,265.11599999999999,-57.706899999999997,-87.182500000000005,-15.468299999999999
165105.0,320.21499999999997,-99.681100000000001,-4.2073200000000002,212.84100000000001,-56.6205,-70.739000000000004,-17.8888
165106.0,320.041,-123.389,-19.859100000000002,202.066,-57.836100000000002,-54.085099999999997,-14.951599999999999
165107.0,319.01400000000001,-164.05500000000001,-49.009099999999997,170.59,-59.8583,-35.086100000000002,-14.193099999999999
165108.0,321.34500000000003,-152.566,-28.1206,190.76300000000001,-61.428199999999997,-15.614000000000001,-13.844799999999999
165109.0,324.084,-182.00299999999999,-54.9011,165.577,-62.488900000000001,3.95783,-12.6463
165110.0,325.15199999999999,-146.22999999999999,-24.513400000000001,197.83500000000001,-64.275999999999996,23.521699999999999,-10.843500000000001
165111.0,327.577,-144.613,-31.127600000000001,191.869,-66.396900000000002,44.068100000000001,-10.6722
165112.0,331.60899999999998,-87.430400000000006,18.598199999999999,239.68199999999999,-68.406099999999995,63.561100000000003,-9.0409600000000001
165113.0,333.29700000000003,-66.625200000000007,32.2956,244.01900000000001,-70.849100000000007,82.212900000000005,-8.0712600000000005
165114.0,334.29199999999997,-20.9893,67.909999999999997,268.38200000000001,-71.978899999999996,100.163,-8.09192
165115.0,333.53899999999999,-28.9529,48.020400000000002,234.863,-71.686999999999998,116.172,-6.4849300000000003
165116.0,331.89499999999998,13.914300000000001,76.547799999999995,247.19300000000001,-72.4953,129.84200000000001,-5.1710599999999998
165117.0,331.75999999999999,4.3920199999999996,49.857900000000001,205.17699999999999,-74.938900000000004,141.34700000000001,-3.0540099999999999
165118.0,332.50200000000001,42.771799999999999,70.314800000000005,208.15100000000001,-78.379199999999997,151.18799999999999,0.39765600000000001
165119.0,332.80099999999999,35.265999999999998,44.686599999999999,163.012,-81.612399999999994,158.625,5.3056999999999999
165120.0,332.32400000000001,74.148700000000005,65.502700000000004,162.94499999999999,-84.672700000000006,163.124,11.179600000000001
165121.0,331.36900000000003,66.029399999999995,39.168199999999999,116.18300000000001,-87.034700000000001,164.88300000000001,17.6706
165122.0,329.565,102.559,57.1751,115.026,-88.566500000000005,163.863,24.131699999999999
165123.0,327.27600000000001,96.922899999999998,32.994,73.728700000000003,-89.268699999999995,160.55500000000001,30.151599999999998
165124.0,324.46100000000001,135.55799999999999,53.360900000000001,78.887900000000002,-89.229299999999995,155.22499999999999,35.567900000000002
165125.0,320.98399999999998,130.249,30.2456,42.4131,-88.434200000000004,148.03999999999999,40.372700000000002
165126.0,317.279,169.06800000000001,51.810899999999997,52.516300000000001,-87.155000000000001,139.209,44.995199999999997
165127.0,313.38,162.92599999999999,29.551400000000001,20.486000000000001,-85.403800000000004,129.024,49.342199999999998
165128.0,309.00999999999999,196.28800000000001,48.285400000000003,30.3827,-82.875799999999998,117.63500000000001,53.207599999999999
165129.0,305.13299999999998,184.77099999999999,23.293299999999999,-1.8458300000000001,-79.858099999999993,105.446,57.303699999999999
165130.0,287.94,-28.742100000000001,38.732900000000001,235.82599999999999,-46.626199999999997,-79.958500000000001,-13.035600000000001
165131.0,291.791,-26.347200000000001,49.2547,256.733,-49.2973,-65.248900000000006,-14.497
165132.0,294.53500000000003,-70.135800000000003,12.814399999999999,226.28700000000001,-54.116900000000001,-48.979500000000002,-14.2506
165133.0,293.99299999999999,-64.885999999999996,25.6435,238.66,-57.8095,-31.802900000000001,-13.1099
165134.0,294.26900000000001,-105.977,-11.006600000000001,202.458,-59.273200000000003,-14.083299999999999,-14.1365
165135.0,297.27699999999999,-96.682500000000005,-1.3002,215.88499999999999,-60.432400000000001,2.5349300000000001,-11.770099999999999
165136.0,299.13,-89.163399999999996,6.9034899999999997,222.42500000000001,-62.180399999999999,20.078199999999999,-9.7932299999999994
165137.0,302.42599999999999,-45.552,48.529000000000003,262.63499999999999,-62.194400000000002,39.442599999999999,-10.8691
165138.0,304.17899999999997,-53.148499999999999,35.432400000000001,246.71899999999999,-60.2258,58.075600000000001,-10.337300000000001
165139.0,303.65899999999999,-18.2606,63.379300000000001,265.71899999999999,-59.2072,75.816900000000004,-10.3643
165140.0,303.971,-27.6204,43.069000000000003,235.542,-60.713700000000003,91.967699999999994,-10.2781
165141.0,303.81099999999998,1.8741099999999999,58.686799999999998,239.79300000000001,-63.830300000000001,105.761,-8.28125
165142.0,303.84899999999999,-9.7580299999999998,33.643500000000003,200.40100000000001,-67.5184,117.788,-5.6939599999999997
165143.0,304.93200000000002,22.055199999999999,52.347099999999998,202.90100000000001,-71.262299999999996,128.56800000000001,-2.1984599999999999
165144.0,305.83600000000001,14.6502,30.7529,163.30500000000001,-74.880200000000002,137.52099999999999,2.2172200000000002
165145.0,306.24000000000001,47.257899999999999,48.033799999999999,162.03700000000001,-78.214500000000001,143.971,7.3329300000000002
165146.0,305.87599999999998,40.520299999999999,25.038900000000002,120.569,-80.946299999999994,147.77699999999999,12.9411
165147.0,304.64100000000002,76.0672,43.820399999999999,121.849,-82.897800000000004,148.94,18.518999999999998
165148.0,302.81799999999998,73.225499999999997,24.035499999999999,85.944999999999993,-84.039299999999997,147.88499999999999,23.7637
165149.0,300.21600000000001,107.739,41.6252,88.942700000000002,-84.348200000000006,144.78,28.404499999999999
165150.0,297.09699999999998,103.29600000000001,20.474,54.698700000000002,-84.011799999999994,139.89699999999999,32.572099999999999
165151.0,293.54300000000001,137.196,38.502499999999998,61.102600000000002,-83.236500000000007,133.41200000000001,36.355699999999999
165152.0,288.93599999999998,130.357,17.042300000000001,28.738099999999999,-81.620900000000006,125.34399999999999,39.635899999999999
165153.0,284.03500000000003,161.28899999999999,33.813400000000001,35.735700000000001,-79.215999999999994,115.87,43.065800000000003
165154.0,280.30500000000001,156.81999999999999,15.177,10.057399999999999,-77.021799999999999,105.34099999999999,47.150700000000001
165155.0,276.98500000000001,188.892,34.622100000000003,24.0214,-74.647400000000005,94.286199999999994,50.948500000000003
165156.0,263.05099999999999,-0.61590100000000003,44.062899999999999,237.303,-40.639499999999998,-72.790700000000001,-11.1645
165157.0,265.096,-26.155200000000001,29.723299999999998,229.54400000000001,-41.023899999999998,-59.499499999999998,-11.401899999999999
165158.0,266.89100000000002,-15.202400000000001,51.914400000000001,254.99600000000001,-42.612699999999997,-44.622199999999999,-12.0162
165159.0,268.10399999999998,-41.25,33.564799999999998,237.898,-45.580399999999997,-29.2562,-12.1473
165160.0,269.68099999999998,-31.635400000000001,46.733899999999998,252.25700000000001,-49.101300000000002,-13.2926,-12.6058
165161.0,272.19299999999998,-54.920900000000003,25.174600000000002,232.13200000000001,-51.071199999999997,2.8226900000000001,-11.7958
165162.0,273.63799999999998,-32.898099999999999,48.432699999999997,254.21000000000001,-50.657800000000002,19.347200000000001,-10.967599999999999
165163.0,274.86900000000003,-42.813099999999999,34.476500000000001,238.946,-50.5075,36.1432,-11.491199999999999
165164.0,276.673,-18.986000000000001,49.273499999999999,252.20400000000001,-51.913699999999999,52.767000000000003,-11.7994
165165.0,277.99700000000001,-30.876799999999999,27.339300000000001,225.126,-54.330100000000002,68.4114,-11.0121
165166.0,278.68900000000002,-6.1559200000000001,43.538400000000003,231.03100000000001,-57.320300000000003,82.848699999999994,-9.6386900000000004
165167.0,279.82999999999998,-15.2575,26.574100000000001,200.505,-60.7562,96.251199999999997,-7.3098999999999998
165168.0,280.93400000000003,12.398999999999999,44.490000000000002,203.30600000000001,-64.551000000000002,108.05200000000001,-4.0452899999999996
165169.0,281.72699999999998,5.1884399999999999,25.365400000000001,168.471,-68.288899999999998,117.765,-0.203213
165170.0,282.38099999999997,33.144500000000001,40.039700000000003,167.13499999999999,-71.787199999999999,125.367,4.1272799999999998
165171.0,282.46300000000002,29.213799999999999,21.720400000000001,132.65700000000001,-74.713399999999993,130.739,8.7409800000000004
165172.0,281.76900000000001,60.208799999999997,37.688200000000002,132.91,-76.909800000000004,133.77000000000001,13.3591
165173.0,280.31900000000002,55.866100000000003,17.902100000000001,98.189099999999996,-78.3078,134.667,17.676300000000001
165174.0,278.11200000000002,85.2958,31.690899999999999,98.2029,-78.944999999999993,133.56100000000001,21.614100000000001
165175.0,275.63200000000001,83.847999999999999,14.798400000000001,68.698300000000003,-79.147099999999995,130.815,25.105899999999998
165176.0,272.28300000000002,115.396,31.729700000000001,74.071299999999994,-78.739999999999995,126.35299999999999,28.239000000000001
165177.0,268.47800000000001,112.744,15.159700000000001,46.229300000000002,-77.891900000000007,120.355,31.447500000000002
165178.0,264.53100000000001,143.37200000000001,32.584000000000003,54.882300000000001,-76.959100000000007,112.926,34.885199999999998
165179.0,259.22899999999998,141.34899999999999,18.2776,33.232900000000001,-75.275199999999998,103.74299999999999,38.224499999999999
165180.0,254.20599999999999,165.21600000000001,30.964700000000001,36.7014,-72.155900000000003,94.347099999999998,40.869199999999999
165181.0,250.11799999999999,156.77199999999999,11.7112,10.1486,-68.553799999999995,84.647599999999997,43.560600000000001
165182.0,242.25800000000001,-17.3736,16.211300000000001,199.39400000000001,-36.949399999999997,-66.943600000000004,-10.212
165183.0,243.43799999999999,-10.367699999999999,29.9771,221.59700000000001,-37.020099999999999,-54.029699999999998,-10.2674
165184.0,243.86500000000001,-31.2788,14.7235,211.65600000000001,-37.720500000000001,-40.471200000000003,-10.4863
165185.0,245.18799999999999,-22.280999999999999,29.520900000000001,229.59899999999999,-38.891399999999997,-26.581099999999999,-11.2668
165186.0,246.38,-37.026299999999999,20.422899999999998,220.804,-40.488500000000002,-12.347799999999999,-10.998200000000001
165187.0,247.477,-24.128399999999999,35.7866,235.65600000000001,-41.920200000000001,2.8240799999999999,-12.0626
165188.0,250.09800000000001,-47.473599999999998,9.7772199999999998,211.58000000000001,-43.413200000000003,17.532800000000002,-11.796799999999999
165189.0,251.61699999999999,-23.831499999999998,30.5657,229.96199999999999,-45.630299999999998,32.309199999999997,-11.0831
165190.0,254.42099999999999,-31.488600000000002,20.223299999999998,214.59299999999999,-48.107700000000001,47.911000000000001,-11.4907
165191.0,256.84399999999999,-13.545500000000001,33.806800000000003,220.881,-50.7742,62.821100000000001,-9.9638799999999996
165192.0,257.80399999999997,-20.324300000000001,20.0686,196.352,-54.1922,76.647900000000007,-8.1617099999999994
165193.0,258.536,0.99502000000000002,32.033499999999997,196.738,-57.669499999999999,88.630300000000005,-5.6129199999999999
165194.0,259.10199999999998,-5.5748499999999996,15.2553,166.732,-61.312100000000001,98.829400000000007,-2.5935600000000001
165195.0,259.90499999999997,18.075099999999999,27.633800000000001,165.31200000000001,-64.728399999999993,107.41800000000001,0.93933999999999995
165196.0,260.267,15.4238,12.5801,136.09,-67.707599999999999,114.03100000000001,4.6611500000000001
165197.0,260.13600000000002,40.7622,24.5777,134.18299999999999,-70.070800000000006,118.64400000000001,8.3726900000000004
165198.0,259.23599999999999,38.892200000000003,8.7761899999999997,104.88500000000001,-71.775400000000005,121.215,11.829499999999999
165199.0,257.65300000000002,68.2072,23.860600000000002,107.179,-72.863299999999995,121.873,15.1127
165200.0,255.57400000000001,70.060299999999998,11.6074,82.901799999999994,-73.430300000000003,120.911,17.8079
165201.0,252.77000000000001,97.203199999999995,24.8919,84.853200000000001,-73.255600000000001,118.408,20.361499999999999
165202.0,249.86500000000001,95.624499999999998,10.3003,59.316000000000003,-73.1828,114.55500000000001,22.333100000000002
165203.0,245.434,121.193,24.4605,63.696599999999997,-72.085800000000006,108.946,25.428100000000001
165204.0,240.994,113.726,8.2188400000000001,34.353900000000003,-71.575199999999995,101.705,29.553599999999999
165205.0,238.75999999999999,132.458,17.698699999999999,33.939300000000003,-70.197199999999995,95.288399999999996,33.735900000000001
165206.0,233.34999999999999,132.476,7.1659199999999998,21.443000000000001,-67.505700000000004,86.504099999999994,37.482900000000001
165207.0,227.51400000000001,161.45500000000001,24.919499999999999,35.489800000000002,-65.325199999999995,75.433300000000003,39.07
165208.0,223.339,1.36395,24.9923,198.322,-34.265700000000002,-61.579999999999998,-9.7406799999999993
165209.0,224.91800000000001,-17.914100000000001,13.2125,193.79900000000001,-34.386400000000002,-50.176200000000001,-9.7725100000000005
165210.0,226.07300000000001,-9.2796199999999995,28.1251,214.024,-34.790399999999998,-37.736899999999999,-9.9153900000000004
165211.0,227.023,-26.287400000000002,15.2593,205.102,-35.487200000000001,-24.4602,-10.2119
165212.0,227.631,-16.971499999999999,26.7227,218.59899999999999,-36.550699999999999,-11.165800000000001,-10.4015
165213.0,228.97800000000001,-33.308999999999997,11.3819,203.84100000000001,-38.316499999999998,2.3671500000000001,-11.1165
165214.0,231.53999999999999,-20.007899999999999,25.042100000000001,217.09399999999999,-40.429400000000001,16.112400000000001,-11.000500000000001
165215.0,233.374,-30.3446,14.1547,202.81100000000001,-42.459699999999998,30.355499999999999,-10.391999999999999
165216.0,235.04900000000001,-14.373699999999999,26.446899999999999,210.285,-44.774500000000003,44.5747,-10.0959
165217.0,236.51400000000001,-22.441199999999998,12.423400000000001,189.846,-47.652299999999997,57.774299999999997,-8.8110599999999994
165218.0,237.54300000000001,-4.3061100000000003,23.8279,191.84,-50.964100000000002,70.096500000000006,-7.0210299999999997
165219.0,238.441,-10.0616,10.1813,167.24100000000001,-54.316899999999997,81.000399999999999,-4.5894300000000001
165220.0,239.107,11.783899999999999,22.5151,167.68899999999999,-57.491199999999999,90.365899999999996,-1.81416
165221.0,239.524,9.9815199999999997,9.8055400000000006,142.90700000000001,-60.270099999999999,97.942400000000006,1.0861400000000001
165222.0,239.77199999999999,32.448900000000002,20.351900000000001,141.39599999999999,-62.616399999999999,103.842,3.8815
165223.0,239.37100000000001,33.794600000000003,9.1900399999999998,118.28700000000001,-64.4315,107.848,6.5211100000000002
165224.0,238.43199999999999,58.377200000000002,20.8719,118.346,-65.718199999999996,110.173,8.6968099999999993
165225.0,236.33600000000001,58.576099999999997,8.3721599999999992,94.304199999999994,-66.282499999999999,110.666,10.692500000000001
165226.0,234.30699999999999,79.765900000000002,16.4682,91.314099999999996,-66.635599999999997,109.93600000000001,12.250299999999999
165227.0,231.66399999999999,84.388400000000004,8.9567999999999994,73.532899999999998,-66.625399999999999,107.61,14.41
165228.0,229.73599999999999,106.081,18.6783,72.602999999999994,-67.322900000000004,104.233,15.852499999999999
165229.0,225.678,109.407,12.8787,58.332700000000003,-66.097099999999998,99.512299999999996,19.320900000000002
165230.0,218.59800000000001,120.90300000000001,18.439399999999999,50.2684,-66.699600000000004,90.685000000000002,22.486499999999999
165231.0,215.27699999999999,76.465599999999995,-34.3568,-13.599,-64.801299999999998,84.549199999999999,25.092300000000002
165232.0,211.33199999999999,100.232,-15.0296,-1.46217,-60.009999999999998,79.597200000000001,31.331099999999999
165233.0,207.88999999999999,126.54900000000001,4.0803200000000004,12.6348,-59.373699999999999,70.374899999999997,35.405200000000001
165234.0,206.46899999999999,-12.8187,3.03423,166.94,-31.7775,-56.6554,-9.22818
165235.0,207.749,-7.0731900000000003,15.0342,185.89099999999999,-31.771999999999998,-46.261400000000002,-9.18215
165236.0,208.90199999999999,-24.040299999999998,3.0239199999999999,179.518,-31.925599999999999,-34.930500000000002,-9.3551400000000005
165237.0,209.893,-15.4064,15.6622,195.90199999999999,-32.403100000000002,-22.936499999999999,-9.5804299999999998
165238.0,211.06999999999999,-28.2577,5.7921899999999997,188.041,-33.386800000000001,-10.512,-9.9214099999999998
165239.0,212.43700000000001,-16.0685,19.712199999999999,202.37799999999999,-34.771799999999999,2.33704,-10.044
165240.0,213.72300000000001,-28.056899999999999,7.4896200000000004,189.041,-36.472999999999999,15.329700000000001,-10.0655
165241.0,215.358,-15.450799999999999,17.703199999999999,197.01300000000001,-38.724200000000003,28.2532,-9.8261900000000004
165242.0,216.90700000000001,-24.124199999999998,5.6394500000000001,180.364,-41.3825,41.031100000000002,-9.0447299999999995
165243.0,218.21000000000001,-8.5510300000000008,16.6646,184.559,-44.261600000000001,53.2121,-7.8729100000000001
165244.0,219.13,-14.0138,4.6165500000000002,164.22,-47.170999999999999,64.379999999999995,-6.1787099999999997
165245.0,219.61799999999999,5.7869299999999999,16.226199999999999,166.31800000000001,-49.930199999999999,74.153599999999997,-4.2262000000000004
165246.0,220.06399999999999,2.0845799999999999,3.13869,143.077,-52.469999999999999,82.512299999999996,-2.08081
165247.0,220.477,22.930599999999998,13.6294,143.089,-54.725000000000001,89.4114,0.073436600000000005
165248.0,220.75999999999999,22.859000000000002,2.3439199999999998,121.425,-56.593499999999999,94.791799999999995,1.99339
165249.0,220.559,44.924900000000001,12.893700000000001,121.608,-58.073399999999999,98.537099999999995,3.52868
165250.0,219.584,45.2684,1.47654,99.828999999999994,-59.139899999999997,100.622,4.7006699999999997
165251.0,217.83799999999999,71.495699999999999,16.0154,104.15000000000001,-59.970199999999998,100.998,5.9452999999999996
165252.0,215.86799999999999,75.657700000000006,8.5382599999999993,86.418700000000001,-60.477699999999999,100.224,7.0332299999999996
165253.0,213.33699999999999,97.135599999999997,19.3918,87.017700000000005,-60.409199999999998,98.3262,8.1788000000000007
165254.0,211.18600000000001,96.061599999999999,7.5161800000000003,64.7346,-60.7316,95.247900000000001,9.4876400000000007
165255.0,207.32300000000001,116.309,19.860499999999998,67.892700000000005,-60.292200000000001,90.638900000000007,12.3071
165256.0,201.74000000000001,106.818,4.4700600000000001,43.584699999999998,-61.634,82.683300000000003,16.2438
165257.0,197.10900000000001,97.028999999999996,-13.9148,20.200600000000001,-62.083500000000001,74.093500000000006,19.424900000000001
165258.0,190.33199999999999,60.209899999999998,-56.286200000000001,-28.899699999999999,-57.595100000000002,67.278800000000004,22.836200000000002
165259.0,185.732,81.352400000000003,-37.5792,-20.254200000000001,-53.886400000000002,61.185099999999998,26.894300000000001
165260.0,190.59999999999999,5.1686500000000004,13.454800000000001,169.126,-28.279399999999999,-52.055300000000003,-8.3215199999999996
165261.0,192.077,-11.493,2.7930000000000001,164.733,-28.614899999999999,-42.722099999999998,-8.5470500000000005
165262.0,193.28899999999999,-5.1584700000000003,14.166399999999999,181.09,-28.9618,-32.405500000000004,-8.7797800000000006
165263.0,194.358,-19.309200000000001,3.6127699999999998,174.27000000000001,-29.468800000000002,-21.340499999999999,-8.9909999999999997
165264.0,195.346,-11.6431,13.439500000000001,186.39599999999999,-30.218299999999999,-9.7406500000000005,-9.20838
165265.0,196.32400000000001,-24.332999999999998,1.4903999999999999,175.17099999999999,-31.354099999999999,2.1641300000000001,-9.3664699999999996
165266.0,197.50299999999999,-12.831899999999999,12.632,185.339,-33.013300000000001,14.1557,-9.3603000000000005
165267.0,198.84899999999999,-21.5136,2.4317600000000001,172.44200000000001,-35.083199999999998,26.1769,-9.0412300000000005
165268.0,200.02000000000001,-7.7345899999999999,12.8005,178.547,-37.346400000000003,37.927700000000002,-8.3868500000000008
165269.0,200.88300000000001,-13.010999999999999,2.3755999999999999,162.26400000000001,-39.741300000000003,48.952599999999997,-7.4232199999999997
165270.0,201.57900000000001,3.2305600000000001,12.3287,164.82300000000001,-42.255000000000003,58.989600000000003,-6.1480300000000003
165271.0,202.15799999999999,-1.26329,0.32071699999999997,144.32499999999999,-44.721899999999998,67.915199999999999,-4.5643700000000003
165272.0,202.696,18.4788,11.3233,146.31999999999999,-46.962200000000003,75.575500000000005,-2.8931200000000001
165273.0,203.34,18.168600000000001,1.2379899999999999,127.215,-48.861199999999997,81.965299999999999,-1.38914
165274.0,203.93700000000001,39.0642,11.7646,128.77799999999999,-50.406199999999998,87.033500000000004,-0.37028499999999998
165275.0,204.03800000000001,41.100900000000003,3.12507,111.142,-51.622999999999998,90.607100000000003,0.14322299999999999
165276.0,203.16999999999999,64.070700000000002,15.8529,114.206,-52.592599999999997,92.599500000000006,0.241532
165277.0,200.767,62.2669,4.4302900000000003,92.194900000000004,-52.770400000000002,93.061599999999999,0.070764999999999995
165278.0,197.92400000000001,81.724699999999999,13.3895,90.554199999999994,-52.605899999999998,92.2303,0.66322499999999995
165279.0,196.83099999999999,85.4178,6.1591800000000001,74.124499999999998,-53.411499999999997,90.664299999999997,1.7729999999999999
165280.0,194.59700000000001,107.93300000000001,19.652799999999999,78.350499999999997,-54.196199999999997,87.499700000000004,3.2108599999999998
165281.0,190.97800000000001,105.06999999999999,9.4777699999999996,58.595300000000002,-54.793300000000002,82.726200000000006,5.1544499999999998
165282.0,186.15000000000001,122.36,21.924900000000001,62.021500000000003,-54.980600000000003,76.706199999999995,9.3793500000000005
165283.0,181.74299999999999,113.456,8.99831,42.026400000000002,-56.121299999999998,69.343299999999999,14.1869
165284.0,176.81700000000001,119.71599999999999,8.6474200000000003,41.808599999999998,-55.174199999999999,61.269500000000001,19.295300000000001
165285.0,170.94200000000001,89.440899999999999,-26.421399999999998,0.56151499999999999,-53.334400000000002,52.045200000000001,22.624300000000002
165286.0,176.245,-4.5805800000000003,-2.9226800000000002,145.315,-24.370100000000001,-47.942,-7.3631500000000001
165287.0,177.376,-0.407528,6.85107,160.691,-24.434899999999999,-39.414700000000003,-7.6247999999999996
165288.0,178.46199999999999,-14.4369,-2.8264399999999998,155.80199999999999,-24.742699999999999,-29.895800000000001,-7.9859099999999996
165289.0,179.51900000000001,-8.0251699999999992,6.9809999999999999,169.03999999999999,-25.314299999999999,-19.797599999999999,-8.3381699999999999
165290.0,180.411,-18.704999999999998,-1.4677800000000001,162.53999999999999,-26.164300000000001,-9.0918200000000002,-8.6301199999999998
165291.0,181.35400000000001,-8.7236600000000006,9.4584200000000003,174.03999999999999,-27.302199999999999,1.9555800000000001,-8.78261
165292.0,182.245,-18.0458,-0.44011499999999998,163.256,-28.7102,13.174300000000001,-8.7776899999999998
165293.0,183.167,-6.6841900000000001,8.7944999999999993,170.197,-30.413,24.2652,-8.5688399999999998
165294.0,184.142,-13.1629,-1.0360100000000001,156.49000000000001,-32.4786,35.0002,-8.0973699999999997
165295.0,185.053,-0.102879,7.4065599999999998,159.565,-34.741199999999999,45.135800000000003,-7.3264899999999997
165296.0,185.755,-3.6789200000000002,-2.1899899999999999,143.352,-37.048999999999999,54.364100000000001,-6.30307
165297.0,186.36799999999999,13.912699999999999,8.2065099999999997,146.28899999999999,-39.256799999999998,62.500799999999998,-5.13957
165298.0,187.06299999999999,11.8073,-2.08317,128.08099999999999,-41.233600000000003,69.563400000000001,-3.9607899999999998
165299.0,188.06100000000001,29.743500000000001,6.7740200000000002,129.16399999999999,-42.832900000000002,75.580799999999996,-3.1591200000000002
165300.0,189.25,31.279299999999999,-1.3582799999999999,113.461,-44.1479,80.500100000000003,-2.95824
165301.0,189.77199999999999,50.805399999999999,8.7372899999999998,115.428,-45.250300000000003,83.995900000000006,-3.67239
165302.0,188.82499999999999,52.6922,1.2359,98.903499999999994,-46.280799999999999,85.674400000000006,-3.9849000000000001
165303.0,186.87200000000001,76.912999999999997,15.545,104.27500000000001,-47.923499999999997,85.219800000000006,-4.0864000000000003
165304.0,184.59200000000001,84.558700000000002,13.504,93.427099999999996,-48.444400000000002,84.139300000000006,-3.55742
165305.0,182.42099999999999,99.056100000000001,20.101900000000001,89.174800000000005,-47.996899999999997,83.229200000000006,-3.3490700000000002
165306.0,179.643,99.070499999999996,12.681699999999999,70.504999999999995,-48.046999999999997,80.638800000000003,-3.0059900000000002
165307.0,177.053,114.44,20.4224,68.764200000000002,-48.726399999999998,76.570300000000003,-1.25881
165308.0,171.47399999999999,110.623,12.4543,52.590200000000003,-48.990499999999997,70.433800000000005,2.0297700000000001
165309.0,166.34899999999999,118.95699999999999,17.259399999999999,48.591700000000003,-49.2286,63.679600000000001,5.7375800000000003
165310.0,160.20099999999999,118.773,16.8887,42.714799999999997,-47.348500000000001,58.029200000000003,11.837
165311.0,155.43199999999999,118.91,14.0038,34.190600000000003,-48.958599999999997,47.858600000000003,16.348400000000002
165312.0,162.90000000000001,11.3781,8.4363700000000001,148.77799999999999,-19.958300000000001,-44.492100000000001,-6.0874100000000002
165313.0,164.047,-2.2602799999999998,-0.68879999999999997,145.565,-19.988499999999998,-36.305199999999999,-6.7395500000000004
165314.0,165.22200000000001,2.4473799999999999,8.15212,158.84899999999999,-20.34,-27.716200000000001,-7.0916699999999997
165315.0,165.93100000000001,-9.6092300000000002,-0.83805499999999999,152.83199999999999,-20.900099999999998,-18.315899999999999,-7.6782899999999996
165316.0,166.67099999999999,-3.2838500000000002,7.3918600000000003,162.93700000000001,-21.6435,-8.4193800000000003,-8.0069599999999994
165317.0,167.31,-13.912100000000001,-2.58291,153.43299999999999,-22.652799999999999,1.81409,-8.2982999999999993
165318.0,168.02799999999999,-3.8995600000000001,6.8278999999999996,161.98500000000001,-23.975000000000001,12.1945,-8.3611400000000007
165319.0,168.85900000000001,-11.1157,-2.2732299999999999,150.67699999999999,-25.603999999999999,22.497399999999999,-8.2424499999999998
165320.0,169.69200000000001,1.35731,6.8741500000000002,156.316,-27.435199999999998,32.471699999999998,-7.8785800000000004
165321.0,170.583,-2.4636399999999998,-1.5881700000000001,143.19499999999999,-29.432600000000001,41.820099999999996,-7.38103
165322.0,171.31999999999999,12.0762,7.2850299999999999,146.13999999999999,-31.559200000000001,50.305599999999998,-6.6463999999999999
165323.0,172.18100000000001,7.6310200000000004,-3.8570199999999999,128.38,-33.619900000000001,57.885100000000001,-5.8805199999999997
165324.0,173.09899999999999,25.529599999999999,6.3788099999999996,131.64599999999999,-35.509700000000002,64.406700000000001,-5.0341699999999996
165325.0,174.857,25.5488,-2.1157300000000001,116.702,-36.991100000000003,70.233099999999993,-5.0312400000000004
165326.0,176.494,46.105499999999999,9.68703,122.081,-38.003999999999998,74.964699999999993,-5.5607199999999999
165327.0,178.18700000000001,47.686399999999999,2.6470600000000002,107.822,-39.221699999999998,78.733599999999996,-7.8601999999999999
165328.0,176.05199999999999,70.192400000000006,18.5884,114.583,-39.9786,79.738500000000002,-8.1721699999999995
165329.0,172.80799999999999,59.868899999999996,4.2524100000000002,83.390699999999995,-42.084800000000001,80.307699999999997,-9.0685900000000004
165330.0,171.38800000000001,61.302799999999998,-0.23392399999999999,69.535499999999999,-40.493099999999998,81.3797,-8.67563
165331.0,166.91200000000001,80.419700000000006,7.9708399999999999,71.854100000000003,-39.822899999999997,77.945599999999999,-7.6112700000000002
165332.0,166.91999999999999,111.91500000000001,26.998699999999999,81.569199999999995,-42.424199999999999,74.592399999999998,-8.4874899999999993
165333.0,165.27000000000001,105.8,14.382999999999999,61.3459,-42.882800000000003,71.599199999999996,-7.03775
165334.0,158.86500000000001,121.389,27.675599999999999,65.273799999999994,-43.9559,65.128200000000007,-3.8386800000000001
165335.0,153.60499999999999,113.13200000000001,14.8886,45.509799999999998,-43.837800000000001,58.447200000000002,-0.17622299999999999
165336.0,146.364,123.32599999999999,23.548500000000001,50.203299999999999,-42.537100000000002,51.446599999999997,3.9855
165337.0,142.113,110.057,8.0999400000000001,29.871500000000001,-43.362699999999997,43.601599999999998,8.2162500000000005
165338.0,150.917,1.8795900000000001,-5.3038999999999996,128.03100000000001,-15.5061,-41.303699999999999,-4.64682
165339.0,152.19399999999999,8.2099100000000007,5.8278800000000004,144.66200000000001,-15.5091,-33.6023,-5.8934199999999999
165340.0,153.21799999999999,-5.5774900000000001,-4.4549500000000002,138.58000000000001,-15.7044,-25.816199999999998,-6.2051600000000002
165341.0,153.59,1.03931,5.0543300000000002,150.62200000000001,-16.245000000000001,-16.9389,-6.992
165342.0,154.209,-9.0756300000000003,-3.3283900000000002,143.92400000000001,-17.003599999999999,-7.8361299999999998,-7.4443700000000002
165343.0,154.57499999999999,-0.076096800000000006,6.2963899999999997,153.75700000000001,-18.030899999999999,1.7165299999999999,-7.8388200000000001
165344.0,155.09399999999999,-8.0932999999999993,-2.39208,144.226,-19.244299999999999,11.361700000000001,-7.9748200000000002
165345.0,155.715,2.0802,5.7843,150.36799999999999,-20.691800000000001,20.970300000000002,-7.9521199999999999
165346.0,156.53800000000001,-2.9093499999999999,-2.4258600000000001,139.03399999999999,-22.4023,30.220600000000001,-7.7246300000000003
165347.0,157.54300000000001,7.9168700000000003,3.98455,141.31700000000001,-24.249099999999999,38.965699999999998,-7.4224199999999998
165348.0,158.399,6.0479500000000002,-3.44937,128.715,-26.224799999999998,46.836100000000002,-6.92814
165349.0,159.55600000000001,21.1479,5.0951500000000003,131.61099999999999,-28.116499999999998,53.924999999999997,-6.5784500000000001
165350.0,160.661,21.2666,-1.8976500000000001,118.55200000000001,-29.680199999999999,59.987699999999997,-6.29786
165351.0,163.18700000000001,35.277799999999999,4.1768200000000002,119.27200000000001,-30.7562,65.8339,-7.1951900000000002
165352.0,165.465,40.824100000000001,1.9504999999999999,111.684,-31.4664,70.447599999999994,-8.8079699999999992
165353.0,168.48099999999999,55.928899999999999,9.1684999999999999,112.11499999999999,-32.899900000000002,74.670599999999993,-12.123900000000001
165354.0,164.93000000000001,62.243400000000001,10.7042,104.265,-33.9788,74.554199999999994,-12.5891
165355.0,160.16800000000001,59.305399999999999,-0.37547900000000001,78.406499999999994,-37.623899999999999,72.310100000000006,-14.769
165356.0,159.238,39.634700000000002,-29.279399999999999,47.402700000000003,-35.893599999999999,71.960499999999996,-14.280200000000001
165357.0,153.42400000000001,93.499799999999993,20.454000000000001,87.316000000000003,-34.991,69.704400000000007,-11.065899999999999
165358.0,155.702,107.126,26.111999999999998,76.957499999999996,-38.083399999999997,69.272999999999996,-12.4696
165359.0,154.56100000000001,111.753,24.959399999999999,68.816000000000003,-37.576999999999998,67.342200000000005,-11.519399999999999
165360.0,148.02099999999999,111.13200000000001,21.472999999999999,55.5899,-39.256399999999999,60.3733,-8.33371
165361.0,142.33699999999999,114.77,22.854099999999999,50.8489,-39.378100000000003,54.436300000000003,-4.4300100000000002
165362.0,135.69499999999999,110.952,17.9618,40.756500000000003,-39.161799999999999,47.486199999999997,0.33178800000000003
165363.0,132.08699999999999,118.29000000000001,21.5381,40.779899999999998,-38.549399999999999,41.088299999999997,4.2689199999999996
165364.0,140.83600000000001,17.473500000000001,7.6147900000000002,134.542,-11.733000000000001,-38.387099999999997,-3.8622100000000001
165365.0,141.625,4.6966000000000001,-0.38402500000000001,131.02500000000001,-11.4488,-31.447099999999999,-4.8715099999999998
165366.0,142.41300000000001,9.1060700000000008,7.3104800000000001,142.548,-11.6555,-24.031600000000001,-5.5378100000000003
165367.0,142.727,-1.7081,-0.86904300000000001,136.77799999999999,-12.1319,-15.7835,-6.3005399999999998
165368.0,142.98099999999999,4.08995,6.4762899999999997,145.44300000000001,-12.805999999999999,-7.2700399999999998,-6.9288999999999996
165369.0,143.12100000000001,-5.2970199999999998,-2.4135200000000001,136.642,-13.7402,1.6271800000000001,-7.3848399999999996
165370.0,143.34299999999999,3.6390799999999999,5.8196899999999996,143.88999999999999,-14.9064,10.611800000000001,-7.6059200000000002
165371.0,143.86000000000001,-2.7486899999999999,-2.4963299999999999,133.66900000000001,-16.281099999999999,19.589500000000001,-7.6135299999999999
165372.0,144.65600000000001,8.6050500000000003,5.6507100000000001,139.07499999999999,-17.7607,28.244599999999998,-7.5098000000000003
165373.0,145.744,6.0118900000000002,-1.36347,128.58600000000001,-19.279499999999999,36.409999999999997,-7.4431900000000004
165374.0,146.672,19.567599999999999,6.9151300000000004,132.357,-20.699300000000001,43.7881,-7.4484899999999996
165375.0,147.84200000000001,15.8916,-2.9567000000000001,117.41800000000001,-21.9373,50.545699999999997,-7.5820999999999996
165376.0,149.495,32.881100000000004,7.0772899999999996,122.473,-23.064499999999999,56.431399999999996,-8.0580099999999995
165377.0,152.84899999999999,34.869799999999998,1.51403,112.688,-23.898099999999999,62.194600000000001,-9.6767599999999998
165378.0,156.66,54.667700000000004,14.5695,121.244,-24.568300000000001,67.154799999999994,-12.811500000000001
165379.0,159.74299999999999,58.003,11.3474,110.985,-25.928699999999999,71.2607,-16.4434
165380.0,155.69300000000001,74.824200000000005,25.2989,113.99299999999999,-29.008199999999999,70.450100000000006,-17.313199999999998
165381.0,149.88200000000001,58.023600000000002,3.99438,77.6892,-35.0687,67.658699999999996,-14.9838
165382.0,148.76599999999999,52.854599999999998,-5.2548199999999996,61.959099999999999,-36.685099999999998,67.706299999999999,-10.8462
165383.0,143.64099999999999,70.789400000000001,9.2155699999999996,68.755600000000001,-33.949100000000001,66.403599999999997,-9.6032100000000007
165384.0,142.96199999999999,105.827,32.779400000000003,80.077200000000005,-33.380000000000003,64.3874,-13.420299999999999
165385.0,144.387,106.599,24.088999999999999,63.547600000000003,-33.597700000000003,62.549500000000002,-14.314
165386.0,139.32900000000001,117.90900000000001,32.421500000000002,63.613,-35.089500000000001,56.954799999999999,-11.144
165387.0,132.35499999999999,107.226,21.051400000000001,46.359699999999997,-35.993899999999996,50.298999999999999,-7.1976100000000001
165388.0,125.85599999999999,114.98999999999999,26.982199999999999,48.037100000000002,-35.560099999999998,43.541200000000003,-2.7659099999999999
165389.0,121.892,107.351,16.511299999999999,34.477600000000002,-34.875500000000002,37.700099999999999,0.88397000000000003
165390.0,131.697,8.2644800000000007,-1.9691700000000001,117.78100000000001,-8.1723300000000005,-36.0229,-3.2448000000000001
165391.0,132.238,12.202999999999999,5.5603100000000003,129.72300000000001,-8.0382499999999997,-29.4956,-3.9763199999999999
165392.0,132.696,1.3037799999999999,-2.0920700000000001,125.38800000000001,-8.1313499999999994,-22.416899999999998,-4.9109800000000003
165393.0,132.95500000000001,6.4060699999999997,5.3551000000000002,135.11699999999999,-8.5549300000000006,-14.7942,-5.7145599999999996
165394.0,132.917,-2.1409899999999999,-1.76379,129.005,-9.2082300000000004,-6.7706999999999997,-6.4577499999999999
165395.0,132.773,5.7306699999999999,6.4887300000000003,137.14099999999999,-10.114800000000001,1.5109699999999999,-6.9577299999999997
165396.0,132.714,-1.41723,-1.3903399999999999,128.15700000000001,-11.1784,9.9292200000000008,-7.2230699999999999
165397.0,133.00800000000001,8.3331300000000006,6.39778,134.12799999999999,-12.3581,18.298999999999999,-7.2340900000000001
165398.0,133.94999999999999,3.6905199999999998,-1.3453200000000001,124.13500000000001,-13.529500000000001,26.4191,-7.3213100000000004
165399.0,135.03,14.858700000000001,5.7038700000000002,128.137,-14.539300000000001,34.029499999999999,-7.5777200000000002
165400.0,136.161,13.3916,-1.0958399999999999,117.667,-15.2933,41.001300000000001,-8.1827000000000005
165401.0,137.24000000000001,31.455300000000001,10.714499999999999,125.133,-15.803900000000001,47.264099999999999,-8.8560199999999991
165402.0,139.69999999999999,30.749500000000001,3.68472,113.771,-15.8948,53.403500000000001,-10.491300000000001
165403.0,143.65100000000001,47.814999999999998,14.3491,120.596,-15.754300000000001,59.289099999999998,-12.8171
165404.0,149.88399999999999,50.032899999999998,10.254899999999999,112.254,-16.6418,65.285700000000006,-17.501000000000001
165405.0,152.452,70.566900000000004,25.428999999999998,121.345,-18.692,68.387100000000004,-20.4544
165406.0,147.62100000000001,64.841399999999993,16.8919,98.889799999999994,-24.874600000000001,67.268000000000001,-20.5732
165407.0,139.13399999999999,44.566699999999997,-3.5153599999999998,62.339599999999997,-30.581700000000001,63.993000000000002,-16.174199999999999
165408.0,133.75,-9.5305499999999999,-57.8446,-3.41553,-32.7288,62.1173,-12.0107
165409.0,132.523,16.058199999999999,-37.175899999999999,16.157,-30.719000000000001,62.132300000000001,-10.182399999999999
165410.0,130.608,84.617199999999997,19.712199999999999,67.0,-30.318899999999999,59.299300000000002,-11.1334
165411.0,134.52500000000001,114.958,38.104599999999998,73.685299999999998,-32.147399999999998,57.591200000000001,-14.241099999999999
165412.0,131.42099999999999,103.12,22.500499999999999,51.305500000000002,-31.577100000000002,54.127200000000002,-12.7006
165413.0,123.184,111.58499999999999,30.736499999999999,52.8919,-32.9833,46.3613,-8.6863299999999999
165414.0,117.25700000000001,99.230400000000003,16.863800000000001,36.184899999999999,-32.744,40.4758,-4.14602
165415.0,112.62,109.34399999999999,24.831900000000001,41.587800000000001,-32.1706,34.503300000000003,-0.210068
165416.0,123.235,20.217600000000001,9.2791599999999992,122.254,-5.39872,-33.823399999999999,-2.58677
165417.0,123.72499999999999,8.7088999999999999,1.5759300000000001,118.464,-5.3693900000000001,-27.723099999999999,-3.4489800000000002
165418.0,124.041,12.377599999999999,8.2060899999999997,128.19499999999999,-5.45784,-21.0213,-4.3509500000000001
165419.0,124.06699999999999,3.1694499999999999,1.17035,123.113,-5.8071700000000002,-13.8863,-5.2511000000000001
165420.0,123.867,7.9238200000000001,7.2366799999999998,130.00999999999999,-6.39391,-6.3644999999999996,-6.0382300000000004
165421.0,123.313,0.336646,-0.032393699999999997,122.276,-7.2184999999999997,1.3676299999999999,-6.58195
165422.0,123.024,7.51105,6.3801199999999998,127.515,-8.1708999999999996,9.2481600000000004,-6.8336899999999998
165423.0,123.123,3.1337899999999999,0.13450599999999999,119.50700000000001,-9.0962099999999992,17.0046,-6.9016000000000002
165424.0,124.265,12.498100000000001,6.5648900000000001,124.20399999999999,-9.7667699999999993,24.6723,-7.15001
165425.0,125.586,13.2933,3.5577700000000001,118.795,-10.2392,31.706700000000001,-7.93642
165426.0,126.741,24.6904,11.059100000000001,122.447,-10.0253,38.374200000000002,-9.4714299999999998
165427.0,127.22,25.4086,7.25814,113.38800000000001,-9.1524999999999999,44.427199999999999,-10.7333
165428.0,130.94499999999999,40.602899999999998,15.8726,118.504,-8.3088300000000004,51.104900000000001,-12.8818
165429.0,136.30099999999999,50.9407,19.7682,119.91,-7.7725099999999996,57.000399999999999,-16.032699999999998
165430.0,144.63399999999999,65.066299999999998,27.5563,123.438,-9.0099599999999995,64.028999999999996,-21.390499999999999
165431.0,145.91399999999999,74.596000000000004,33.417499999999997,122.883,-12.257300000000001,66.464100000000002,-22.891400000000001
165432.0,138.703,71.611800000000002,25.916499999999999,98.361500000000007,-21.3491,64.451300000000003,-21.473099999999999
165433.0,131.36799999999999,7.5384799999999998,-41.031599999999997,23.7102,-28.7271,59.342300000000002,-16.445699999999999
165434.0,121.82299999999999,-25.5579,-77.411500000000004,-16.2012,-32.607999999999997,51.693399999999997,-11.1472
165435.0,120.971,-27.898700000000002,-83.222499999999997,-28.349399999999999,-31.927499999999998,52.575600000000001,-9.0808999999999997
165436.0,120.961,40.465800000000002,-15.925599999999999,29.026,-28.7837,55.570900000000002,-8.4843600000000006
165437.0,123.04000000000001,90.440600000000003,23.694500000000001,55.715299999999999,-29.815200000000001,53.824599999999997,-12.0762
165438.0,123.004,107.11,31.863,58.030700000000003,-29.415700000000001,50.516199999999998,-12.9183
165439.0,115.52,104.468,27.863600000000002,47.680700000000002,-30.1768,43.2179,-9.4272100000000005
165440.0,108.85299999999999,103.624,26.493300000000001,44.344299999999997,-30.1599,37.188000000000002,-5.1713800000000001
165441.0,103.999,98.644300000000001,19.569199999999999,35.928800000000003,-29.6191,31.380400000000002,-0.96849499999999999
165442.0,115.452,10.6959,0.23012099999999999,106.262,-3.5047899999999998,-31.812100000000001,-2.1429499999999999
165443.0,115.84999999999999,14.508599999999999,7.4226400000000003,117.19799999999999,-3.3227699999999998,-26.064599999999999,-3.0111599999999998
165444.0,116.06699999999999,4.4264400000000004,0.12915599999999999,112.746,-3.3972799999999999,-19.778600000000001,-3.9320400000000002
165445.0,116.001,9.3639200000000002,7.0960900000000002,121.489,-3.6879300000000002,-13.0701,-4.8818400000000004
165446.0,115.491,1.4821,0.371363,115.28,-4.2483000000000004,-6.0384900000000004,-5.6859599999999997
165447.0,114.72499999999999,8.7382299999999997,7.8902400000000004,122.16800000000001,-5.0190599999999996,1.20163,-6.2897800000000004
165448.0,113.94499999999999,2.4125299999999998,0.79802799999999996,113.58,-5.8091999999999997,8.48902,-6.4738899999999999
165449.0,114.264,11.629799999999999,8.3263200000000008,119.73,-6.38171,15.786799999999999,-6.6494600000000004
165450.0,115.503,8.4272200000000002,2.6424099999999999,112.691,-6.4271799999999999,22.761700000000001,-7.1897000000000002
165451.0,117.358,19.246099999999998,10.579000000000001,118.512,-6.4108000000000001,29.690000000000001,-8.4829600000000003
165452.0,118.38800000000001,19.784199999999998,6.89595,111.64400000000001,-6.1973500000000001,35.470300000000002,-10.6137
165453.0,118.486,40.589599999999997,22.4678,122.374,-5.09659,40.729900000000001,-12.716200000000001
165454.0,122.194,41.648099999999999,19.186599999999999,114.834,-3.15964,47.440800000000003,-14.6631
165455.0,129.964,57.927799999999998,31.864100000000001,123.779,-1.72827,55.060899999999997,-18.748999999999999
165456.0,139.03800000000001,62.667099999999998,30.2455,118.967,-2.1476999999999999,62.394100000000002,-23.0412
165457.0,137.99799999999999,78.406800000000004,40.459000000000003,120.185,-7.6246400000000003,64.325299999999999,-23.699999999999999
165458.0,131.27799999999999,37.8217,-5.5133299999999998,59.165599999999998,-18.4224,62.149500000000003,-21.367699999999999
165459.0,123.68600000000001,-20.390000000000001,-64.9435,-4.2653999999999996,-26.095500000000001,56.499699999999997,-15.440799999999999
165460.0,111.961,-34.230400000000003,-78.066400000000002,-21.912099999999999,-30.571100000000001,48.075800000000001,-7.83786
165461.0,109.886,-26.816299999999998,-77.066800000000001,-28.6233,-32.622399999999999,45.869700000000002,-6.65097
165462.0,112.61499999999999,-17.7134,-73.028700000000001,-27.488900000000001,-28.368600000000001,49.747900000000001,-8.7282100000000007
165463.0,112.033,64.757300000000001,3.9135599999999999,38.987400000000001,-26.331600000000002,49.441899999999997,-10.643000000000001
165464.0,113.55,98.101200000000006,28.9635,52.439100000000003,-28.049800000000001,46.081899999999997,-12.3101
165465.0,108.879,103.92100000000001,31.550000000000001,49.609699999999997,-27.908999999999999,40.689399999999999,-9.9047199999999993
165466.0,100.67100000000001,92.011399999999995,20.0122,36.357500000000002,-27.806100000000001,33.944600000000001,-5.2985300000000004
165467.0,96.178299999999993,96.730400000000003,22.666799999999999,38.856999999999999,-27.294699999999999,28.653600000000001,-1.11561
165468.0,108.184,21.360099999999999,11.293699999999999,110.741,-2.10541,-29.943200000000001,-1.8805799999999999
165469.0,108.536,10.0625,3.2980399999999999,106.22499999999999,-1.9610099999999999,-24.5151,-2.7123400000000002
165470.0,108.69499999999999,14.4712,10.32,115.878,-1.97275,-18.632100000000001,-3.6487099999999999
165471.0,108.51300000000001,4.9490699999999999,2.6839499999999998,109.82299999999999,-2.2424900000000001,-12.327199999999999,-4.5791599999999999
165472.0,107.828,10.8087,9.6508299999999991,117.066,-2.7389100000000002,-5.7704700000000004,-5.4626599999999996
165473.0,106.68000000000001,2.34117,1.3801099999999999,107.84699999999999,-3.46983,0.98471799999999998,-5.9951699999999999
165474.0,105.68600000000001,10.907,9.3363899999999997,114.137,-4.0588300000000004,7.7098699999999996,-6.34145
165475.0,105.91500000000001,5.0481299999999996,1.97644,105.557,-4.2194799999999999,14.432600000000001,-6.3110099999999996
165476.0,108.249,16.937799999999999,12.195499999999999,115.273,-3.6673499999999999,21.171199999999999,-7.6202199999999998
165477.0,110.288,16.0138,8.9840199999999992,110.681,-3.0751900000000001,27.151599999999998,-9.0670300000000008
165478.0,109.872,29.455200000000001,20.604399999999998,115.821,-4.6865800000000002,33.255000000000003,-11.349399999999999
165479.0,110.361,21.653700000000001,10.9335,100.682,-5.7079800000000001,38.302,-12.557499999999999
165480.0,111.358,44.331299999999999,28.489000000000001,115.226,-4.2426199999999996,42.528399999999998,-13.170299999999999
165481.0,121.13200000000001,51.216999999999999,27.966000000000001,113.422,-2.2874400000000001,51.098599999999998,-17.959
165482.0,129.654,79.386399999999995,49.959699999999998,134.36500000000001,-1.5228999999999999,57.838000000000001,-20.503299999999999
165483.0,128.352,69.583500000000001,34.491900000000001,104.492,-8.0690600000000003,60.913200000000003,-22.155200000000001
165484.0,125.271,10.379200000000001,-30.1328,30.3127,-15.571899999999999,60.1372,-20.5732
165485.0,114.12,-38.423499999999997,-83.331800000000001,-24.080300000000001,-20.821000000000002,52.126100000000001,-15.326599999999999
165486.0,103.459,-30.6282,-78.1828,-23.407299999999999,-25.904499999999999,43.610599999999998,-10.4575
165487.0,100.331,-41.880600000000001,-91.354799999999997,-43.4559,-29.728200000000001,40.148200000000003,-8.3078699999999994
165488.0,103.806,-23.178699999999999,-77.254000000000005,-32.200099999999999,-28.372199999999999,43.280200000000001,-8.6298700000000004
165489.0,104.496,35.182499999999997,-22.6858,15.348800000000001,-24.652200000000001,45.608899999999998,-9.3334600000000005
165490.0,104.05200000000001,100.511,37.462899999999998,59.6753,-26.1008,42.104999999999997,-11.497199999999999
165491.0,101.78700000000001,95.099900000000005,27.398499999999999,43.276800000000001,-26.052199999999999,37.675800000000002,-10.0886
165492.0,93.224800000000002,97.719399999999993,29.8276,45.749299999999998,-25.425999999999998,31.047699999999999,-5.0897800000000002
165493.0,88.718900000000005,86.8262,17.121600000000001,33.968200000000003,-25.282699999999998,25.7074,-0.91920100000000005
165494.0,101.339,11.3568,2.0031400000000001,95.063599999999994,-1.1960999999999999,-28.159700000000001,-1.7406699999999999
165495.0,101.605,16.118099999999998,9.8480100000000004,106.126,-1.0061,-23.069299999999998,-2.5141800000000001
165496.0,101.863,5.5155200000000004,1.73756,100.596,-0.96630499999999997,-17.548300000000001,-3.4461400000000002
165497.0,101.449,11.8688,9.82456,109.937,-1.2382200000000001,-11.667400000000001,-4.3539899999999996
165498.0,100.819,2.4951500000000002,1.4665299999999999,101.881,-1.6798299999999999,-5.4926899999999996,-5.30802
165499.0,99.074799999999996,11.8752,10.9565,109.88200000000001,-2.4165199999999998,0.64946800000000005,-5.7946999999999997
165500.0,98.242000000000004,2.7112099999999999,1.3492599999999999,98.765900000000002,-2.8027500000000001,7.0339999999999998,-6.3329399999999998
165501.0,97.959299999999999,16.138400000000001,13.7646,109.652,-2.5636800000000002,12.797700000000001,-6.1246
165502.0,102.181,8.1569599999999998,4.8328199999999999,101.471,-1.42767,20.043299999999999,-8.1858699999999995
165503.0,104.69499999999999,26.874199999999998,22.2803,118.839,-0.61276399999999998,24.537500000000001,-9.1744900000000005
165504.0,101.473,15.562900000000001,8.8005399999999998,94.896900000000002,-3.6316899999999999,31.1065,-12.626899999999999
165505.0,101.654,-14.6266,-20.715699999999998,58.545999999999999,-5.9628199999999998,35.969200000000001,-13.0227
165506.0,99.944500000000005,-16.3764,-22.3066,52.6768,-7.1082099999999997,37.878799999999998,-10.3261
165507.0,108.824,13.7159,2.5134699999999999,75.362099999999998,-6.99024,46.803199999999997,-13.0136
165508.0,117.212,27.681100000000001,11.4375,82.559200000000004,-5.4187099999999999,54.209499999999998,-14.9183
165509.0,119.245,24.166699999999999,-2.6698200000000001,57.421799999999998,-9.3531700000000004,58.208799999999997,-18.917400000000001
165510.0,117.78,-25.3447,-63.913400000000003,-4.0385900000000001,-12.252599999999999,56.345300000000002,-19.442499999999999
165511.0,106.17100000000001,-17.582999999999998,-61.3797,-5.8422599999999996,-16.860099999999999,48.781799999999997,-15.3872
165512.0,98.179599999999994,-24.1736,-69.229699999999994,-21.309100000000001,-22.853200000000001,42.868299999999998,-11.4313
165513.0,92.986000000000004,-25.799299999999999,-72.302999999999997,-28.115500000000001,-26.184899999999999,37.948399999999999,-8.3458100000000002
165514.0,94.8322,-27.219899999999999,-77.953999999999994,-37.252699999999997,-26.1004,39.045200000000001,-8.3717500000000005
165515.0,97.581299999999999,29.234200000000001,-24.017099999999999,11.726100000000001,-22.857700000000001,42.662599999999998,-9.7378499999999999
165516.0,96.069900000000004,86.000699999999995,27.937100000000001,48.5167,-23.561699999999998,39.088200000000001,-11.2592
165517.0,94.334999999999994,99.966099999999997,36.7517,50.816299999999998,-24.030100000000001,34.521799999999999,-9.7758199999999995
165518.0,86.094800000000006,81.386099999999999,18.0137,33.137599999999999,-23.442399999999999,28.3811,-4.5042900000000001
165519.0,81.533799999999999,83.518000000000001,18.652699999999999,34.744,-23.086500000000001,23.281099999999999,-0.18904199999999999
165520.0,94.813699999999997,21.190000000000001,12.4016,99.407399999999996,-0.62924999999999998,-26.441099999999999,-1.6784399999999999
165521.0,95.101299999999995,11.8531,6.0101500000000003,96.054400000000001,-0.46169900000000003,-21.679300000000001,-2.4268900000000002
165522.0,95.373800000000003,14.8728,11.3992,103.887,-0.39759299999999997,-16.5152,-3.2982999999999998
165523.0,94.927400000000006,7.4411800000000001,5.5774100000000004,99.181399999999996,-0.66033799999999998,-11.037699999999999,-4.2305900000000003
165524.0,94.173299999999998,11.4123,10.4984,104.238,-1.0786899999999999,-5.2588600000000003,-5.1597200000000001
165525.0,92.222399999999993,5.5782299999999996,4.7672299999999996,96.795100000000005,-1.8017099999999999,0.33962900000000001,-5.76553
165526.0,91.1357,11.0467,9.9476899999999997,100.25,-2.0460099999999999,6.2505499999999996,-6.3097200000000004
165527.0,90.974800000000002,8.8901599999999998,7.4258300000000004,96.270399999999995,-1.50589,11.3094,-6.3377299999999996
165528.0,96.203900000000004,16.465599999999998,14.7821,105.072,0.21462899999999999,18.613099999999999,-8.41873
165529.0,99.8399,22.0883,20.1599,111.23,1.16046,22.922599999999999,-9.4126200000000004
165530.0,94.542299999999997,27.9695,20.441299999999998,101.38500000000001,-3.5573800000000002,28.327300000000001,-12.8293
165531.0,92.5959,-39.270600000000002,-52.156999999999996,22.631799999999998,-7.8409500000000003,31.756499999999999,-13.765499999999999
165532.0,89.255099999999999,-66.631299999999996,-78.962199999999996,-6.8276500000000002,-8.6971699999999998,31.525200000000002,-9.8672799999999992
165533.0,94.476399999999998,-57.149900000000002,-70.568299999999994,-3.01355,-7.9651800000000001,38.8142,-11.2341
165534.0,104.262,-34.7849,-51.924599999999998,13.5113,-6.1260700000000003,47.135800000000003,-14.5901
165535.0,110.16800000000001,-31.062999999999999,-58.143900000000002,1.64737,-8.0187000000000008,52.535800000000002,-18.026900000000001
165536.0,109.16500000000001,-13.087999999999999,-48.172199999999997,9.5574700000000004,-10.3743,52.102699999999999,-17.4344
165537.0,100.923,-7.5426200000000003,-47.5762,1.4214800000000001,-14.8154,47.450099999999999,-15.604699999999999
165538.0,93.051599999999993,-17.986499999999999,-60.665199999999999,-17.939299999999999,-18.3443,41.9681,-13.436400000000001
165539.0,85.633700000000005,-35.007199999999997,-78.862700000000004,-41.2971,-21.428599999999999,36.420299999999997,-9.8192500000000003
165540.0,88.296000000000006,-24.296500000000002,-71.406199999999998,-35.902500000000003,-21.720600000000001,37.797199999999997,-9.7925000000000004
165541.0,90.072900000000004,28.834199999999999,-20.8156,11.8703,-19.4283,39.409100000000002,-11.703200000000001
165542.0,90.257400000000004,93.521299999999997,37.649900000000002,55.3035,-21.331600000000002,36.080800000000004,-11.9565
165543.0,87.345500000000001,90.447299999999998,31.765599999999999,44.932000000000002,-21.682500000000001,32.2699,-9.1385699999999996
165544.0,78.581299999999999,85.555599999999998,26.2746,40.970500000000001,-21.462499999999999,25.0321,-4.2538499999999999
165545.0,75.109200000000001,70.916799999999995,8.9388000000000005,26.675000000000001,-20.677399999999999,20.8186,-0.79616600000000004
165546.0,88.555400000000006,12.5031,4.3073199999999998,85.487499999999997,-0.341447,-24.772200000000002,-1.6980299999999999
165547.0,88.959500000000006,16.858000000000001,11.4559,95.6053,-0.15071399999999999,-20.340299999999999,-2.3681899999999998
165548.0,89.214200000000005,7.3952200000000001,4.2140599999999999,90.637,-0.096001500000000003,-15.534700000000001,-3.2168899999999998
165549.0,88.831999999999994,12.8879,11.1983,98.717799999999997,-0.33594000000000002,-10.4092,-4.1265999999999998
165550.0,87.941599999999994,4.9037800000000002,4.0334300000000001,91.513400000000004,-0.76817299999999999,-5.0729499999999996,-5.0789600000000004
165551.0,85.973600000000005,12.629,11.779400000000001,97.552499999999995,-1.4728699999999999,0.105464,-5.7748900000000001
165552.0,84.544799999999995,5.3674299999999997,4.4204499999999998,88.127499999999998,-1.6908300000000001,5.3742599999999996,-6.4314099999999996
165553.0,84.679900000000004,16.229600000000001,15.4223,97.880899999999997,-0.99996700000000005,10.0154,-6.6645700000000003
165554.0,90.263599999999997,11.3653,11.4825,95.451099999999997,1.0753299999999999,16.918800000000001,-8.6547599999999996
165555.0,94.876099999999994,27.092600000000001,27.048400000000001,112.599,2.1635200000000001,21.5198,-9.7117400000000007
165556.0,88.784899999999993,20.217500000000001,14.0985,89.788799999999995,-3.7140599999999999,26.4574,-12.084
165557.0,85.333100000000002,-28.400500000000001,-43.216900000000003,26.307600000000001,-10.872999999999999,28.471699999999998,-12.5444
165558.0,82.376099999999994,-73.383600000000001,-93.919899999999998,-21.858599999999999,-13.1599,25.209199999999999,-8.6615199999999994
165559.0,84.709400000000002,-58.951700000000002,-82.884500000000003,-12.973100000000001,-12.2254,29.625499999999999,-10.117000000000001
165560.0,94.338899999999995,-53.308700000000002,-78.976600000000005,-10.9613,-9.6264299999999992,38.609000000000002,-14.268000000000001
165561.0,101.334,-34.857300000000002,-63.754399999999997,-2.4609700000000001,-8.83582,46.108499999999999,-16.690200000000001
165562.0,101.09099999999999,-27.372,-57.450800000000001,-5.7516400000000001,-9.3803800000000006,48.609499999999997,-16.775600000000001
165563.0,96.332300000000004,-16.566299999999998,-50.278599999999997,-8.4346300000000003,-12.7256,46.840400000000002,-15.655200000000001
165564.0,87.299800000000005,-18.7058,-57.029699999999998,-19.017399999999999,-15.8432,40.661299999999997,-12.2654
165565.0,81.351299999999995,-21.2698,-64.849199999999996,-30.942900000000002,-18.497199999999999,35.097299999999997,-10.4076
165566.0,84.252399999999994,-14.569599999999999,-60.910299999999999,-25.633700000000001,-16.9665,36.763500000000001,-11.8752
165567.0,83.944299999999998,65.025800000000004,17.729900000000001,46.110999999999997,-16.850899999999999,36.636000000000003,-12.4917
165568.0,85.936700000000002,93.065200000000004,39.639299999999999,53.169600000000003,-19.782299999999999,34.044600000000003,-11.8246
165569.0,80.492999999999995,86.911600000000007,32.389699999999998,45.057499999999997,-19.315200000000001,30.015999999999998,-8.4572099999999999
165570.0,71.700400000000002,76.867999999999995,20.8369,36.576500000000003,-19.3584,22.186,-3.40293
165571.0,69.562600000000003,76.688900000000004,17.5654,37.417200000000001,-19.0185,18.5989,-0.19877600000000001
165572.0,82.579999999999998,22.611899999999999,14.7354,90.518000000000001,-0.30914799999999998,-23.1069,-1.7559400000000001
165573.0,83.119900000000001,12.647600000000001,7.4110500000000004,86.083699999999993,-0.137963,-19.036899999999999,-2.3672900000000001
165574.0,83.4071,16.666799999999999,13.527200000000001,94.363,-0.087445300000000004,-14.5579,-3.18499
165575.0,83.052899999999994,8.9117999999999995,7.1339199999999998,88.999099999999999,-0.330704,-9.8097799999999999,-4.05159
165576.0,82.211500000000001,13.458399999999999,12.426399999999999,94.238200000000006,-0.75871,-4.8563400000000003,-5.0478899999999998
165577.0,80.1464,7.5258599999999998,6.4370599999999998,86.451899999999995,-1.4850699999999999,-0.15135100000000001,-5.7828099999999996
165578.0,78.741500000000002,12.8415,11.799200000000001,89.727699999999999,-1.7318800000000001,4.6255100000000002,-6.6916599999999997
165579.0,78.631500000000003,10.2972,9.7699300000000004,86.255099999999999,-1.05416,8.6584299999999992,-6.9457000000000004
165580.0,84.729699999999994,17.137499999999999,18.397200000000002,96.595399999999998,1.0378700000000001,15.391400000000001,-9.13157
165581.0,89.425200000000004,23.553899999999999,25.1965,105.264,2.2716400000000001,19.693300000000001,-9.5376999999999992
165582.0,83.255600000000001,29.453099999999999,23.113900000000001,93.9148,-3.7016100000000001,25.1508,-11.380800000000001
165583.0,80.191000000000003,-40.004899999999999,-55.2318,10.3415,-11.2729,26.5381,-11.5946
165584.0,76.325500000000005,-71.777600000000007,-89.839100000000002,-23.230599999999999,-14.863,21.714200000000002,-7.9263199999999996
165585.0,78.407600000000002,-62.564999999999998,-82.456699999999998,-18.537299999999998,-15.333,25.7136,-9.1100700000000003
165586.0,87.263999999999996,-42.558300000000003,-63.325699999999998,-0.77765600000000001,-12.5586,34.703299999999999,-12.7059
165587.0,93.081800000000001,-34.295099999999998,-57.617400000000004,-1.6971799999999999,-10.1755,41.920099999999998,-15.437099999999999
165588.0,94.267499999999998,-20.1599,-47.722700000000003,0.25378600000000001,-9.4570100000000004,44.947299999999998,-16.514700000000001
165589.0,90.535600000000002,-24.224499999999999,-58.283000000000001,-16.747299999999999,-11.241199999999999,43.4786,-15.0098
165590.0,81.844099999999997,-21.5063,-59.426600000000001,-23.514199999999999,-14.3345,37.942300000000003,-11.5083
165591.0,78.7363,-30.641400000000001,-72.305400000000006,-40.051299999999998,-16.4206,34.920200000000001,-9.9975400000000008
165592.0,80.301100000000005,19.092199999999998,-23.0105,9.6054300000000001,-14.417199999999999,36.554699999999997,-10.843299999999999
165593.0,79.917599999999993,77.705500000000001,34.098999999999997,54.353400000000001,-15.4587,35.659199999999998,-11.9251
165594.0,81.396100000000004,95.811300000000003,46.225900000000003,55.888300000000001,-17.497199999999999,32.910499999999999,-11.322900000000001
165595.0,73.777600000000007,78.424599999999998,26.924800000000001,39.510899999999999,-17.259,27.252500000000001,-7.2793299999999999
165596.0,65.684600000000003,81.953400000000002,28.996400000000001,45.649099999999997,-17.113099999999999,20.174600000000002,-2.23373
165597.0,63.796599999999998,70.605000000000004,15.3764,34.934600000000003,-17.2485,16.573899999999998,0.53082600000000002
165598.0,76.943299999999994,13.940099999999999,6.2835400000000003,77.034800000000004,-0.43434,-21.502700000000001,-1.8208899999999999
165599.0,77.522900000000007,18.208100000000002,13.0039,86.506699999999995,-0.27368399999999998,-17.749700000000001,-2.3938100000000002
165600.0,77.937799999999996,9.0688800000000001,5.83202,81.483800000000002,-0.23017299999999999,-13.605600000000001,-3.1625200000000002
165601.0,77.570899999999995,14.992100000000001,12.9551,89.541399999999996,-0.483547,-9.2181300000000004,-4.0006300000000001
165602.0,76.902500000000003,6.5160299999999998,5.1080500000000004,81.779399999999995,-0.90215400000000001,-4.6097299999999999,-5.0090300000000001
165603.0,74.7864,15.1907,13.548999999999999,88.401600000000002,-1.6674899999999999,-0.388318,-5.8162799999999999
165604.0,73.589299999999994,6.3046300000000004,4.7152200000000004,77.680199999999999,-2.02454,4.0228200000000003,-6.9306000000000001
165605.0,73.015100000000004,18.7803,17.898399999999999,89.064499999999995,-1.58084,7.3031800000000002,-7.32714
165606.0,79.239500000000007,10.324,11.623200000000001,84.604799999999997,0.194656,14.029400000000001,-9.4071599999999993
165607.0,83.807699999999997,29.395399999999999,31.648099999999999,106.818,1.6564700000000001,17.546399999999998,-9.4326799999999995
165608.0,77.777600000000007,18.2164,12.539099999999999,78.000699999999995,-3.83135,23.900500000000001,-10.736499999999999
165609.0,76.651700000000005,-40.1357,-55.584200000000003,7.3886799999999999,-10.601000000000001,25.541899999999998,-10.797599999999999
165610.0,72.539100000000005,-72.900599999999997,-93.900000000000006,-27.986599999999999,-13.7408,18.889700000000001,-8.6338799999999996
165611.0,74.164900000000003,-53.496299999999998,-76.033299999999997,-14.0037,-14.7706,22.3505,-11.396800000000001
165612.0,81.259900000000002,-56.895000000000003,-76.571399999999997,-17.3963,-12.4101,30.558299999999999,-14.320399999999999
165613.0,85.588700000000003,-36.299500000000002,-57.8399,-5.25692,-11.0678,37.198599999999999,-15.388500000000001
165614.0,87.642200000000003,-35.760300000000001,-61.908999999999999,-15.4886,-11.0177,40.906799999999997,-14.9678
165615.0,83.844700000000003,-20.8506,-53.694699999999997,-12.4636,-12.111499999999999,39.813400000000001,-11.6904
165616.0,78.433899999999994,-28.882400000000001,-67.686700000000002,-31.793500000000002,-14.983599999999999,35.633200000000002,-9.44956
165617.0,76.3626,-18.443000000000001,-58.5627,-26.1919,-14.6067,34.4161,-9.6441400000000002
165618.0,76.170000000000002,23.977799999999998,-13.3104,14.2502,-12.155900000000001,35.9801,-10.8407
165619.0,76.940899999999999,88.793400000000005,47.792299999999997,62.161099999999998,-13.996700000000001,34.688200000000002,-11.887700000000001
165620.0,76.217200000000005,87.870000000000005,40.510599999999997,49.830399999999997,-15.3803,31.1096,-10.125500000000001
165621.0,67.327100000000002,80.8553,31.4467,45.220700000000001,-15.4369,24.315899999999999,-5.5939399999999999
165622.0,60.554099999999998,69.279300000000006,18.169799999999999,36.905799999999999,-15.2227,17.871099999999998,-1.61711
165623.0,59.146299999999997,71.595200000000006,18.477,40.007899999999999,-15.6417,14.4079,0.17081299999999999
165624.0,71.538700000000006,23.5595,15.6623,81.839699999999993,-0.75897899999999996,-19.8797,-1.93676
165625.0,72.258600000000001,14.8757,9.2918500000000002,78.153999999999996,-0.62026499999999996,-16.469000000000001,-2.4368500000000002
165626.0,72.715800000000002,18.215,14.4344,85.357699999999994,-0.60275900000000004,-12.649800000000001,-3.1714500000000001
165627.0,72.457899999999995,11.6372,8.9376999999999995,80.8035,-0.84997,-8.6129999999999995,-3.9771100000000001
165628.0,71.887200000000007,15.3689,13.1677,85.182299999999998,-1.2907,-4.3621100000000004,-4.94156
165629.0,70.004400000000004,10.682399999999999,8.1538900000000005,78.5458,-2.06806,-0.53486,-5.8737000000000004
165630.0,68.862099999999998,14.5288,11.866199999999999,80.524100000000004,-2.5812200000000001,3.44563,-7.0283100000000003
165631.0,68.204499999999996,12.6761,10.723100000000001,77.502300000000005,-2.4715600000000002,6.2447600000000003,-7.8248499999999996
165632.0,73.380399999999995,16.752199999999998,16.900600000000001,85.064099999999996,-1.0969599999999999,12.370799999999999,-9.4086099999999995
165633.0,78.006,24.063500000000001,25.657399999999999,96.021600000000007,0.18909799999999999,15.894500000000001,-9.3293900000000001
165634.0,73.837800000000001,28.909400000000002,23.184100000000001,85.939599999999999,-2.93573,22.051600000000001,-10.887499999999999
165635.0,73.013199999999998,-46.340899999999998,-59.537399999999998,-0.18277599999999999,-7.3454899999999999,24.840699999999998,-11.6051
165636.0,69.635499999999993,-75.760900000000007,-89.820999999999998,-30.125,-11.7818,20.316800000000001,-9.5285399999999996
165637.0,71.639700000000005,-64.236699999999999,-80.999600000000001,-23.999700000000001,-15.084300000000001,22.101400000000002,-11.6866
165638.0,77.127799999999993,-48.300699999999999,-67.078999999999994,-10.956200000000001,-14.4261,27.363499999999998,-14.4864
165639.0,79.063500000000005,-40.006,-62.398400000000002,-10.4993,-13.622199999999999,32.167000000000002,-13.6309
165640.0,81.067999999999998,-30.8765,-57.9298,-11.9908,-13.320600000000001,36.246899999999997,-12.8935
165641.0,78.356800000000007,-28.940200000000001,-60.662700000000001,-18.598199999999999,-11.758800000000001,36.345999999999997,-10.3367
165642.0,74.635999999999996,-29.248899999999999,-66.527500000000003,-33.393900000000002,-13.553000000000001,34.172199999999997,-9.3794400000000007
165643.0,74.880399999999995,-26.883900000000001,-64.079700000000003,-34.727400000000003,-12.6275,34.876100000000001,-10.4306
165644.0,72.754400000000004,40.909100000000002,6.1225199999999997,31.564,-10.580399999999999,34.620600000000003,-11.3908
165645.0,73.084000000000003,83.617699999999999,43.805700000000002,55.101199999999999,-13.0029,32.624299999999998,-11.226900000000001
165646.0,70.594700000000003,84.767600000000002,39.718600000000002,49.724200000000003,-13.2715,29.3066,-8.1610700000000005
165647.0,61.299300000000002,73.401600000000002,25.557400000000001,41.326799999999999,-13.776,21.315899999999999,-3.7373500000000002
165648.0,56.541899999999998,72.432000000000002,22.8123,44.002899999999997,-13.975,15.8179,-0.51211700000000004
165649.0,55.772599999999997,66.189700000000002,14.882099999999999,39.038600000000002,-14.5718,12.843400000000001,0.840642
165650.0,66.293300000000002,16.8353,8.5634800000000002,70.411199999999994,-1.1410400000000001,-18.225999999999999,-2.0299399999999999
165651.0,67.377200000000002,19.172599999999999,13.0456,77.691400000000002,-0.98647399999999996,-15.253,-2.4671500000000002
165652.0,67.679100000000005,12.232900000000001,7.6928900000000002,74.166300000000007,-1.0227599999999999,-11.6846,-3.1728900000000002
165653.0,67.729399999999998,16.5276,12.972899999999999,80.587199999999996,-1.2394799999999999,-8.0009899999999998,-3.9428800000000002
165654.0,67.089600000000004,9.9813500000000008,6.6820300000000001,74.384,-1.71784,-4.1124799999999997,-4.8428699999999996
165655.0,65.769499999999994,16.6816,12.9214,79.547200000000004,-2.4742600000000001,-0.55040299999999998,-5.8805500000000004
165656.0,64.487799999999993,10.075100000000001,5.8223000000000003,70.736699999999999,-3.1831100000000001,2.8670800000000001,-7.0173100000000002
165657.0,64.254599999999996,19.228100000000001,15.3324,78.784599999999998,-3.4928300000000001,5.5930600000000004,-8.2471599999999992
165658.0,67.576400000000007,13.3644,11.3264,75.2774,-2.6540699999999999,10.328200000000001,-9.3430300000000006
165659.0,71.849400000000003,25.9514,25.823499999999999,90.889399999999995,-1.5031699999999999,14.700200000000001,-9.69557
165660.0,71.581400000000002,21.825299999999999,16.726600000000001,78.700299999999999,-2.3391600000000001,20.065000000000001,-10.7845
165661.0,71.337400000000002,2.5053899999999998,-10.7578,48.437600000000003,-3.0428999999999999,23.2898,-13.4054
165662.0,70.281800000000004,-46.398600000000002,-62.1905,-3.7182599999999999,-3.74987,22.204000000000001,-14.981
165663.0,69.567300000000003,-47.897199999999998,-65.032700000000006,-10.8634,-8.5554600000000001,23.239599999999999,-15.276
165664.0,74.551000000000002,-60.436199999999999,-80.012500000000003,-27.046800000000001,-13.9396,26.517800000000001,-15.4231
165665.0,73.382300000000001,-44.345100000000002,-69.146799999999999,-15.8569,-14.9793,26.577000000000002,-12.376899999999999
165666.0,75.845299999999995,-49.724699999999999,-81.740300000000005,-35.127899999999997,-15.4284,31.146999999999998,-11.8689
165667.0,76.116500000000002,-23.008199999999999,-54.807899999999997,-7.5476400000000003,-10.975199999999999,33.183900000000001,-11.357100000000001
165668.0,70.367500000000007,2.4935399999999999,-35.607799999999997,-2.8446099999999999,-10.885999999999999,31.053899999999999,-11.9194
165669.0,75.427999999999997,5.45458,-32.228499999999997,-6.3814200000000003,-10.8179,35.209099999999999,-12.976599999999999
165670.0,69.278499999999994,45.429699999999997,14.277100000000001,37.847200000000001,-9.5337099999999992,33.513599999999997,-11.039300000000001
165671.0,67.447000000000003,95.293300000000002,55.227699999999999,66.162499999999994,-12.3224,29.192900000000002,-9.1320700000000006
165672.0,65.301900000000003,75.919399999999996,30.153600000000001,45.934600000000003,-11.754,26.538799999999998,-6.2081299999999997
165673.0,56.1312,76.868899999999996,29.451899999999998,49.329099999999997,-12.599500000000001,17.8672,-2.2946399999999998
165674.0,53.321199999999997,56.9101,7.9834199999999997,31.9482,-12.6631,13.7402,-0.17552499999999999
165675.0,52.689500000000002,64.930999999999997,15.376300000000001,41.4589,-13.488,11.3239,0.86651400000000001
165676.0,61.480200000000004,27.465299999999999,18.2882,76.428700000000006,-1.63788,-16.612100000000002,-2.0740699999999999
165677.0,62.721800000000002,15.8302,8.6244700000000005,69.512299999999996,-1.4733000000000001,-13.997299999999999,-2.5312399999999999
165678.0,63.0122,22.448799999999999,16.638400000000001,79.232500000000002,-1.5571600000000001,-10.722799999999999,-3.1748799999999999
165679.0,63.238199999999999,13.174300000000001,8.2248400000000004,72.043099999999995,-1.75813,-7.36531,-3.9011
165680.0,62.689799999999998,20.086300000000001,15.2234,79.178200000000004,-2.2646299999999999,-3.8388399999999998,-4.7454900000000002
165681.0,61.831600000000002,12.314299999999999,6.8885699999999996,70.2119,-2.9863300000000002,-0.52594300000000005,-5.76945
165682.0,60.723999999999997,19.791899999999998,13.5573,75.422300000000007,-3.8233000000000001,2.4145099999999999,-6.9669800000000004
165683.0,60.777099999999997,12.884,6.5286200000000001,67.299099999999996,-4.3948999999999998,5.0828100000000003,-8.3899899999999992
165684.0,62.739699999999999,21.313300000000002,16.392700000000001,76.961699999999993,-4.1508200000000004,8.5347200000000001,-9.5092700000000008
165685.0,66.290400000000005,19.735299999999999,16.902999999999999,77.596699999999998,-3.2799999999999998,13.1092,-10.436199999999999
165686.0,68.8626,33.315600000000003,30.392499999999998,89.631100000000004,-2.7522500000000001,18.393899999999999,-10.9506
165687.0,70.777900000000002,30.847999999999999,24.124199999999998,81.598600000000005,-3.0594000000000001,22.370899999999999,-13.140000000000001
165688.0,72.601600000000005,36.391599999999997,24.0503,82.304900000000004,-3.6521499999999998,23.2898,-16.091100000000001
165689.0,70.770200000000003,11.134,-6.6933800000000003,45.523000000000003,-6.8340199999999998,24.842500000000001,-17.352900000000002
165690.0,73.293700000000001,-43.342799999999997,-63.215000000000003,-14.116400000000001,-11.5336,27.892199999999999,-16.422499999999999
165691.0,68.044700000000006,-49.991999999999997,-72.153800000000004,-21.904,-14.2867,23.9208,-11.5265
165692.0,71.432699999999997,-43.403300000000002,-75.442899999999995,-31.939299999999999,-16.563500000000001,28.375699999999998,-10.6266
165693.0,75.6173,-15.7675,-44.477200000000003,5.3662700000000001,-11.7707,31.8812,-11.1873
165694.0,66.995999999999995,57.170999999999999,24.048500000000001,54.834000000000003,-11.972200000000001,29.616,-11.5754
165695.0,74.272900000000007,25.158100000000001,-9.2184200000000001,10.4313,-11.3134,35.3125,-12.8994
165696.0,64.6922,58.042000000000002,28.4405,50.878700000000002,-8.4741499999999998,31.509499999999999,-9.5845699999999994
165697.0,61.519300000000001,83.498699999999999,42.374899999999997,55.734400000000001,-11.8041,25.508600000000001,-5.6062599999999998
165698.0,60.073999999999998,62.956699999999998,18.7989,39.409999999999997,-11.184900000000001,24.069600000000001,-3.2119399999999998
165699.0,52.004899999999999,68.264799999999994,21.296199999999999,45.069600000000001,-11.340299999999999,14.873699999999999,-0.36499900000000002
165700.0,51.628399999999999,61.297699999999999,12.370900000000001,39.560600000000001,-12.008599999999999,11.9719,0.16844500000000001
165701.0,50.070399999999999,56.041800000000002,8.0830000000000002,36.664000000000001,-12.596,9.7412700000000001,0.24882000000000001
165702.0,57.0837,18.941199999999998,8.8932199999999995,63.620199999999997,-1.98204,-15.142899999999999,-2.06033
165703.0,58.248600000000003,21.943899999999999,13.6767,70.958799999999997,-1.8484700000000001,-12.745100000000001,-2.5373999999999999
165704.0,58.6877,15.031499999999999,7.9516900000000001,66.965299999999999,-1.9384300000000001,-9.8069299999999995,-3.13686
165705.0,58.930399999999999,19.603200000000001,13.2255,73.414000000000001,-2.1519900000000001,-6.72628,-3.8166000000000002
165706.0,58.625300000000003,13.2233,6.7249400000000001,67.278700000000001,-2.6367600000000002,-3.5241400000000001,-4.5942400000000001
165707.0,58.093299999999999,19.752700000000001,12.5076,72.773099999999999,-3.3273600000000001,-0.48744300000000002,-5.5709299999999997
165708.0,57.463099999999997,13.7524,5.34361,64.707899999999995,-4.2181899999999999,2.1594199999999999,-6.8068400000000002
165709.0,57.722000000000001,22.0946,13.0382,71.631299999999996,-5.0178900000000004,4.5809800000000003,-8.3430300000000006
165710.0,59.173999999999999,16.677199999999999,8.4445899999999998,66.573400000000007,-5.3265500000000001,7.2709700000000002,-9.8262
165711.0,62.1372,25.3248,19.428100000000001,77.191599999999994,-4.8623700000000003,11.298500000000001,-11.2005
165712.0,65.567300000000003,21.278700000000001,18.947199999999999,74.953999999999994,-3.7538399999999998,16.403099999999998,-12.0831
165713.0,69.8553,39.439399999999999,41.507100000000001,93.553100000000001,-3.5030399999999999,22.3964,-13.133599999999999
165714.0,72.910499999999999,45.009900000000002,48.410299999999999,97.681100000000001,-4.7186700000000004,25.9742,-14.358000000000001
165715.0,71.596500000000006,49.856000000000002,43.3902,88.761300000000006,-7.1310700000000002,27.886099999999999,-16.669499999999999
165716.0,72.432400000000001,-7.1382099999999999,-25.380700000000001,20.624400000000001,-7.5814500000000002,28.9224,-17.8371
165717.0,65.437299999999993,-27.469899999999999,-50.616999999999997,-4.5696700000000003,-8.5048600000000008,24.383600000000001,-15.1775
165718.0,67.9268,-48.199800000000003,-77.072400000000002,-38.191299999999998,-11.725,28.272300000000001,-13.9152
165719.0,71.982100000000003,-16.625399999999999,-38.232700000000001,2.9425500000000002,-10.395,32.2776,-12.3711
165720.0,66.220699999999994,52.8187,27.436900000000001,52.974499999999999,-12.418100000000001,31.187100000000001,-10.9002
165721.0,67.880099999999999,67.058000000000007,34.842599999999997,55.7119,-11.166600000000001,31.573499999999999,-12.1372
165722.0,58.299799999999998,63.880899999999997,27.7485,53.973999999999997,-9.2882200000000008,25.5153,-6.8609499999999999
165723.0,58.309100000000001,67.480099999999993,21.623000000000001,45.573900000000002,-11.8169,21.467199999999998,-2.60161
165724.0,54.977899999999998,52.564100000000003,6.9397900000000003,37.360100000000003,-10.1357,18.892499999999998,-2.8593999999999999
165725.0,50.116199999999999,69.445400000000006,20.975000000000001,48.958100000000002,-10.317399999999999,11.774699999999999,-0.30015700000000001
165726.0,49.5488,44.744700000000002,-2.7096100000000001,25.997699999999998,-11.268000000000001,10.9504,-0.48851299999999998
165727.0,47.474299999999999,62.521299999999997,16.205400000000001,46.443199999999997,-11.4826,8.1340299999999992,-0.51045099999999999
165728.0,52.992600000000003,29.826599999999999,18.398700000000002,70.191100000000006,-2.3299599999999998,-13.642300000000001,-2.0346600000000001
165729.0,54.164000000000001,19.784400000000002,9.9032,64.133399999999995,-2.2439499999999999,-11.501200000000001,-2.5234800000000002
165730.0,54.647599999999997,25.8323,16.983000000000001,72.854799999999997,-2.3254999999999999,-8.8660200000000007,-3.0971099999999998
165731.0,54.965299999999999,17.229199999999999,8.8928799999999999,65.948700000000002,-2.55715,-6.0808400000000002,-3.71523
165732.0,54.835099999999997,24.191700000000001,15.657400000000001,73.178100000000001,-3.0066799999999998,-3.1884100000000002,-4.4236500000000003
165733.0,54.668199999999999,16.380500000000001,7.0587799999999996,64.620999999999995,-3.63327,-0.43865199999999999,-5.3140599999999996
165734.0,54.5032,24.331,13.8117,70.917299999999997,-4.4275700000000002,1.9874700000000001,-6.5562399999999998
165735.0,55.076999999999998,16.338699999999999,5.00732,61.677500000000002,-5.2146299999999997,4.1901200000000003,-8.19482
165736.0,56.540300000000002,25.329699999999999,14.2514,70.516000000000005,-5.8162799999999999,6.4489900000000002,-10.09
165737.0,59.226300000000002,20.678000000000001,11.704499999999999,67.4696,-5.9837199999999999,9.7615300000000005,-11.8971
165738.0,62.408700000000003,34.701099999999997,29.534700000000001,83.795599999999993,-5.3127000000000004,14.0708,-13.2364
165739.0,66.981899999999996,27.8842,26.975200000000001,78.159899999999993,-3.89045,20.118400000000001,-14.7507
165740.0,70.733400000000003,38.470500000000001,40.915900000000001,87.813500000000005,-3.37608,25.034400000000002,-16.008299999999998
165741.0,71.098799999999997,41.612000000000002,39.093200000000003,82.058899999999994,-5.7631199999999998,28.399100000000001,-16.245100000000001
165742.0,70.034000000000006,53.015500000000003,38.718800000000002,83.6297,-7.6430600000000002,28.159400000000002,-16.034800000000001
165743.0,66.562299999999993,48.024999999999999,22.917200000000001,68.291399999999996,-8.7056900000000006,25.131,-15.9008
165744.0,68.953999999999994,28.541,-0.53065200000000001,39.849800000000002,-9.4052500000000006,28.078600000000002,-16.555299999999999
165745.0,68.648399999999995,24.728899999999999,1.56697,38.158799999999999,-8.6642200000000003,29.888999999999999,-16.118600000000001
165746.0,64.512500000000003,47.146900000000002,18.236999999999998,45.631500000000003,-11.7912,29.217099999999999,-11.3954
165747.0,60.1999,54.608600000000003,19.684899999999999,49.308199999999999,-14.078200000000001,24.9481,-5.7611699999999999
165748.0,55.427399999999999,52.503,10.5464,44.942100000000003,-13.7882,18.2408,-1.0628299999999999
165749.0,56.177700000000002,15.5992,-31.712299999999999,3.0073699999999999,-12.271699999999999,17.347100000000001,0.25482700000000003
165750.0,51.985799999999998,44.323900000000002,-0.75657700000000006,34.973999999999997,-10.243600000000001,15.158799999999999,0.256133
165751.0,49.316200000000002,57.686500000000002,9.4432899999999993,40.617600000000003,-10.220000000000001,10.380599999999999,-0.24649699999999999
165752.0,47.609200000000001,59.769199999999998,13.1555,43.968299999999999,-10.2759,9.2028999999999996,-1.8080700000000001
165753.0,45.713799999999999,60.862200000000001,15.6569,46.789900000000003,-10.771699999999999,6.6639999999999997,-1.0044999999999999
165754.0,49.213700000000003,21.2514,8.8953000000000007,57.771900000000002,-2.4954900000000002,-12.312799999999999,-1.89934
165755.0,50.231400000000001,25.670400000000001,14.590999999999999,65.689700000000002,-2.4178600000000001,-10.325200000000001,-2.4586399999999999
165756.0,50.860500000000002,18.109200000000001,7.9085000000000001,60.667099999999998,-2.5004200000000001,-8.0005600000000001,-2.9807100000000002
165757.0,51.125100000000003,23.595300000000002,13.7029,67.5411,-2.7287699999999999,-5.4570299999999996,-3.5720299999999998
165758.0,51.246899999999997,16.697600000000001,6.4891100000000002,61.008800000000001,-3.1176900000000001,-2.8580700000000001,-4.1848000000000001
165759.0,51.346899999999998,23.900099999999998,12.7997,67.626400000000004,-3.6520600000000001,-0.36873899999999998,-5.0163900000000003
165760.0,51.760100000000001,17.6294,5.3616000000000001,60.308199999999999,-4.3186099999999996,1.8829800000000001,-6.24411
165761.0,52.7256,26.961300000000001,13.7928,68.677800000000005,-5.0882800000000001,3.9135,-8.0279699999999998
165762.0,54.476999999999997,21.0078,7.9588900000000002,62.588700000000003,-5.8868,6.0102000000000002,-10.223800000000001
165763.0,56.954999999999998,29.084299999999999,17.4055,71.518199999999993,-6.4514699999999996,8.6575000000000006,-12.403600000000001
165764.0,59.974899999999998,21.7179,13.4434,65.905600000000007,-6.9533399999999999,12.308,-14.2691
165765.0,63.324300000000001,37.646999999999998,32.711599999999997,83.219800000000006,-7.32789,16.815300000000001,-14.994
165766.0,66.714699999999993,40.684199999999997,35.624899999999997,84.426699999999997,-7.3859700000000004,21.4163,-15.821
165767.0,67.753,50.253999999999998,42.511400000000002,88.084999999999994,-7.57423,25.210599999999999,-15.573600000000001
165768.0,66.601699999999994,43.5899,34.468699999999998,75.217699999999994,-9.5907199999999992,27.3094,-13.545400000000001
165769.0,65.742400000000004,51.303699999999999,38.618299999999998,76.302000000000007,-11.8438,27.870799999999999,-12.4893
165770.0,67.700000000000003,47.1128,28.112200000000001,63.397399999999998,-12.0245,29.742999999999999,-13.662100000000001
165771.0,66.773700000000005,62.497999999999998,39.8932,74.667699999999996,-11.901999999999999,28.912099999999999,-14.0458
165772.0,58.793799999999997,54.261200000000002,20.100300000000001,51.302300000000002,-12.8889,23.594200000000001,-8.4387899999999991
165773.0,56.317100000000003,4.64377,-37.319000000000003,-3.6568200000000002,-14.7631,18.513300000000001,-1.64117
165774.0,54.945300000000003,-28.029800000000002,-71.228800000000007,-26.751799999999999,-13.4499,13.579499999999999,-0.15990199999999999
165775.0,52.297400000000003,12.4282,-35.574300000000001,6.87981,-10.110099999999999,10.8141,-1.7175800000000001
165776.0,50.384700000000002,30.027999999999999,-17.5808,18.724599999999999,-8.5881500000000006,12.1678,-2.3775200000000001
165777.0,47.259799999999998,59.788800000000002,13.9979,46.648699999999998,-9.2275600000000004,9.9332100000000008,-2.18005
165778.0,45.089700000000001,57.972200000000001,13.252000000000001,43.796799999999998,-9.9999900000000004,7.1989799999999997,-1.88771
165779.0,43.758899999999997,60.931800000000003,17.531400000000001,48.448999999999998,-10.0909,5.8512000000000004,-1.7313700000000001
165780.0,45.900799999999997,32.269199999999998,17.873200000000001,64.615399999999994,-2.7075499999999999,-10.8901,-1.8190999999999999
165781.0,46.794800000000002,25.604199999999999,12.2912,61.036999999999999,-2.6667299999999998,-9.0756599999999992,-2.3723399999999999
165782.0,47.494,29.395600000000002,16.760300000000001,67.100300000000004,-2.73434,-7.0759999999999996,-2.9062999999999999
165783.0,47.759300000000003,23.068999999999999,10.594799999999999,61.927199999999999,-2.9613900000000002,-4.7899399999999996,-3.4407800000000002
165784.0,48.021299999999997,28.417400000000001,15.6835,67.714100000000002,-3.2829799999999998,-2.5173899999999998,-3.9964300000000001
165785.0,48.401600000000002,22.1737,8.8326499999999992,61.337200000000003,-3.6788400000000001,-0.311388,-4.7458299999999998
165786.0,49.214100000000002,28.671099999999999,14.761100000000001,67.650000000000006,-4.0838799999999997,1.73302,-5.9984500000000001
165787.0,50.521099999999997,21.841100000000001,7.6527399999999997,60.715499999999999,-4.5540500000000002,3.6507399999999999,-7.8757900000000003
165788.0,52.492800000000003,29.557099999999998,15.518800000000001,68.471599999999995,-5.15198,5.6591699999999996,-10.3614
165789.0,54.776600000000002,26.7608,12.8445,65.414599999999993,-6.3131700000000004,7.8053299999999997,-12.549200000000001
165790.0,58.121699999999997,38.346899999999998,24.181100000000001,76.982100000000003,-7.2243700000000004,10.4217,-14.776899999999999
165791.0,60.341099999999997,32.613500000000002,18.5105,70.436300000000003,-7.7652799999999997,13.3344,-15.956799999999999
165792.0,63.245699999999999,34.981099999999998,21.5778,71.114800000000002,-10.5945,17.906400000000001,-15.618
165793.0,63.776299999999999,31.111799999999999,19.075099999999999,65.150499999999994,-12.3001,20.7958,-14.176500000000001
165794.0,62.551200000000001,38.9407,25.6816,66.649799999999999,-10.5952,23.805900000000001,-13.720000000000001
165795.0,63.479199999999999,41.103299999999997,26.896899999999999,64.451499999999996,-9.4508399999999995,26.342300000000002,-14.157
165796.0,64.849299999999999,64.566400000000002,46.896000000000001,80.679900000000004,-11.4146,28.392700000000001,-13.4102
165797.0,63.4758,69.344200000000001,43.790500000000002,81.125299999999996,-12.954000000000001,26.113499999999998,-11.3605
165798.0,55.298499999999997,58.3598,16.371700000000001,54.2318,-13.7973,15.9001,-6.3684900000000004
165799.0,58.043799999999997,-41.712699999999998,-96.073099999999997,-54.699599999999997,-13.828200000000001,10.6738,-3.4592499999999999
165800.0,56.599200000000003,-51.276000000000003,-98.471000000000004,-43.998899999999999,-9.4600399999999993,9.3040800000000008,-4.14405
165801.0,51.189500000000002,25.380299999999998,-22.414400000000001,24.6387,-7.9871999999999996,6.4523999999999999,-4.2677300000000002
165802.0,51.206600000000002,53.748899999999999,3.7680899999999999,41.392400000000002,-8.9405599999999996,9.5771800000000002,-4.9655399999999998
165803.0,45.991999999999997,55.851999999999997,11.6906,45.334899999999998,-8.8802699999999994,9.0139099999999992,-3.5843400000000001
165804.0,42.4054,67.346199999999996,25.0883,55.588799999999999,-9.2923299999999998,5.5847600000000002,-2.48258
165805.0,42.468899999999998,56.331600000000002,14.236700000000001,46.519300000000001,-9.3729399999999998,4.5644,-2.7286100000000002
165806.0,1763.6300000000001,1409.6600000000001,365.52499999999998,283.81799999999998,-238.79400000000001,-747.40999999999997,164.55600000000001
165807.0,1770.03,1285.5899999999999,325.041,333.63600000000002,-214.68000000000001,-813.995,175.60400000000001
165808.0,1775.1600000000001,1230.3299999999999,352.75900000000001,469.24099999999999,-188.75399999999999,-867.78099999999995,185.92500000000001
165809.0,1780.73,1146.3399999999999,358.56200000000001,588.87699999999995,-162.33500000000001,-910.85199999999998,192.16999999999999
165810.0,1788.47,1004.96,322.18000000000001,661.58600000000001,-137.286,-945.59900000000005,191.44499999999999
165811.0,1796.01,866.59900000000005,289.79599999999999,745.93299999999999,-112.58,-966.88099999999997,187.44300000000001
165812.0,1802.5699999999999,780.14700000000005,304.99299999999999,887.12,-88.372600000000006,-972.88300000000004,181.00299999999999
165813.0,1809.1900000000001,658.89499999999998,284.58499999999998,995.11199999999997,-66.020799999999994,-965.04899999999998,170.43100000000001
165814.0,1814.8399999999999,599.89300000000003,317.80700000000002,1161.9000000000001,-44.9161,-941.59400000000005,156.86600000000001
165815.0,1821.04,536.77300000000002,343.20400000000001,1318.99,-26.624400000000001,-904.572,139.69800000000001
165816.0,1827.9300000000001,443.846,338.53100000000001,1438.6400000000001,-12.202199999999999,-855.09699999999998,118.11
165817.0,1836.2,389.166,362.548,1583.3099999999999,1.3187599999999999,-792.79200000000003,95.908699999999996
165818.0,1844.9300000000001,327.541,368.31599999999997,1701.8299999999999,16.395399999999999,-719.40999999999997,73.032799999999995
165819.0,1806.47,1413.0599999999999,293.11799999999999,321.03199999999998,-323.923,-756.72400000000005,47.915399999999998
165820.0,1812.47,1368.5799999999999,330.62900000000002,449.005,-307.16000000000003,-820.94200000000001,62.393300000000004
165821.0,1819.6099999999999,1229.1700000000001,281.09800000000001,497.39800000000002,-289.38099999999997,-876.15300000000002,73.622900000000001
165822.0,1827.0,1120.98,267.67500000000001,590.101,-271.08699999999999,-920.25300000000004,81.455399999999997
165823.0,1834.4200000000001,1050.1199999999999,293.178,731.48099999999999,-252.852,-951.80100000000004,86.084000000000003
165824.0,1842.1900000000001,987.63499999999999,330.33199999999999,889.61699999999996,-235.19800000000001,-970.86300000000006,87.108000000000004
165825.0,1851.1600000000001,853.97699999999998,298.43799999999999,981.67100000000005,-219.06299999999999,-977.37599999999998,84.004900000000006
165826.0,1860.22,780.346,326.02199999999999,1135.6400000000001,-204.50800000000001,-970.01400000000001,77.648300000000006
165827.0,1870.54,630.54999999999995,276.33999999999997,1212.9100000000001,-192.61099999999999,-949.22000000000003,67.468900000000005
165828.0,1880.8499999999999,517.68100000000004,259.06,1321.1500000000001,-183.18000000000001,-914.28700000000003,54.555599999999998
165829.0,1891.1900000000001,428.55599999999998,258.49099999999999,1445.0799999999999,-174.97,-865.06200000000001,39.380099999999999
165830.0,1899.1600000000001,340.96600000000001,253.31,1555.1099999999999,-166.19200000000001,-802.89200000000005,24.271000000000001
165831.0,1902.5899999999999,251.405,238.90199999999999,1646.45,-151.43700000000001,-727.32299999999998,10.2029
165832.0,1863.72,1581.46,405.05599999999998,500.59500000000003,-377.32499999999999,-766.89099999999996,-20.9116
165833.0,1870.27,1445.3900000000001,351.11700000000002,537.02099999999996,-364.91500000000002,-830.62,-4.7736200000000002
165834.0,1878.23,1410.8399999999999,405.41000000000003,689.90999999999997,-351.464,-885.28399999999999,8.2035300000000007
165835.0,1886.73,1311.53,400.04199999999997,791.84900000000005,-337.69799999999998,-929.06700000000001,17.842500000000001
165836.0,1896.3099999999999,1199.1500000000001,384.13400000000001,891.86900000000003,-324.57299999999998,-960.904,23.768799999999999
165837.0,1906.3399999999999,1045.6099999999999,330.26999999999998,959.35500000000002,-312.017,-980.23199999999997,26.2746
165838.0,1917.53,987.95399999999995,373.17899999999997,1127.78,-300.392,-986.71100000000001,25.545200000000001
165839.0,1929.1700000000001,847.899,334.09699999999998,1216.3,-290.73500000000001,-979.41399999999999,21.500699999999998
165840.0,1942.3900000000001,810.31399999999996,395.60199999999998,1406.4000000000001,-282.97800000000001,-958.73900000000003,14.0449
165841.0,1955.22,727.94399999999996,409.87700000000001,1546.6800000000001,-277.654,-923.69399999999996,4.2996999999999996
165842.0,1969.6900000000001,645.19899999999996,419.11399999999998,1679.28,-274.363,-875.48599999999999,-7.9717399999999996
165843.0,1977.8399999999999,563.21600000000001,426.29399999999998,1796.3499999999999,-269.22699999999998,-813.42999999999995,-19.8095
165844.0,1981.9100000000001,483.673,431.60500000000002,1903.1700000000001,-258.14999999999998,-737.99400000000003,-29.0672
165845.0,1921.6199999999999,1650.4100000000001,387.02699999999999,594.16899999999998,-428.214,-763.09900000000005,-77.929500000000004
165846.0,1929.0799999999999,1598.53,416.95400000000001,710.98400000000004,-419.40199999999999,-826.11099999999999,-60.843499999999999
165847.0,1938.3299999999999,1476.03,379.46600000000001,772.88900000000001,-410.05900000000003,-879.42899999999997,-47.106999999999999
165848.0,1948.75,1377.25,370.93299999999999,872.60500000000002,-400.78300000000002,-922.34799999999996,-36.777799999999999
165849.0,1960.7,1305.6900000000001,394.75099999999998,1010.1900000000001,-391.81400000000002,-954.47299999999996,-30.393899999999999
165850.0,1973.5699999999999,1248.9300000000001,435.84399999999999,1171.5599999999999,-383.85899999999998,-974.09500000000003,-26.744800000000001
165851.0,1987.6199999999999,1121.8099999999999,406.06400000000002,1267.6700000000001,-376.83499999999998,-980.57100000000003,-26.364000000000001
165852.0,2002.53,1058.4400000000001,439.76499999999999,1430.3,-371.661,-973.34000000000003,-28.676300000000001
165853.0,2018.9100000000001,921.78999999999996,396.14299999999997,1517.8399999999999,-368.25599999999997,-952.32899999999995,-33.975099999999998
165854.0,2034.96,820.37800000000004,385.48200000000003,1636.0699999999999,-366.68400000000003,-917.125,-41.294600000000003
165855.0,2051.98,737.36900000000003,390.267,1765.1900000000001,-365.94799999999998,-869.41300000000001,-50.306899999999999
165856.0,2060.8200000000002,649.75400000000002,390.84800000000001,1874.9300000000001,-362.50700000000001,-807.68200000000002,-58.913200000000003
165857.0,2065.6399999999999,537.04600000000005,367.82900000000001,1950.0899999999999,-352.90899999999999,-734.053,-64.025800000000004
165858.0,1992.8299999999999,1833.51,488.68099999999998,803.43499999999995,-481.60700000000003,-759.74000000000001,-140.92400000000001
165859.0,2001.4000000000001,1681.8099999999999,416.53100000000001,817.596,-476.94999999999999,-821.31399999999996,-122.729
165860.0,2012.99,1676.6700000000001,496.55200000000002,993.53999999999996,-472.24900000000002,-874.48099999999999,-109.14400000000001
165861.0,2026.55,1549.28,458.38,1061.52,-468.19400000000002,-917.29300000000001,-98.560199999999995
165862.0,2040.6900000000001,1491.0599999999999,489.26900000000001,1209.3199999999999,-463.59199999999998,-947.73500000000001,-90.093400000000003
165863.0,2056.6500000000001,1318.95,409.42399999999998,1252.1099999999999,-460.29700000000003,-966.39999999999998,-84.603700000000003
165864.0,2074.27,1305.48,489.65800000000002,1458.5599999999999,-458.09199999999998,-972.72500000000002,-82.790899999999993
165865.0,2093.4400000000001,1141.5599999999999,419.839,1517.7,-458.07900000000001,-965.79999999999995,-83.334599999999995
165866.0,2114.7399999999998,1141.8699999999999,512.976,1740.1800000000001,-460.214,-945.87400000000002,-87.4636
165867.0,2136.21,1028.49,490.42399999999998,1844.8900000000001,-464.65100000000001,-911.86699999999996,-92.911600000000007
165868.0,2157.8000000000002,989.68100000000004,537.06500000000005,2015.8900000000001,-469.13499999999999,-864.81600000000003,-99.441000000000003
165869.0,2169.5100000000002,872.58900000000006,506.16000000000003,2094.3699999999999,-469.48399999999998,-803.71000000000004,-104.786
165870.0,2174.9099999999999,839.64200000000005,558.721,2246.79,-462.00200000000001,-730.87400000000002,-105.021
165871.0,2073.1700000000001,1916.3599999999999,483.22399999999999,916.17999999999995,-534.18299999999999,-752.74199999999996,-201.04900000000001
165872.0,2083.6500000000001,1824.3099999999999,470.166,985.63,-533.73900000000003,-813.49300000000005,-182.81999999999999
165873.0,2097.0100000000002,1759.22,485.11099999999999,1097.95,-532.923,-864.66099999999994,-167.72999999999999
165874.0,2113.3699999999999,1635.0999999999999,445.20100000000002,1165.3699999999999,-533.24400000000003,-906.05999999999995,-155.85900000000001
165875.0,2131.9499999999998,1605.0,504.07400000000001,1337.46,-534.26900000000001,-937.01300000000003,-148.10300000000001
165876.0,2152.77,1509.9100000000001,500.04700000000003,1453.6500000000001,-536.745,-956.19899999999996,-142.59999999999999
165877.0,2174.5799999999999,1442.21,521.93499999999995,1602.0699999999999,-539.47699999999998,-962.26700000000005,-139.321
165878.0,2198.6399999999999,1340.5899999999999,509.85700000000003,1719.8299999999999,-544.61800000000005,-955.30399999999997,-138.327
165879.0,2223.8000000000002,1275.1800000000001,529.13999999999999,1871.7,-550.43299999999999,-934.63999999999999,-139.37299999999999
165880.0,2249.1500000000001,1136.8,473.74599999999998,1946.75,-558.06700000000001,-900.28399999999999,-141.55500000000001
165881.0,2274.9699999999998,1121.3499999999999,538.48800000000006,2137.0100000000002,-566.40599999999995,-853.69799999999998,-145.34899999999999
165882.0,2290.25,988.04700000000003,487.56200000000001,2196.3699999999999,-570.53399999999999,-793.346,-147.45500000000001
165883.0,2298.4699999999998,932.07000000000005,516.36199999999997,2324.0799999999999,-567.41399999999999,-722.303,-144.61199999999999
165884.0,2168.1300000000001,2079.4699999999998,557.04600000000005,1112.72,-589.92100000000005,-744.53399999999999,-266.59100000000001
165885.0,2180.3499999999999,1949.8699999999999,503.29899999999998,1140.54,-593.72000000000003,-803.33000000000004,-247.35400000000001
165886.0,2197.3600000000001,1938.6800000000001,571.46400000000006,1302.55,-598.30100000000004,-853.96699999999998,-232.74799999999999
165887.0,2218.04,1824.5899999999999,539.40700000000004,1375.52,-604.13800000000003,-894.79399999999998,-221.01900000000001
165888.0,2240.04,1781.27,577.89099999999996,1529.9200000000001,-609.62900000000002,-923.83399999999995,-211.017
165889.0,2264.9099999999999,1634.5599999999999,515.20899999999995,1589.5,-616.721,-941.64700000000005,-203.44200000000001
165890.0,2292.0700000000002,1624.0,589.75900000000001,1790.47,-625.04899999999998,-947.48699999999997,-199.00999999999999
165891.0,2321.4299999999998,1483.6099999999999,534.09500000000003,1864.6199999999999,-635.35000000000002,-940.57799999999997,-196.16399999999999
165892.0,2353.4400000000001,1481.0699999999999,614.66600000000005,2075.79,-647.88,-920.923,-196.23599999999999
165893.0,2386.0799999999999,1384.6600000000001,599.40200000000004,2189.3699999999999,-662.41200000000003,-887.79100000000005,-196.99299999999999
165894.0,2417.23,1349.1800000000001,640.12400000000002,2355.6199999999999,-675.69100000000003,-841.96600000000001,-197.74799999999999
165895.0,2437.04,1246.99,616.35699999999997,2442.5,-684.17399999999998,-782.80100000000004,-196.35599999999999
165896.0,2446.9899999999998,1220.45,669.54300000000001,2595.6300000000001,-683.79600000000005,-713.15200000000004,-188.87799999999999
165897.0,2274.4200000000001,2171.6799999999998,553.05899999999997,1242.9100000000001,-646.32299999999998,-732.72900000000004,-331.59800000000001
165898.0,2288.8899999999999,2108.2199999999998,563.54999999999995,1331.45,-654.44000000000005,-789.95500000000004,-312.255
165899.0,2308.9000000000001,2033.78,563.245,1425.26,-663.49199999999996,-838.46100000000001,-296.29199999999997
165900.0,2333.3499999999999,1952.74,558.51400000000001,1525.9300000000001,-673.93299999999999,-877.48699999999997,-283.46800000000002
165901.0,2361.29,1900.6199999999999,586.37900000000002,1666.46,-685.78899999999999,-906.49599999999998,-274.017
165902.0,2392.1900000000001,1840.9300000000001,607.65099999999995,1807.71,-698.91700000000003,-924.28899999999999,-266.49900000000002
165903.0,2424.98,1764.1900000000001,610.66800000000001,1937.1900000000001,-712.76599999999996,-929.67700000000002,-260.40499999999997
165904.0,2460.6599999999999,1700.1400000000001,625.60199999999998,2082.04,-728.74699999999996,-922.65599999999995,-256.18599999999998
165905.0,2497.8200000000002,1631.0899999999999,631.35699999999997,2220.5599999999999,-745.49699999999996,-902.48599999999999,-253.06200000000001
165906.0,2535.4000000000001,1536.7,609.12199999999996,2329.5100000000002,-763.58900000000006,-869.20399999999995,-250.45400000000001
165907.0,2572.9899999999998,1510.27,652.98900000000003,2499.4099999999999,-782.26300000000003,-824.149,-248.65199999999999
165908.0,2597.8800000000001,1418.0899999999999,633.65300000000002,2591.4200000000001,-795.26400000000001,-766.12900000000002,-243.81800000000001
165909.0,2612.02,1341.8800000000001,634.35400000000004,2691.1300000000001,-799.89099999999996,-698.67200000000003,-233.12
165910.0,2394.7399999999998,2322.8200000000002,606.74199999999996,1435.4300000000001,-705.01099999999997,-719.39499999999998,-400.63999999999999
165911.0,2411.5,2259.5900000000001,613.86300000000006,1518.8399999999999,-717.54600000000005,-774.24699999999996,-380.48500000000001
165912.0,2436.1399999999999,2200.3699999999999,626.60900000000004,1622.45,-732.36099999999999,-821.60500000000002,-364.87200000000001
165913.0,2465.77,2151.4200000000001,650.25199999999995,1749.3900000000001,-748.44600000000003,-859.42999999999995,-352.14600000000002
165914.0,2498.6599999999999,2072.52,644.13,1857.28,-765.452,-886.524,-340.88400000000001
165915.0,2534.9699999999998,2004.25,649.05499999999995,1983.3800000000001,-783.64700000000005,-902.79700000000003,-331.62700000000001
165916.0,2574.5,1945.8800000000001,665.08299999999997,2125.1700000000001,-803.71799999999996,-907.79300000000001,-324.37799999999999
165917.0,2616.52,1887.3599999999999,678.88999999999999,2268.8299999999999,-825.07000000000005,-900.56799999999998,-318.31299999999999
165918.0,2661.73,1830.5,693.26599999999996,2414.0500000000002,-849.00599999999997,-881.17200000000003,-313.85700000000003
165919.0,2707.4299999999998,1811.9100000000001,742.928,2593.2399999999998,-873.95399999999995,-849.06299999999999,-309.65300000000002
165920.0,2750.79,1726.0799999999999,721.60699999999997,2697.8899999999999,-897.43600000000004,-804.87300000000005,-304.24099999999999
165921.0,2781.4499999999998,1702.01,764.71199999999999,2852.23,-915.35500000000002,-748.45000000000005,-295.89999999999998
165922.0,2799.02,1621.53,755.73299999999995,2942.3499999999999,-923.95299999999997,-682.94000000000005,-280.774
165923.0,2526.8499999999999,2431.1399999999999,611.52800000000002,1589.8800000000001,-764.601,-702.46400000000006,-470.04599999999999
165924.0,2546.3899999999999,2430.2199999999998,678.03300000000002,1729.21,-781.78300000000002,-755.14099999999996,-449.64499999999998
165925.0,2575.0500000000002,2313.1700000000001,627.42899999999997,1768.6099999999999,-801.52300000000002,-800.11400000000003,-433.09699999999998
165926.0,2609.73,2311.9499999999998,692.39200000000005,1936.6600000000001,-822.76900000000001,-835.82299999999998,-419.553
165927.0,2649.4000000000001,2204.9499999999998,654.41200000000003,2009.8399999999999,-846.36199999999997,-862.14800000000002,-408.55399999999997
165928.0,2692.8200000000002,2225.5599999999999,743.05999999999995,2217.8200000000002,-870.86500000000001,-877.83900000000006,-399.12200000000001
165929.0,2739.0799999999999,2099.6900000000001,684.96199999999999,2284.9699999999998,-896.93299999999999,-882.09299999999996,-390.26400000000001
165930.0,2788.6500000000001,2121.1300000000001,771.66800000000001,2501.1500000000001,-924.41899999999998,-874.66700000000003,-382.75700000000001
165931.0,2840.1799999999998,2002.4100000000001,715.32799999999997,2576.6500000000001,-953.26400000000001,-854.89200000000005,-375.28500000000003
165932.0,2892.27,2004.45,775.63800000000003,2767.98,-982.65700000000004,-822.85699999999997,-367.834
165933.0,2943.4299999999998,1915.49,744.78899999999999,2862.52,-1012.45,-779.80200000000002,-359.75700000000001
165934.0,2980.0999999999999,1922.1199999999999,811.50999999999999,3040.6199999999999,-1035.1700000000001,-724.93600000000004,-347.839
165935.0,3002.3899999999999,1776.78,732.75699999999995,3059.8800000000001,-1048.74,-661.90200000000004,-328.89699999999999
165936.0,2671.7399999999998,2593.3200000000002,668.34500000000003,1801.99,-825.84299999999996,-683.38400000000001,-542.42200000000003
165937.0,2694.4099999999999,2583.4000000000001,721.72900000000004,1925.6800000000001,-847.92899999999997,-733.34000000000003,-521.39999999999998
165938.0,2728.2399999999998,2491.3699999999999,692.40200000000004,1983.24,-873.45299999999997,-776.43799999999999,-505.16899999999998
165939.0,2769.0900000000001,2501.6599999999999,763.69899999999996,2155.6599999999999,-900.721,-810.36699999999996,-491.59500000000003
165940.0,2814.8499999999999,2395.6599999999999,719.03800000000001,2222.3099999999999,-929.92100000000005,-834.56100000000004,-479.286
165941.0,2865.0500000000002,2400.23,783.23000000000002,2406.1999999999998,-960.15800000000002,-848.60400000000004,-468.35399999999998
165942.0,2918.9099999999999,2303.5900000000001,747.54999999999995,2494.54,-992.69899999999996,-852.15200000000004,-458.37599999999998
165943.0,2975.9699999999998,2324.4499999999998,825.51999999999998,2701.6199999999999,-1026.1099999999999,-844.31100000000004,-448.97399999999999
165944.0,3036.1199999999999,2223.0599999999999,780.76499999999999,2786.6199999999999,-1062.1400000000001,-825.12599999999998,-439.88499999999999
165945.0,3096.6999999999998,2280.8099999999999,890.90899999999999,3025.9299999999998,-1098.3299999999999,-794.15999999999997,-430.43700000000001
165946.0,3154.3800000000001,2155.9099999999999,815.97699999999998,3076.2399999999998,-1133.1500000000001,-752.09500000000003,-418.52300000000002
165947.0,3197.7800000000002,2205.8800000000001,919.077,3289.8400000000001,-1161.3199999999999,-699.226,-403.06400000000002
165948.0,3224.6999999999998,2080.0700000000002,853.70100000000002,3321.4200000000001,-1179.6600000000001,-638.755,-379.74000000000001
165949.0,2827.98,2736.1199999999999,700.73099999999999,1999.5899999999999,-887.97000000000003,-660.72199999999998,-615.40700000000004
165950.0,2854.0700000000002,2742.3899999999999,766.45500000000004,2131.8299999999999,-915.06200000000001,-707.971,-594.23800000000006
165951.0,2892.8200000000002,2645.1399999999999,725.63300000000004,2176.4400000000001,-945.86800000000005,-748.28200000000004,-577.39300000000003
165952.0,2939.6500000000001,2660.5,795.13300000000004,2345.9299999999998,-978.798,-779.73199999999997,-563.23500000000001
165953.0,2993.0300000000002,2570.9099999999999,760.82600000000002,2420.6599999999999,-1014.67,-802.44500000000005,-550.98900000000003
165954.0,3051.0799999999999,2605.4299999999998,848.37199999999996,2625.8600000000001,-1051.5799999999999,-815.33100000000002,-539.69299999999998
165955.0,3112.7399999999998,2506.4099999999999,801.79999999999995,2702.54,-1090.4000000000001,-817.86800000000005,-528.21199999999999
165956.0,3177.9200000000001,2540.6199999999999,885.22799999999995,2913.7800000000002,-1130.3399999999999,-809.62699999999995,-517.18399999999997
165957.0,3245.6799999999998,2452.79,843.62199999999996,3002.2199999999998,-1171.8399999999999,-790.19100000000003,-505.36900000000003
165958.0,3313.52,2472.9200000000001,905.84799999999996,3193.75,-1213.3,-759.44000000000005,-492.60899999999998
165959.0,3379.6799999999998,2404.8000000000002,879.875,3291.6500000000001,-1254.6099999999999,-718.92899999999997,-477.92599999999999
165960.0,3429.6300000000001,2431.3099999999999,951.10000000000002,3472.6799999999998,-1287.9300000000001,-667.90599999999995,-458.55399999999997
165961.0,3461.9000000000001,2306.6999999999998,879.33500000000004,3496.8400000000001,-1311.1600000000001,-610.24000000000001,-431.11000000000001
165962.0,2995.6799999999998,2911.8000000000002,763.76999999999998,2234.23,-951.30899999999997,-635.38400000000001,-690.48800000000006
165963.0,3025.3499999999999,2894.2199999999998,801.06399999999996,2334.6100000000001,-983.50099999999998,-679.471,-669.01800000000003
165964.0,3070.0300000000002,2839.9400000000001,797.67200000000003,2413.8499999999999,-1020.28,-717.21600000000001,-652.37400000000002
165965.0,3123.5,2840.8899999999999,846.60799999999995,2560.3600000000001,-1059.45,-746.245,-638.20699999999999
165966.0,3184.2600000000002,2784.71,836.71100000000001,2659.1700000000001,-1101.3499999999999,-766.54899999999998,-625.00900000000001
165967.0,3249.6300000000001,2785.3200000000002,881.61699999999996,2820.7399999999998,-1144.4200000000001,-777.47500000000002,-612.33299999999997
165968.0,3319.96,2735.0799999999999,874.90499999999997,2936.02,-1189.9100000000001,-779.04100000000005,-599.81799999999998
165969.0,3393.2199999999998,2755.27,935.23500000000001,3122.7800000000002,-1236.29,-770.10199999999998,-586.82299999999998
165970.0,3470.0500000000002,2697.5500000000002,915.48500000000001,3230.9899999999998,-1284.77,-751.15599999999995,-573.20100000000002
165971.0,3546.5100000000002,2751.4499999999998,1003.88,3446.23,-1333.1400000000001,-721.31799999999998,-558.0
165972.0,3620.1100000000001,2676.6799999999998,960.91600000000005,3526.5999999999999,-1379.77,-682.10199999999998,-539.65300000000002
165973.0,3677.1300000000001,2718.25,1039.0599999999999,3712.6900000000001,-1418.9100000000001,-633.32299999999998,-516.27700000000004
165974.0,3714.98,2633.4499999999998,999.83799999999997,3767.4200000000001,-1447.29,-578.95100000000002,-484.61700000000002
165975.0,3173.5700000000002,3066.3099999999999,801.59000000000003,2452.5700000000002,-1015.16,-606.40800000000002,-766.15599999999995
165976.0,3207.1399999999999,3062.4899999999998,847.97400000000005,2557.9099999999999,-1052.6800000000001,-647.221,-744.61000000000001
165977.0,3257.3800000000001,3007.1799999999998,836.279,2626.77,-1094.9100000000001,-681.68200000000002,-727.62199999999996
165978.0,3317.6700000000001,3020.0,889.50400000000002,2775.8000000000002,-1140.22,-707.78300000000002,-713.06100000000004
165979.0,3386.48,2972.77,880.61400000000003,2873.3099999999999,-1188.72,-725.93899999999996,-699.803
165980.0,3460.5100000000002,3004.1599999999999,948.15800000000002,3055.27,-1238.8499999999999,-735.17100000000005,-686.69100000000003
165981.0,3539.1999999999998,2954.54,932.06500000000005,3159.7600000000002,-1290.75,-735.40999999999997,-672.76199999999994
165982.0,3621.0599999999999,2986.3899999999999,994.64300000000003,3346.8099999999999,-1343.8800000000001,-725.85500000000002,-657.93299999999999
165983.0,3706.3000000000002,2949.3000000000002,983.96500000000003,3463.3400000000001,-1398.29,-706.66600000000005,-641.83600000000001
165984.0,3790.5999999999999,2973.0599999999999,1030.99,3636.1300000000001,-1452.4000000000001,-677.28200000000004,-623.20299999999997
165985.0,3872.5700000000002,2943.29,1023.6900000000001,3749.9000000000001,-1505.3199999999999,-639.83699999999999,-601.88599999999997
165986.0,3936.8800000000001,2981.1900000000001,1088.3399999999999,3920.9400000000001,-1550.0999999999999,-593.298,-574.40599999999995
165987.0,3980.8600000000001,2890.4000000000001,1033.73,3958.6199999999999,-1583.5999999999999,-542.23599999999999,-538.572
165988.0,3361.0700000000002,3251.29,867.88599999999997,2705.8800000000001,-1079.5899999999999,-574.28200000000004,-843.154
165989.0,3399.0,3218.75,879.98099999999999,2773.0500000000002,-1122.6700000000001,-611.48000000000002,-821.42499999999995
165990.0,3455.25,3210.4200000000001,908.61699999999996,2879.04,-1170.6900000000001,-642.64400000000001,-804.74800000000005
165991.0,3523.0599999999999,3202.5799999999999,933.47000000000003,2997.2399999999998,-1222.5999999999999,-665.78200000000004,-790.11400000000003
165992.0,3599.6399999999999,3197.75,957.30799999999999,3126.0500000000002,-1277.26,-681.03800000000001,-776.25599999999997
165993.0,3681.8899999999999,3199.0300000000002,984.58500000000004,3266.27,-1333.9000000000001,-688.03399999999999,-761.81600000000003
165994.0,3769.3600000000001,3195.3800000000001,1004.28,3404.3800000000001,-1392.48,-686.82799999999997,-746.84000000000003
165995.0,3860.21,3221.0100000000002,1049.95,3572.5599999999999,-1452.4400000000001,-676.50099999999998,-730.11400000000003
165996.0,3954.0799999999999,3207.3000000000002,1052.75,3699.6500000000001,-1513.51,-657.52999999999997,-711.87199999999996
165997.0,4047.6199999999999,3265.4899999999998,1124.3699999999999,3894.21,-1574.6600000000001,-629.11400000000003,-690.74000000000001
165998.0,4137.4099999999999,3240.6300000000001,1110.1500000000001,3999.4400000000001,-1633.22,-593.10000000000002,-665.63
165999.0,4208.9899999999998,3278.4099999999999,1165.01,4158.0200000000004,-1683.75,-549.31600000000003,-634.101
166000.0,4258.6700000000001,3237.8899999999999,1152.04,4234.1599999999999,-1722.47,-502.08300000000003,-593.81899999999996
166001.0,3557.1300000000001,3420.73,915.76099999999997,2948.6900000000001,-1144.21,-538.40899999999999,-920.25999999999999
166002.0,3599.6700000000001,3384.9299999999998,918.53399999999999,3002.1100000000001,-1192.75,-571.80100000000004,-898.75800000000004
166003.0,3661.8499999999999,3401.0300000000002,963.74599999999998,3121.9899999999998,-1246.47,-599.09799999999996,-881.88599999999997
166004.0,3737.0599999999999,3381.9200000000001,968.53399999999999,3217.6799999999998,-1304.6300000000001,-618.827,-867.09799999999996
166005.0,3821.9899999999998,3416.3699999999999,1022.22,3373.9299999999998,-1365.9400000000001,-631.23699999999997,-852.97400000000005
166006.0,3913.25,3407.1999999999998,1029.4300000000001,3491.1300000000001,-1429.6700000000001,-636.07600000000002,-838.154
166007.0,4009.4499999999998,3454.5599999999999,1088.73,3666.8099999999999,-1494.78,-633.18399999999997,-821.68299999999999
166008.0,4109.0299999999997,3438.2600000000002,1081.55,3779.3000000000002,-1561.45,-621.97699999999998,-803.13999999999999
166009.0,4212.0500000000002,3508.2199999999998,1155.0599999999999,3975.3600000000001,-1628.8800000000001,-602.75599999999997,-782.47900000000004
166010.0,4313.0799999999999,3477.7600000000002,1126.0899999999999,4066.73,-1695.6500000000001,-574.98699999999997,-757.82299999999998
166011.0,4411.0600000000004,3555.8099999999999,1203.6900000000001,4260.6199999999999,-1760.3099999999999,-540.96699999999998,-729.49000000000001
166012.0,4490.3199999999997,3537.1199999999999,1190.8399999999999,4348.8500000000004,-1816.6900000000001,-499.84399999999999,-693.75900000000001
166013.0,4546.6000000000004,3559.6100000000001,1229.5599999999999,4474.2799999999997,-1860.5799999999999,-456.39699999999999,-649.22500000000002
166014.0,3761.1300000000001,3607.1199999999999,978.98599999999999,3213.04,-1208.9100000000001,-499.08300000000003,-997.96500000000003
166015.0,3808.2600000000002,3550.4000000000001,954.178,3234.48,-1262.8599999999999,-528.298,-976.58399999999995
166016.0,3876.8000000000002,3606.77,1031.8499999999999,3383.3000000000002,-1322.5699999999999,-551.64400000000001,-959.92499999999995
166017.0,3959.6799999999998,3571.6199999999999,1011.71,3451.1199999999999,-1387.1700000000001,-567.76499999999999,-945.17399999999998
166018.0,4052.96,3645.1799999999998,1093.6900000000001,3633.5,-1454.8599999999999,-576.84000000000003,-930.58000000000004
166019.0,4152.5600000000004,3621.1300000000001,1074.8599999999999,3722.2199999999998,-1525.0799999999999,-578.96900000000005,-914.59100000000001
166020.0,4258.0600000000004,3698.8299999999999,1152.5699999999999,3913.6500000000001,-1596.99,-574.25300000000004,-897.048
166021.0,4366.4399999999996,3697.73,1148.97,4026.3800000000001,-1670.4100000000001,-562.11300000000006,-876.596
166022.0,4477.8400000000001,3768.6999999999998,1211.6300000000001,4208.0799999999999,-1744.1199999999999,-542.91999999999996,-853.55700000000002
166023.0,4588.5699999999997,3797.79,1230.53,4343.5699999999997,-1818.1700000000001,-516.11900000000003,-826.38400000000001
166024.0,4694.3500000000004,3860.46,1279.71,4506.1000000000004,-1888.4200000000001,-483.82100000000003,-794.33699999999999
166025.0,4780.6700000000001,3863.0100000000002,1276.8399999999999,4600.6199999999999,-1950.4200000000001,-445.80200000000002,-754.16999999999996
166026.0,4842.8699999999999,3903.6700000000001,1323.8,4730.1000000000004,-1999.49,-406.80000000000001,-705.298
166027.0,3971.73,3763.1399999999999,1009.9400000000001,3451.9200000000001,-1273.0599999999999,-455.91199999999998,-1075.3199999999999
166028.0,4023.6500000000001,3742.5700000000002,1014.27,3497.7199999999998,-1332.55,-480.65899999999999,-1054.21
166029.0,4098.4899999999998,3782.1300000000001,1066.3199999999999,3617.5100000000002,-1397.97,-499.60500000000002,-1037.6500000000001
166030.0,4189.1099999999997,3787.5700000000002,1076.9400000000001,3713.1100000000001,-1468.9000000000001,-511.73000000000002,-1022.86
166031.0,4290.7399999999998,3847.8800000000001,1135.02,3868.5100000000002,-1543.0999999999999,-517.34699999999998,-1007.97
166032.0,4399.4499999999998,3863.5,1144.5799999999999,3982.1999999999998,-1620.24,-516.79300000000001,-991.47299999999996
166033.0,4513.3699999999999,3943.73,1212.6500000000001,4160.6199999999999,-1698.52,-510.07499999999999,-972.44000000000005
166034.0,4630.8999999999996,3953.4299999999998,1206.74,4267.71,-1778.5799999999999,-496.73200000000003,-950.18799999999999
166035.0,4751.1800000000003,4056.8200000000002,1288.51,4464.9799999999996,-1858.75,-477.30700000000002,-924.72299999999996
166036.0,4868.7200000000003,4052.1900000000001,1260.1700000000001,4549.54,-1937.78,-451.31099999999998,-893.88599999999997
166037.0,4982.2700000000004,4164.6499999999996,1346.6400000000001,4744.9200000000001,-2013.9300000000001,-421.125,-858.32799999999997
166038.0,5076.4899999999998,4169.2200000000003,1333.1900000000001,4825.0500000000002,-2081.7800000000002,-386.262,-814.15099999999995
166039.0,5145.6099999999997,4228.6099999999997,1386.51,4957.0100000000002,-2136.23,-351.72300000000001,-761.00599999999997
166040.0,4188.1099999999997,3955.5100000000002,1076.54,3731.8299999999999,-1336.6300000000001,-409.012,-1152.4100000000001
166041.0,4244.7799999999997,3907.23,1045.46,3737.3400000000001,-1401.46,-428.92000000000002,-1131.5999999999999
166042.0,4326.1400000000003,3998.5700000000002,1140.51,3896.1399999999999,-1472.8299999999999,-443.358,-1115.3399999999999
166043.0,4424.3000000000002,3971.2399999999998,1108.0799999999999,3945.2600000000002,-1549.8699999999999,-451.17000000000002,-1100.53
166044.0,4534.3800000000001,4091.3600000000001,1214.48,4145.8000000000002,-1630.49,-452.99799999999999,-1085.28
166045.0,4651.4899999999998,4078.6399999999999,1183.24,4215.3299999999999,-1713.9100000000001,-449.25900000000001,-1067.79
166046.0,4774.6700000000001,4205.4399999999996,1284.8399999999999,4423.5799999999999,-1798.96,-440.351,-1047.5999999999999
166047.0,4900.2700000000004,4213.6400000000003,1264.6600000000001,4511.8000000000002,-1885.2,-425.86900000000003,-1023.39
166048.0,5028.8699999999999,4341.7299999999996,1357.47,4715.6899999999996,-1971.47,-406.27800000000002,-995.41099999999994
166049.0,5155.9099999999999,4373.6800000000003,1352.8399999999999,4818.7700000000004,-2057.6500000000001,-381.346,-962.14400000000001
166050.0,5276.7700000000004,4494.1199999999999,1433.4100000000001,5003.71,-2139.1700000000001,-353.18599999999998,-922.78099999999995
166051.0,5377.2799999999997,4496.3900000000003,1404.75,5063.7799999999997,-2211.96,-321.83199999999999,-874.024
166052.0,5451.9700000000003,4591.3599999999997,1482.0599999999999,5214.3999999999996,-2271.1900000000001,-292.24900000000002,-816.44799999999998
166053.0,4408.7399999999998,4113.6099999999997,1108.2,3982.25,-1398.8800000000001,-358.12599999999998,-1228.3699999999999
166054.0,4470.2299999999996,4102.8800000000001,1106.79,4012.0900000000001,-1469.1199999999999,-372.971,-1208.01
166055.0,4558.0799999999999,4175.46,1173.28,4138.3299999999999,-1546.1300000000001,-382.43700000000001,-1192.02
166056.0,4663.9700000000003,4198.96,1181.1099999999999,4223.8800000000001,-1629.3699999999999,-385.68599999999998,-1177.3599999999999
166057.0,4782.1899999999996,4296.2600000000002,1252.71,4385.8800000000001,-1716.1600000000001,-383.43200000000002,-1161.72
166058.0,4907.9099999999999,4329.5200000000004,1255.1600000000001,4484.71,-1806.0999999999999,-376.52199999999999,-1143.5899999999999
166059.0,5039.1800000000003,4454.71,1341.6400000000001,4673.4300000000003,-1897.1300000000001,-365.19600000000003,-1121.9100000000001
166060.0,5173.7399999999998,4484.1800000000003,1328.55,4764.1199999999999,-1989.8699999999999,-349.303,-1095.9000000000001
166061.0,5310.21,4627.0200000000004,1422.01,4963.4799999999996,-2081.9699999999998,-329.44099999999997,-1065.4100000000001
166062.0,5443.4799999999996,4649.7799999999997,1393.1099999999999,5037.3699999999999,-2172.6100000000001,-305.35000000000002,-1028.3800000000001
166063.0,5571.4499999999998,4800.79,1490.51,5233.2299999999996,-2259.5700000000002,-279.5,-985.42899999999997
166064.0,5679.5699999999997,4829.5100000000002,1474.6800000000001,5300.7299999999996,-2338.0599999999999,-251.821,-932.73199999999997
166065.0,5760.9700000000003,4926.3500000000004,1540.71,5434.5699999999997,-2402.52,-227.297,-870.99400000000003
166066.0,4632.5699999999997,4301.5600000000004,1170.25,4267.0600000000004,-1459.6199999999999,-303.33600000000001,-1303.1900000000001
166067.0,4699.0100000000002,4273.5699999999997,1143.04,4265.7399999999998,-1535.23,-312.78399999999999,-1283.3199999999999
166068.0,4793.1599999999999,4388.5299999999997,1242.1600000000001,4419.9499999999998,-1617.78,-317.09899999999999,-1267.75
166069.0,4906.3699999999999,4387.3000000000002,1213.9000000000001,4465.4200000000001,-1706.8499999999999,-315.43200000000002,-1252.9300000000001
166070.0,5032.5699999999997,4535.5699999999997,1324.3,4661.8299999999999,-1799.6300000000001,-308.83499999999998,-1237.0799999999999
166071.0,5166.5900000000001,4559.71,1304.03,4733.6499999999996,-1895.6300000000001,-298.31299999999999,-1217.99
166072.0,5306.1400000000003,4709.8699999999999,1401.8199999999999,4928.3999999999996,-1992.8199999999999,-284.40899999999999,-1195.0599999999999
166073.0,5448.25,4759.0100000000002,1394.1600000000001,5018.8800000000001,-2091.1700000000001,-267.15100000000001,-1167.0699999999999
166074.0,5592.3599999999997,4918.3599999999997,1489.6500000000001,5214.1499999999996,-2189.0500000000002,-246.982,-1134.02
166075.0,5733.9300000000003,4981.1899999999996,1487.1400000000001,5307.54,-2286.0700000000002,-224.16399999999999,-1094.49
166076.0,5868.0500000000002,5132.5,1570.2,5482.6700000000001,-2377.7399999999998,-200.56100000000001,-1047.5899999999999
166077.0,5981.6800000000003,5166.2700000000004,1545.03,5534.6999999999998,-2460.4099999999999,-176.78999999999999,-990.36800000000005
166078.0,6068.1199999999999,5290.6499999999996,1625.55,5676.3100000000004,-2529.1500000000001,-157.732,-924.21900000000005
166079.0,4857.8299999999999,4462.46,1206.3299999999999,4529.4700000000003,-1518.1800000000001,-244.476,-1375.9200000000001
166080.0,4929.3500000000004,4463.8999999999996,1199.4400000000001,4542.8800000000001,-1599.04,-248.31299999999999,-1356.71
166081.0,5029.6300000000001,4569.5,1278.9100000000001,4672.54,-1686.9000000000001,-247.03800000000001,-1341.5799999999999
166082.0,5150.4200000000001,4614.2299999999996,1285.05,4747.8100000000004,-1781.8399999999999,-240.31200000000001,-1327.0
166083.0,5283.8800000000001,4748.9099999999999,1369.3,4913.1300000000001,-1880.1800000000001,-228.994,-1310.5999999999999
166084.0,5425.8199999999997,4801.2399999999998,1363.76,4994.3599999999997,-1982.02,-214.875,-1290.78
166085.0,5572.6999999999998,4975.46,1471.45,5193.0299999999997,-2084.7399999999998,-198.114,-1266.3599999999999
166086.0,5722.8100000000004,5022.2299999999996,1446.3199999999999,5260.0200000000004,-2188.8499999999999,-179.30799999999999,-1236.52
166087.0,5873.4099999999999,5208.3400000000001,1553.6099999999999,5460.1599999999999,-2291.6500000000001,-158.69,-1200.77
166088.0,6020.7399999999998,5259.3100000000004,1522.98,5519.0299999999997,-2392.6700000000001,-136.82300000000001,-1157.6700000000001
166089.0,6160.7600000000002,5453.0200000000004,1634.1400000000001,5714.3599999999997,-2489.1399999999999,-115.733,-1107.1099999999999
166090.0,6280.7799999999997,5502.9099999999999,1610.8699999999999,5760.9200000000001,-2576.7600000000002,-96.234300000000005,-1046.03
166091.0,6372.8299999999999,5642.46,1692.8699999999999,5896.6800000000003,-2650.0599999999999,-82.791799999999995,-975.71699999999998
166092.0,5083.5699999999997,4636.5500000000002,1257.8099999999999,4809.5,-1574.3399999999999,-181.654,-1446.5899999999999
166093.0,5160.1000000000004,4642.7399999999998,1245.9400000000001,4812.21,-1660.25,-179.55600000000001,-1428.05
166094.0,5266.0600000000004,4769.8400000000001,1336.6400000000001,4947.5100000000002,-1753.1900000000001,-172.52000000000001,-1413.3399999999999
166095.0,5393.5600000000004,4809.6000000000004,1325.48,5000.79,-1853.29,-160.31399999999999,-1398.51
166096.0,5534.3000000000002,4972.1300000000001,1425.01,5175.6499999999996,-1957.1300000000001,-144.09800000000001,-1381.99
166097.0,5683.79,5050.3999999999996,1431.02,5262.8900000000003,-2064.3800000000001,-125.964,-1361.22
166098.0,5837.54,5207.21,1507.1099999999999,5423.0600000000004,-2172.3699999999999,-106.22799999999999,-1335.3399999999999
166099.0,5994.21,5316.9300000000003,1529.8299999999999,5530.71,-2281.3000000000002,-85.8673,-1303.5799999999999
166100.0,6151.0500000000002,5493.1199999999999,1612.54,5698.0100000000002,-2389.1799999999998,-64.889399999999995,-1265.21
166101.0,6304.71,5600.1000000000004,1623.4000000000001,5789.7600000000002,-2495.1999999999998,-44.402299999999997,-1219.4300000000001
166102.0,6449.2299999999996,5772.1700000000001,1697.73,5939.7700000000004,-2595.3899999999999,-25.791499999999999,-1164.8
166103.0,6573.6899999999996,5848.1300000000001,1685.1199999999999,5989.2399999999998,-2686.3299999999999,-10.585900000000001,-1099.3900000000001
166104.0,6670.1000000000004,5997.6700000000001,1763.1600000000001,6112.6499999999996,-2763.3499999999999,-3.1313800000000001,-1024.8199999999999
166105.0,5307.5600000000004,4786.2200000000003,1287.73,5069.3400000000001,-1627.26,-114.79600000000001,-1514.0
166106.0,5388.8699999999999,4833.54,1306.96,5097.0299999999997,-1717.9000000000001,-106.47199999999999,-1496.3299999999999
166107.0,5500.8500000000004,4939.9200000000001,1366.0699999999999,5195.1499999999996,-1815.9000000000001,-93.388900000000007,-1482.23
166108.0,5635.1400000000003,5040.0799999999999,1403.0999999999999,5290.9899999999998,-1921.0899999999999,-75.453000000000003,-1467.74
166109.0,5782.0200000000004,5180.5,1467.55,5424.5299999999997,-2029.79,-54.106400000000001,-1450.4300000000001
166110.0,5937.8000000000002,5284.1099999999997,1484.8800000000001,5516.3000000000002,-2141.6700000000001,-31.827200000000001,-1428.75
166111.0,6097.9399999999996,5478.6400000000003,1584.21,5692.0100000000002,-2254.5799999999999,-9.0147999999999993,-1401.4400000000001
166112.0,6260.6300000000001,5571.29,1574.27,5759.1199999999999,-2367.9699999999998,13.190200000000001,-1367.5899999999999
166113.0,6422.4700000000003,5771.1800000000003,1665.22,5925.8500000000004,-2479.77,34.607399999999998,-1326.51
166114.0,6580.3800000000001,5882.1000000000004,1663.6700000000001,5996.4899999999998,-2588.9299999999998,54.058500000000002,-1277.25
166115.0,6729.0600000000004,6087.5600000000004,1757.01,6155.3400000000001,-2692.9299999999998,69.799400000000006,-1219.05
166116.0,6857.8199999999997,6190.7799999999997,1757.1199999999999,6208.0299999999997,-2787.5100000000002,80.3536,-1149.73
166117.0,6958.2200000000003,6340.7399999999998,1821.6199999999999,6308.4899999999998,-2868.0300000000002,81.525599999999997,-1071.1900000000001
166118.0,5528.8400000000001,4947.6599999999999,1333.49,5344.8800000000001,-1676.7,-44.034799999999997,-1578.26
166119.0,5614.7399999999998,5009.0799999999999,1356.5699999999999,5370.1300000000001,-1771.8,-29.134499999999999,-1561.52
166120.0,5732.0200000000004,5130.6899999999996,1419.73,5466.1300000000001,-1874.3800000000001,-9.8646100000000008,-1547.8199999999999
166121.0,5871.1599999999999,5230.9099999999999,1444.54,5543.4700000000003,-1983.55,14.159800000000001,-1532.8299999999999
166122.0,6024.6199999999999,5387.3000000000002,1511.8199999999999,5672.9899999999998,-2097.0500000000002,40.7742,-1515.48
166123.0,6186.3699999999999,5542.3699999999999,1566.29,5794.46,-2213.3899999999999,67.591399999999993,-1492.78
166124.0,6351.6199999999999,5679.4499999999998,1593.5,5889.54,-2330.2800000000002,93.576099999999997,-1463.8699999999999
166125.0,6519.0299999999997,5880.2600000000002,1676.76,6040.4200000000001,-2447.4499999999998,117.61799999999999,-1428.03
166126.0,6685.2299999999996,6041.8000000000002,1714.52,6143.6199999999999,-2563.0900000000001,139.315,-1384.3699999999999
166127.0,6846.8400000000001,6226.2799999999997,1771.73,6262.1999999999998,-2675.6300000000001,157.43600000000001,-1332.1199999999999
166128.0,6998.0299999999997,6382.1000000000004,1800.0599999999999,6345.3699999999999,-2782.0,170.35499999999999,-1270.0
166129.0,7129.3000000000002,6539.3699999999999,1838.8099999999999,6426.5699999999997,-2878.7399999999998,176.24700000000001,-1196.46
166130.0,7232.6400000000003,6673.0299999999997,1872.9200000000001,6486.0799999999999,-2962.0599999999999,170.80099999999999,-1114.0699999999999
166131.0,5744.8100000000004,5093.6599999999999,1368.8,5608.6999999999998,-1721.5599999999999,30.746099999999998,-1638.1300000000001
166132.0,5834.8699999999999,5184.9300000000003,1411.4200000000001,5646.6499999999996,-1820.9400000000001,52.337600000000002,-1622.25
166133.0,5957.1499999999996,5293.1800000000003,1449.8499999999999,5711.3100000000004,-1927.6099999999999,78.078500000000005,-1609.27
166134.0,6102.4399999999996,5449.3299999999999,1518.3299999999999,5825.5600000000004,-2041.3299999999999,108.337,-1594.8
166135.0,6260.04,5593.0600000000004,1559.79,5921.4499999999998,-2158.2800000000002,140.58699999999999,-1576.3499999999999
166136.0,6426.1199999999999,5752.5200000000004,1604.6600000000001,6024.79,-2277.9899999999998,171.87100000000001,-1552.46
166137.0,6595.8699999999999,5961.1599999999999,1689.0999999999999,6167.2799999999997,-2398.5700000000002,201.274,-1522.1700000000001
166138.0,6766.9200000000001,6105.79,1700.5699999999999,6236.4300000000003,-2518.71,227.27600000000001,-1483.9200000000001
166139.0,6935.5200000000004,6307.1899999999996,1763.0799999999999,6353.1000000000004,-2636.6399999999999,249.46799999999999,-1437.53
166140.0,7099.1999999999998,6492.29,1805.1500000000001,6445.1599999999999,-2751.1300000000001,266.31200000000001,-1381.9200000000001
166141.0,7251.8699999999999,6690.5,1862.05,6544.1000000000004,-2859.7600000000002,276.11900000000003,-1316.27
166142.0,7384.8999999999996,6867.9200000000001,1906.5599999999999,6619.1199999999999,-2958.54,276.87299999999999,-1238.99
166143.0,7489.9200000000001,7002.9499999999998,1928.1099999999999,6654.3999999999996,-3043.8600000000001,264.73599999999999,-1152.78
166144.0,5953.6400000000003,5251.1300000000001,1422.5599999999999,5887.4499999999998,-1761.48,109.264,-1693.3800000000001
166145.0,6048.5200000000004,5336.8800000000001,1448.51,5902.1599999999999,-1865.0899999999999,137.81299999999999,-1678.78
166146.0,6175.04,5483.4399999999996,1513.9200000000001,5986.8000000000002,-1975.28,170.31200000000001,-1666.3599999999999
166147.0,6323.1999999999998,5615.6899999999996,1546.1099999999999,6057.0200000000004,-2091.7199999999998,207.023,-1650.8699999999999
166148.0,6485.3800000000001,5792.5100000000002,1608.01,6164.6400000000003,-2212.1399999999999,244.983,-1632.3499999999999
166149.0,6655.6700000000001,5994.75,1681.5599999999999,6287.2700000000004,-2335.1599999999999,281.065,-1607.4000000000001
166150.0,6827.4200000000001,6138.3100000000004,1686.8399999999999,6339.75,-2457.8299999999999,313.90899999999999,-1575.0599999999999
166151.0,7001.1400000000003,6402.1199999999999,1803.02,6501.8699999999999,-2580.4299999999998,341.85399999999998,-1535.04
166152.0,7171.4799999999996,6577.4099999999999,1825.01,6565.1400000000003,-2700.6599999999999,364.38400000000001,-1485.9300000000001
166153.0,7335.6700000000001,6804.8900000000003,1895.1800000000001,6671.9499999999998,-2816.4899999999998,379.76799999999997,-1427.29
166154.0,7487.8599999999997,6977.3500000000004,1911.5899999999999,6716.9799999999996,-2925.73,386.48000000000002,-1357.6500000000001
166155.0,7620.5900000000001,7176.0299999999997,1962.8900000000001,6785.8500000000004,-3024.9899999999998,382.08800000000002,-1276.53
166156.0,7725.9700000000003,7334.6099999999997,1994.29,6817.8999999999996,-3111.52,362.90100000000001,-1186.6199999999999
166157.0,6153.4399999999996,5378.3800000000001,1454.02,6139.3800000000001,-1795.8299999999999,191.51599999999999,-1742.9400000000001
166158.0,6251.9399999999996,5497.7799999999997,1502.1900000000001,6169.1000000000004,-1902.6500000000001,227.19,-1729.54
166159.0,6381.8999999999996,5630.6700000000001,1542.8699999999999,6221.2700000000004,-2016.0699999999999,266.50099999999998,-1717.45
166160.0,6534.5900000000001,5811.1099999999997,1611.3299999999999,6319.1899999999996,-2135.73,309.91500000000002,-1702.8099999999999
166161.0,6698.9300000000003,5992.3000000000002,1664.75,6409.0600000000004,-2258.3400000000001,353.71499999999997,-1682.77
166162.0,6870.1400000000003,6166.5100000000002,1697.3800000000001,6479.5600000000004,-2382.6199999999999,394.74099999999999,-1656.3499999999999
166163.0,7044.9200000000001,6433.1499999999996,1811.4200000000001,6629.3100000000004,-2507.8800000000001,431.06400000000002,-1622.71
166164.0,7217.8400000000001,6574.3500000000004,1791.24,6641.6599999999999,-2631.0599999999999,461.11500000000001,-1579.8099999999999
166165.0,7387.3400000000001,6831.8199999999997,1880.8800000000001,6758.9300000000003,-2751.4200000000001,483.95299999999997,-1527.8599999999999
166166.0,7550.3599999999997,7028.3599999999997,1906.2,6806.1099999999997,-2867.6100000000001,497.98200000000003,-1465.9400000000001
166167.0,7700.8900000000003,7280.3400000000001,1988.9300000000001,6902.0299999999997,-2977.02,501.21800000000002,-1393.05
166168.0,7831.9399999999996,7463.9799999999996,2012.1400000000001,6927.8699999999999,-3076.4699999999998,491.39999999999998,-1308.1500000000001
166169.0,7936.0500000000002,7648.71,2056.4000000000001,6958.5699999999997,-3162.9499999999998,464.99900000000002,-1214.99
166170.0,6341.5900000000001,5517.8800000000001,1507.3,6405.8900000000003,-1823.73,277.238,-1786.28
166171.0,6444.0799999999999,5626.8999999999996,1533.6500000000001,6406.6700000000001,-1933.6099999999999,320.15300000000002,-1774.5999999999999
166172.0,6577.4099999999999,5804.1599999999999,1607.3399999999999,6483.8500000000004,-2049.8299999999999,366.57499999999999,-1763.1500000000001
166173.0,6730.1099999999997,5956.3599999999997,1636.1700000000001,6532.6199999999999,-2170.3299999999999,416.79899999999998,-1747.05
166174.0,6896.8100000000004,6167.4200000000001,1706.99,6629.3599999999997,-2294.8000000000002,466.60399999999998,-1726.77
166175.0,7069.0200000000004,6392.4799999999996,1778.3099999999999,6726.25,-2420.79,512.548,-1699.04
166176.0,7241.6999999999998,6561.9399999999996,1782.02,6752.3999999999996,-2545.3699999999999,552.476,-1662.8800000000001
166177.0,7415.25,6866.8900000000003,1912.0799999999999,6900.6400000000003,-2669.8499999999999,584.63,-1618.4100000000001
166178.0,7583.1499999999996,7067.71,1932.0899999999999,6932.5,-2790.48,607.76199999999994,-1563.8900000000001
166179.0,7742.3299999999999,7321.7299999999996,2002.1300000000001,7007.8599999999997,-2905.5100000000002,620.11199999999997,-1498.5599999999999
166180.0,7888.1300000000001,7516.1099999999997,2014.5899999999999,7016.6800000000003,-3013.0599999999999,619.90800000000002,-1421.9100000000001
166181.0,8015.1599999999999,7746.3599999999997,2071.6399999999999,7060.21,-3110.9400000000001,604.52300000000002,-1333.3099999999999
166182.0,8116.3599999999997,7929.7200000000003,2102.48,7061.5200000000004,-3196.6900000000001,570.58900000000006,-1237.04
166183.0,6516.0299999999997,5612.1499999999996,1526.48,6629.5500000000002,-1844.24,366.226,-1822.8299999999999
166184.0,6621.6199999999999,5779.46,1599.5,6669.6700000000001,-1956.72,416.51499999999999,-1812.3299999999999
166185.0,6755.96,5911.0100000000002,1616.8499999999999,6681.25,-2074.29,470.15600000000001,-1801.03
166186.0,6911.3299999999999,6143.2299999999996,1714.5799999999999,6788.6400000000003,-2196.9299999999998,527.13900000000001,-1785.6400000000001
166187.0,7076.2700000000004,6320.1700000000001,1740.4200000000001,6828.3699999999999,-2321.1999999999998,583.08699999999999,-1763.51
166188.0,7247.1199999999999,6554.1300000000001,1807.8,6908.5100000000002,-2446.6199999999999,634.21400000000006,-1734.0699999999999
166189.0,7419.1700000000001,6820.7299999999996,1897.3399999999999,7005.1899999999996,-2572.1999999999998,677.60699999999997,-1696.6600000000001
166190.0,7586.46,7008.2700000000004,1897.8499999999999,7007.6099999999997,-2693.7199999999998,711.74000000000001,-1648.55
166191.0,7748.8699999999999,7267.5500000000002,1964.1800000000001,7068.5500000000002,-2811.9299999999998,735.12699999999995,-1590.9100000000001
166192.0,7903.3699999999999,7519.0200000000004,2019.55,7111.3999999999996,-2925.1399999999999,745.87900000000002,-1522.74
166193.0,8043.5200000000004,7773.3000000000002,2081.02,7150.3100000000004,-3030.77,741.98000000000002,-1442.9200000000001
166194.0,8164.5699999999997,8002.4899999999998,2125.9000000000001,7163.5,-3126.1300000000001,720.78599999999994,-1351.0
166195.0,8260.5900000000001,8190.6000000000004,2150.1700000000001,7140.9799999999996,-3209.6199999999999,679.21500000000003,-1251.6700000000001
166196.0,6673.7299999999996,5719.9899999999998,1572.46,6868.4099999999999,-1856.72,458.13099999999997,-1851.3800000000001
166197.0,6782.4300000000003,5882.1599999999999,1628.49,6884.04,-1971.2,515.96600000000001,-1842.7
166198.0,6918.1800000000003,6056.3299999999999,1678.4100000000001,6918.5600000000004,-2090.3600000000001,576.81100000000004,-1832.1199999999999
166199.0,7070.8900000000003,6257.1400000000003,1733.74,6972.6499999999996,-2211.5500000000002,640.90800000000002,-1815.0
166200.0,7234.8800000000001,6471.8199999999997,1787.1700000000001,7026.3999999999996,-2336.1999999999998,702.90300000000002,-1792.24
166201.0,7401.8100000000004,6733.2799999999997,1872.1300000000001,7108.9200000000001,-2460.2199999999998,758.89700000000005,-1760.97
166202.0,7567.8800000000001,6913.6300000000001,1863.45,7091.5799999999999,-2582.5,806.18799999999999,-1720.51
166203.0,7732.79,7261.5699999999997,2013.52,7225.7200000000003,-2703.8699999999999,842.19899999999996,-1671.3399999999999
166204.0,7888.9200000000001,7469.2799999999997,2018.4100000000001,7205.6700000000001,-2819.9000000000001,865.69799999999998,-1611.0699999999999
166205.0,8033.8900000000003,7757.0900000000001,2100.02,7254.5600000000004,-2928.5700000000002,874.49800000000005,-1539.21
166206.0,8163.96,7955.6899999999996,2096.21,7207.6499999999996,-3029.27,866.82600000000002,-1455.6400000000001
166207.0,8276.0200000000004,8223.5599999999995,2170.02,7229.6999999999998,-3120.2800000000002,839.64599999999996,-1360.4100000000001
166208.0,8364.8199999999997,8414.5799999999999,2187.8800000000001,7181.6300000000001,-3200.5999999999999,790.17600000000004,-1258.4200000000001
166209.0,6812.6099999999997,5792.9099999999999,1598.1400000000001,7073.3100000000004,-1860.0999999999999,552.72000000000003,-1871.6099999999999
166210.0,6923.3299999999999,5997.9899999999998,1685.9400000000001,7112.9799999999996,-1976.1400000000001,618.03099999999995,-1864.25
166211.0,7057.8800000000001,6136.04,1689.6199999999999,7090.75,-2094.8499999999999,686.31200000000001,-1853.6700000000001
166212.0,7209.5699999999997,6405.5299999999997,1804.8299999999999,7191.8800000000001,-2216.23,757.04100000000005,-1836.75
166213.0,7367.8900000000003,6580.0299999999997,1808.78,7181.7200000000003,-2337.8499999999999,825.452,-1811.76
166214.0,7530.1700000000001,6868.54,1910.5999999999999,7265.1499999999996,-2459.6999999999998,886.36500000000001,-1778.7
166215.0,7689.5900000000001,7119.1999999999998,1965.1199999999999,7291.3500000000004,-2579.8800000000001,936.94799999999998,-1736.5999999999999
166216.0,7842.9300000000003,7361.75,1999.3,7290.8199999999997,-2694.5,974.94799999999998,-1683.1099999999999
166217.0,7988.3800000000001,7607.8999999999996,2033.5,7279.04,-2805.0700000000002,998.64700000000005,-1619.48
166218.0,8124.0799999999999,7912.8500000000004,2123.7600000000002,7314.7399999999998,-2909.5,1005.4299999999999,-1545.26
166219.0,8243.4099999999999,8153.3999999999996,2154.73,7279.6999999999998,-3005.6300000000001,993.774,-1458.6900000000001
166220.0,8344.2000000000007,8427.2800000000007,2226.8499999999999,7277.96,-3091.0599999999999,960.404,-1360.71
166221.0,8422.9599999999991,8604.8700000000008,2223.0999999999999,7187.6599999999999,-3166.3200000000002,902.98500000000001,-1255.9300000000001
166222.0,6929.0299999999997,5868.6199999999999,1643.8699999999999,7281.4700000000003,-1853.3499999999999,649.44600000000003,-1882.1800000000001
166223.0,7041.6700000000001,6060.6499999999996,1707.46,7288.9200000000001,-1970.6600000000001,722.34500000000003,-1876.48
166224.0,7174.6899999999996,6243.8800000000001,1747.5699999999999,7291.8299999999999,-2088.5900000000001,797.85599999999999,-1866.6199999999999
166225.0,7320.9799999999996,6478.6199999999999,1818.9100000000001,7336.0600000000004,-2206.8400000000001,875.62599999999998,-1847.77
166226.0,7473.2299999999996,6698.5,1861.54,7347.4899999999998,-2326.04,949.95000000000005,-1821.54
166227.0,7626.71,6980.5100000000002,1949.03,7398.8199999999997,-2443.1300000000001,1015.72,-1786.01
166228.0,7775.9499999999998,7179.0299999999997,1942.4100000000001,7344.6000000000004,-2557.5599999999999,1070.1800000000001,-1740.6600000000001
166229.0,7920.8900000000003,7540.4799999999996,2090.02,7434.7200000000003,-2669.4000000000001,1109.3900000000001,-1686.1199999999999
166230.0,8053.7600000000002,7760.7399999999998,2092.8200000000002,7367.6700000000001,-2774.3400000000001,1132.8800000000001,-1619.6700000000001
166231.0,8173.79,8061.8400000000001,2172.8000000000002,7369.1899999999996,-2870.4200000000001,1137.54,-1541.5799999999999
166232.0,8276.8700000000008,8271.8899999999994,2167.6900000000001,7273.3599999999997,-2957.98,1121.8,-1451.3299999999999
166233.0,8362.7700000000004,8553.3700000000008,2242.1799999999998,7249.7600000000002,-3035.79,1082.0999999999999,-1350.53
166234.0,8428.5900000000001,8760.1200000000008,2262.3400000000001,7160.1899999999996,-3104.6799999999998,1016.49,-1243.54
166235.0,7020.9700000000003,5921.6499999999996,1686.0899999999999,7466.7600000000002,-1835.9000000000001,747.93700000000001,-1882.5999999999999
166236.0,7134.3500000000004,6115.5,1741.0599999999999,7457.2600000000002,-1953.53,828.32799999999997,-1878.49
166237.0,7263.6000000000004,6306.6199999999999,1780.3199999999999,7447.5600000000004,-2069.0300000000002,911.11599999999999,-1868.46
166238.0,7403.8299999999999,6553.7600000000002,1858.4200000000001,7482.6300000000001,-2184.6500000000001,995.43600000000004,-1848.9300000000001
166239.0,7546.54,6773.4200000000001,1893.8199999999999,7469.8500000000004,-2298.1100000000001,1075.9200000000001,-1820.23
166240.0,7689.2700000000004,7053.8000000000002,1975.0,7494.0200000000004,-2410.3000000000002,1146.1600000000001,-1782.45
166241.0,7825.4799999999996,7330.8199999999997,2043.21,7491.54,-2518.54,1203.5599999999999,-1734.8099999999999
166242.0,7953.9399999999996,7574.8900000000003,2066.46,7434.9899999999998,-2620.4400000000001,1244.8499999999999,-1675.74
166243.0,8070.6000000000004,7847.5600000000004,2116.5799999999999,7390.3500000000004,-2716.5900000000001,1268.1900000000001,-1605.96
166244.0,8174.5200000000004,8142.5299999999997,2188.2399999999998,7356.3800000000001,-2805.3000000000002,1270.3,-1525.5699999999999
166245.0,8260.2900000000009,8406.5599999999995,2235.1999999999998,7285.1300000000001,-2884.6199999999999,1250.0999999999999,-1432.76
166246.0,8328.4400000000005,8664.6399999999994,2284.0700000000002,7209.2399999999998,-2953.4699999999998,1203.9300000000001,-1329.4300000000001
166247.0,8378.2999999999993,8869.8700000000008,2299.0,7089.79,-3013.6999999999998,1130.1600000000001,-1220.45
166248.0,7084.3400000000001,5957.0799999999999,1732.8499999999999,7633.5500000000002,-1806.4000000000001,847.51499999999999,-1871.48
166249.0,7197.8800000000001,6126.7399999999998,1753.26,7580.96,-1923.6700000000001,935.35299999999995,-1869.1600000000001
166250.0,7322.4499999999998,6366.1599999999999,1833.8099999999999,7599.8800000000001,-2036.0899999999999,1025.1400000000001,-1859.46
166251.0,7453.1099999999997,6574.6800000000003,1868.1900000000001,7574.5799999999999,-2146.3400000000001,1116.2,-1837.9300000000001
166252.0,7584.3400000000001,6845.8299999999999,1951.6400000000001,7589.9899999999998,-2253.96,1202.0799999999999,-1807.1300000000001
166253.0,7712.5600000000004,7083.0500000000002,1986.1700000000001,7545.5900000000001,-2358.02,1277.1199999999999,-1766.3499999999999
166254.0,7833.3000000000002,7345.9300000000003,2035.8499999999999,7501.5900000000001,-2457.4899999999998,1337.73,-1715.27
166255.0,7944.7299999999996,7647.9700000000003,2118.6300000000001,7475.8800000000001,-2552.4299999999998,1379.73,-1654.4400000000001
166256.0,8041.9399999999996,7926.2700000000004,2173.7800000000002,7408.4499999999998,-2638.6700000000001,1402.29,-1581.7
166257.0,8123.5900000000001,8176.4700000000003,2199.9299999999998,7300.2600000000002,-2715.2399999999998,1402.1900000000001,-1497.4100000000001
166258.0,8186.9399999999996,8439.1499999999996,2244.9699999999998,7198.4300000000003,-2782.0700000000002,1377.47,-1401.4300000000001
166259.0,8233.1700000000001,8673.3500000000004,2271.3899999999999,7070.5500000000002,-2839.6700000000001,1324.8099999999999,-1295.5799999999999
166260.0,8263.6499999999996,8930.2099999999991,2338.1799999999998,6975.8500000000004,-2889.6799999999998,1242.55,-1185.22
166261.0,7117.0200000000004,5961.3599999999997,1772.96,7767.5299999999997,-1764.3299999999999,947.67100000000005,-1848.3499999999999
166262.0,7229.9300000000003,6126.3900000000003,1778.72,7691.8999999999996,-1880.03,1042.6900000000001,-1848.1800000000001
166263.0,7347.2799999999997,6387.2200000000003,1874.98,7712.7299999999996,-1988.0599999999999,1139.3900000000001,-1837.8
166264.0,7466.3800000000001,6573.9899999999998,1885.49,7644.6300000000001,-2092.1199999999999,1236.6700000000001,-1814.74
166265.0,7583.0200000000004,6863.4700000000003,1984.5899999999999,7655.1999999999998,-2191.0900000000001,1328.01,-1780.99
166266.0,7693.3299999999999,7086.4200000000001,2006.53,7572.1700000000001,-2286.46,1406.98,-1737.4300000000001
166267.0,7794.4899999999998,7420.5900000000001,2128.4400000000001,7573.7200000000003,-2375.6399999999999,1469.9100000000001,-1683.3
166268.0,7883.5600000000004,7612.6000000000004,2100.54,7409.8900000000003,-2457.3400000000001,1513.6600000000001,-1618.1199999999999
166269.0,7957.8599999999997,7940.3800000000001,2206.4099999999999,7363.75,-2530.9899999999998,1535.4000000000001,-1541.96
166270.0,8015.0900000000001,8167.3900000000003,2215.0700000000002,7205.0500000000002,-2595.9099999999999,1532.3,-1455.27
166271.0,8053.3999999999996,8480.1000000000004,2315.1500000000001,7125.8500000000004,-2650.04,1502.5699999999999,-1356.98
166272.0,8074.4399999999996,8669.4200000000001,2301.8600000000001,6926.3100000000004,-2694.5900000000001,1443.28,-1249.01
166273.0,8082.2600000000002,8921.6399999999994,2366.77,6800.6700000000001,-2731.9499999999998,1352.6500000000001,-1137.4200000000001
166274.0,7115.0699999999997,5926.2299999999996,1801.1800000000001,7859.46,-1708.22,1047.49,-1812.02
166275.0,7226.1400000000003,6096.0100000000002,1801.9000000000001,7770.5200000000004,-1821.22,1149.53,-1813.6900000000001
166276.0,7334.8199999999997,6363.5,1901.3499999999999,7779.4700000000003,-1923.8699999999999,1252.8499999999999,-1803.04
166277.0,7439.7799999999997,6553.29,1914.0799999999999,7693.6899999999996,-2019.6700000000001,1356.0799999999999,-1777.9100000000001
166278.0,7538.4799999999996,6853.2700000000004,2025.7,7692.7700000000004,-2109.1399999999999,1452.1400000000001,-1741.0999999999999
166279.0,7627.8500000000004,7038.4200000000001,2011.9000000000001,7547.8299999999999,-2192.3899999999999,1535.26,-1693.8499999999999
166280.0,7706.4200000000001,7347.5500000000002,2111.7600000000002,7499.0699999999997,-2269.02,1600.55,-1635.9000000000001
166281.0,7770.04,7573.7700000000004,2126.4000000000001,7344.2200000000003,-2338.6599999999999,1644.3900000000001,-1568.1700000000001
166282.0,7817.3199999999997,7900.8400000000001,2238.3000000000002,7271.1099999999997,-2397.96,1664.8099999999999,-1488.8599999999999
166283.0,7845.5299999999997,8075.8299999999999,2201.5500000000002,7033.3299999999999,-2446.6399999999999,1658.98,-1398.52
166284.0,7854.4099999999999,8388.1800000000003,2308.9400000000001,6927.1800000000003,-2484.1999999999998,1624.4100000000001,-1297.6700000000001
166285.0,7846.4399999999996,8543.2199999999993,2270.6300000000001,6668.1599999999999,-2513.3299999999999,1558.3399999999999,-1187.5699999999999
166286.0,7827.8299999999999,8855.3799999999992,2403.5300000000002,6578.3699999999999,-2536.1300000000001,1459.25,-1075.5899999999999
166287.0,7076.1400000000003,5848.0900000000001,1816.1900000000001,7904.6000000000004,-1637.1400000000001,1146.1199999999999,-1761.9400000000001
166288.0,7184.8500000000004,6053.8500000000004,1844.45,7834.9399999999996,-1746.7,1255.03,-1765.9000000000001
166289.0,7282.1999999999998,6302.9700000000003,1923.8399999999999,7807.4200000000001,-1842.5599999999999,1364.55,-1754.1300000000001
166290.0,7369.6499999999996,6491.1700000000001,1937.24,7700.3900000000003,-1928.0699999999999,1473.1700000000001,-1726.4100000000001
166291.0,7447.3400000000001,6763.5299999999997,2025.5799999999999,7650.6099999999997,-2005.53,1573.74,-1686.0599999999999
166292.0,7511.9799999999996,6990.25,2061.3499999999999,7524.8000000000002,-2075.7800000000002,1659.8399999999999,-1635.3900000000001
166293.0,7563.5799999999999,7294.6300000000001,2165.1500000000001,7448.0299999999997,-2137.8699999999999,1726.6500000000001,-1573.78
166294.0,7598.1199999999999,7489.25,2155.6300000000001,7236.1199999999999,-2190.25,1771.3699999999999,-1501.6800000000001
166295.0,7614.8500000000004,7782.8199999999997,2244.5799999999999,7104.9200000000001,-2232.6599999999999,1790.1800000000001,-1418.9200000000001
166296.0,7610.4799999999996,7994.2399999999998,2258.5700000000002,6879.1899999999996,-2264.5300000000002,1780.8599999999999,-1326.02
166297.0,7586.7299999999996,8267.8400000000001,2341.4499999999998,6710.8699999999999,-2284.6999999999998,1740.8299999999999,-1223.1800000000001
166298.0,7546.0900000000001,8437.0200000000004,2331.5900000000001,6442.1999999999998,-2295.9200000000001,1668.0799999999999,-1111.4200000000001
166299.0,7498.6199999999999,8650.3199999999997,2377.3099999999999,6231.9799999999996,-2302.27,1560.3699999999999,-999.14599999999996
166300.0,6997.2600000000002,5755.0299999999997,1849.0899999999999,7930.0299999999997,-1549.76,1242.6600000000001,-1697.1900000000001
166301.0,7100.8400000000001,5949.1499999999996,1859.0999999999999,7833.0699999999997,-1654.6900000000001,1358.04,-1702.1700000000001
166302.0,7185.3699999999999,6197.0299999999997,1937.5999999999999,7787.3599999999997,-1742.0,1473.28,-1690.01
166303.0,7254.04,6403.6700000000001,1974.3299999999999,7680.2700000000004,-1816.45,1586.8,-1659.8800000000001
166304.0,7306.6999999999998,6664.4399999999996,2060.1500000000001,7599.0299999999997,-1880.01,1691.1300000000001,-1615.4100000000001
166305.0,7343.6499999999996,6839.2700000000004,2053.6500000000001,7400.0900000000001,-1933.8299999999999,1780.0899999999999,-1560.29
166306.0,7364.8500000000004,7108.2200000000003,2134.3800000000001,7265.7399999999998,-1978.78,1848.24,-1494.3099999999999
166307.0,7366.46,7315.2600000000002,2153.7800000000002,7044.4300000000003,-2013.8599999999999,1892.1600000000001,-1419.0
166308.0,7348.6999999999998,7592.2299999999996,2242.6399999999999,6874.1099999999997,-2037.1600000000001,1908.8599999999999,-1332.8900000000001
166309.0,7308.75,7756.9799999999996,2226.6300000000001,6578.8699999999999,-2048.1700000000001,1896.1900000000001,-1236.78
166310.0,7249.1800000000003,8006.8599999999997,2303.96,6364.8999999999996,-2047.51,1850.77,-1131.72
166311.0,7173.3800000000001,8161.9399999999996,2299.71,6061.2399999999998,-2038.47,1771.28,-1019.0
166312.0,7093.5799999999999,8403.0799999999999,2391.0799999999999,5859.5799999999999,-2026.02,1655.0699999999999,-906.41200000000003
166313.0,6875.0900000000001,5615.9099999999999,1872.4100000000001,7903.5,-1444.79,1336.01,-1616.52
166314.0,6974.9899999999998,5817.6999999999998,1884.27,7800.4899999999998,-1545.28,1457.52,-1623.9200000000001
166315.0,7043.5600000000004,6077.8599999999997,1978.25,7751.1199999999999,-1622.1800000000001,1578.0599999999999,-1610.4000000000001
166316.0,7088.3500000000004,6225.6099999999997,1964.8699999999999,7568.1400000000003,-1682.55,1695.46,-1576.03
166317.0,7113.2399999999998,6486.6199999999999,2063.77,7468.7200000000003,-1729.55,1803.1199999999999,-1527.5999999999999
166318.0,7119.4799999999996,6683.0600000000004,2095.0100000000002,7272.5,-1766.4100000000001,1893.48,-1468.3900000000001
166319.0,7106.4899999999998,6956.5799999999999,2198.8299999999999,7122.8500000000004,-1791.76,1962.3099999999999,-1398.0999999999999
166320.0,7073.0200000000004,7114.6000000000004,2187.0300000000002,6832.1000000000004,-1805.3900000000001,2005.49,-1318.4300000000001
166321.0,7017.7799999999997,7369.5,2275.9200000000001,6619.5,-1806.6400000000001,2020.0799999999999,-1228.5999999999999
166322.0,6939.8599999999997,7525.0299999999997,2275.21,6296.2299999999996,-1795.8099999999999,2002.9400000000001,-1130.1900000000001
166323.0,6841.8900000000003,7758.2299999999996,2362.0,6046.8599999999997,-1772.46,1952.1199999999999,-1023.25
166324.0,6729.4899999999998,7859.1599999999999,2328.6199999999999,5671.3100000000004,-1740.71,1865.3699999999999,-909.84900000000005
166325.0,6616.0600000000004,8039.5500000000002,2383.1900000000001,5392.1499999999996,-1706.8099999999999,1741.3299999999999,-797.36199999999997
166326.0,6709.3299999999999,5440.3900000000003,1899.28,7834.6899999999996,-1322.04,1424.9000000000001,-1519.8800000000001
166327.0,6800.7799999999997,5635.2200000000003,1900.01,7711.1599999999999,-1415.29,1552.03,-1527.51
166328.0,6852.0299999999997,5866.7799999999997,1971.7,7619.3800000000001,-1480.3800000000001,1676.99,-1513.1800000000001
166329.0,6873.8900000000003,6061.5699999999997,2017.04,7467.8900000000003,-1526.5899999999999,1797.99,-1476.1099999999999
166330.0,6867.7700000000004,6280.2600000000002,2091.4099999999999,7309.75,-1555.28,1907.76,-1422.7
166331.0,6839.21,6404.1099999999997,2070.2399999999998,7024.1499999999996,-1570.47,1999.28,-1357.73
166332.0,6789.7600000000002,6631.9300000000003,2151.9200000000001,6811.4300000000003,-1573.6199999999999,2067.9699999999998,-1282.6500000000001
166333.0,6718.1099999999997,6772.1999999999998,2149.46,6486.29,-1564.6500000000001,2109.1100000000001,-1199.1400000000001
166334.0,6623.8400000000001,7008.6099999999997,2248.6900000000001,6238.3000000000002,-1541.6099999999999,2120.7600000000002,-1105.9000000000001
166335.0,6507.5900000000001,7096.1099999999997,2208.8299999999999,5830.6000000000004,-1505.27,2099.2600000000002,-1004.72
166336.0,6372.0100000000002,7311.0699999999997,2308.9000000000001,5547.2799999999997,-1456.26,2042.9400000000001,-896.24400000000003
166337.0,6224.8800000000001,7377.3699999999999,2272.5599999999999,5122.8100000000004,-1399.96,1949.26,-782.65800000000002
166338.0,6080.2399999999998,7603.0799999999999,2402.2199999999998,4875.71,-1342.47,1817.3699999999999,-671.15800000000002
166339.0,6496.2399999999998,5193.6300000000001,1898.3199999999999,7686.1199999999999,-1179.51,1507.95,-1404.8299999999999
166340.0,6582.1599999999999,5430.0299999999997,1937.8499999999999,7593.8000000000002,-1265.6500000000001,1640.3900000000001,-1415.77
166341.0,6614.25,5646.9399999999996,2003.98,7474.9200000000001,-1318.1900000000001,1769.0899999999999,-1399.3499999999999
166342.0,6605.25,5774.6199999999999,2000.3599999999999,7243.25,-1344.6099999999999,1892.25,-1356.3
166343.0,6567.1599999999999,5970.5900000000001,2074.1199999999999,7048.1300000000001,-1352.5,2003.3499999999999,-1298.4000000000001
166344.0,6504.5900000000001,6150.8800000000001,2135.6999999999998,6804.6199999999999,-1346.6700000000001,2094.8200000000002,-1228.8699999999999
166345.0,6417.8500000000004,6334.6300000000001,2203.4499999999998,6533.6099999999997,-1325.49,2162.3699999999999,-1149.25
166346.0,6308.8100000000004,6467.3699999999999,2224.3400000000001,6186.8400000000001,-1290.1600000000001,2201.46,-1060.9000000000001
166347.0,6176.8900000000003,6617.0799999999999,2272.1900000000001,5838.8900000000003,-1240.1099999999999,2209.71,-964.27200000000005
166348.0,6024.3100000000004,6734.1899999999996,2299.75,5448.9099999999999,-1176.5999999999999,2183.2800000000002,-860.69100000000003
166349.0,5855.1199999999999,6854.3400000000001,2344.71,5059.6199999999999,-1099.8800000000001,2121.0500000000002,-751.11500000000001
166350.0,5678.3999999999996,6909.1999999999998,2336.1599999999999,4613.2200000000003,-1015.5700000000001,2020.49,-637.26400000000001
166351.0,5509.1800000000003,6977.0299999999997,2345.6799999999998,4199.8800000000001,-932.12900000000002,1880.7,-527.03300000000002
166352.0,6239.6800000000003,4926.4899999999998,1923.27,7508.6700000000001,-1016.9400000000001,1583.6500000000001,-1273.51
166353.0,6313.7600000000002,5155.5,1956.25,7400.29,-1093.29,1720.5599999999999,-1283.3399999999999
166354.0,6325.1700000000001,5312.1999999999998,1974.73,7210.7799999999997,-1130.03,1852.25,-1265.52
166355.0,6292.1000000000004,5526.5299999999997,2077.48,7054.3599999999997,-1140.1199999999999,1976.96,-1220.1099999999999
166356.0,6219.1899999999996,5621.0200000000004,2079.8299999999999,6746.8999999999996,-1124.7,2088.0799999999999,-1155.96
166357.0,6119.4099999999999,5736.7600000000002,2109.0500000000002,6428.04,-1091.02,2178.3899999999999,-1079.22
166358.0,5996.3199999999997,5826.1199999999999,2119.77,6052.0,-1042.24,2244.0,-994.19899999999996
166359.0,5852.4799999999996,5950.0699999999997,2171.9099999999999,5686.9799999999996,-978.86000000000001,2279.4899999999998,-901.68799999999999
166360.0,5688.4799999999996,6037.8500000000004,2201.5999999999999,5268.3000000000002,-899.61500000000001,2283.6799999999998,-801.74800000000005
166361.0,5509.3000000000002,6103.29,2220.8600000000001,4818.3400000000001,-805.59000000000003,2252.1599999999999,-696.0
166362.0,5319.8199999999997,6165.7399999999998,2254.8800000000001,4364.46,-699.06799999999998,2184.0799999999999,-585.63599999999997
166363.0,5131.54,6207.5699999999997,2279.6300000000001,3898.8000000000002,-585.77999999999997,2076.98,-473.05500000000001
166364.0,4958.4399999999996,6289.4499999999998,2346.96,3494.8299999999999,-475.39100000000002,1929.95,-364.512
166365.0,5938.1999999999998,4590.7200000000003,1930.4100000000001,7252.2799999999997,-831.71199999999999,1650.3900000000001,-1121.5899999999999
166366.0,6004.96,4834.1700000000001,1979.77,7152.3900000000003,-900.03200000000004,1791.4400000000001,-1134.73
166367.0,5994.8900000000003,4997.0299999999997,2022.1600000000001,6962.04,-920.44000000000005,1924.75,-1114.51
166368.0,5929.7399999999998,5090.0200000000004,2031.0599999999999,6676.04,-904.94600000000003,2049.5999999999999,-1061.1700000000001
166369.0,5827.2799999999997,5196.3299999999999,2078.3200000000002,6371.5299999999997,-864.84299999999996,2159.77,-992.00099999999998
166370.0,5698.3000000000002,5332.1099999999997,2166.98,6065.04,-806.56500000000005,2247.5300000000002,-910.98299999999995
166371.0,5546.1999999999998,5397.3299999999999,2198.3499999999999,5658.5100000000002,-728.87,2309.9699999999998,-820.87699999999995
166372.0,5378.5100000000002,5474.25,2249.5799999999999,5241.0500000000002,-634.25,2341.6199999999999,-723.65800000000002
166373.0,5197.6499999999996,5489.79,2257.6500000000001,4745.6800000000003,-523.06799999999998,2341.3200000000002,-620.23800000000006
166374.0,5011.0900000000001,5535.9799999999996,2311.29,4274.1400000000003,-396.99900000000002,2304.1799999999998,-512.74599999999998
166375.0,4827.8500000000004,5518.6400000000003,2320.7199999999998,3738.5999999999999,-257.983,2230.1999999999998,-401.76600000000002
166376.0,4660.5799999999999,5490.3100000000004,2330.25,3201.8299999999999,-111.788,2116.5799999999999,-290.01400000000001
166377.0,4520.8699999999999,5429.0600000000004,2307.7399999999998,2655.3299999999999,29.581900000000001,1962.6700000000001,-183.393
166378.0,5601.5100000000002,4223.75,1961.6700000000001,6954.6899999999996,-625.33600000000001,1706.04,-952.09000000000003
166379.0,5655.4799999999996,4434.9799999999996,1983.6400000000001,6818.79,-680.51900000000001,1850.4000000000001,-964.01599999999996
166380.0,5626.6300000000001,4556.0100000000002,2003.98,6581.29,-682.67999999999995,1984.77,-941.57899999999995
166381.0,5539.7700000000004,4697.5600000000004,2094.3200000000002,6338.4899999999998,-647.553,2108.3600000000001,-885.86000000000001
166382.0,5410.7799999999997,4711.8800000000001,2092.1799999999998,5938.5900000000001,-578.48800000000006,2215.6999999999998,-808.98199999999997
166383.0,5259.04,4728.6300000000001,2108.27,5509.6000000000004,-486.11599999999999,2300.1500000000001,-719.70500000000004
166384.0,5093.9700000000003,4720.5799999999999,2117.23,5027.8500000000004,-375.64800000000002,2358.4200000000001,-623.69799999999998
166385.0,4922.8800000000001,4726.7700000000004,2154.6100000000001,4539.54,-247.97499999999999,2384.8299999999999,-522.37099999999998
166386.0,4755.0200000000004,4707.6199999999999,2187.9699999999998,4011.1799999999998,-102.816,2379.0999999999999,-416.05099999999999
166387.0,4601.7299999999996,4644.4899999999998,2193.1799999999998,3432.52,57.900799999999997,2336.3899999999999,-307.072
166388.0,4475.2700000000004,4595.0500000000002,2234.0,2868.5700000000002,230.88900000000001,2256.3299999999999,-196.68100000000001
166389.0,4388.8900000000003,4507.1499999999996,2248.0700000000002,2277.0,408.99700000000001,2136.8800000000001,-87.099599999999995
166390.0,4346.4700000000003,4481.3299999999999,2321.0700000000002,1770.96,580.63499999999999,1976.6900000000001,15.6936
166391.0,5239.4300000000003,3780.6999999999998,1974.5,6568.7299999999996,-394.08199999999999,1749.0999999999999,-760.80999999999995
166392.0,5284.21,3987.0999999999999,1999.95,6427.8599999999997,-438.96899999999999,1895.74,-776.11099999999999
166393.0,5239.1800000000003,4115.7200000000003,2054.5500000000002,6197.1899999999996,-420.83300000000003,2029.6199999999999,-750.19899999999996
166394.0,5134.8199999999997,4115.29,2040.72,5810.1700000000001,-355.83100000000002,2151.0799999999999,-686.16200000000003
166395.0,4997.0100000000002,4151.5,2106.8899999999999,5430.9799999999996,-258.76499999999999,2254.1100000000001,-603.51199999999994
166396.0,4845.1300000000001,4148.1400000000003,2160.48,4983.6800000000003,-137.43000000000001,2332.98,-510.05200000000002
166397.0,4695.3100000000004,4127.0799999999999,2218.1199999999999,4493.5600000000004,6.5806500000000003,2385.1799999999998,-408.51299999999998
166398.0,4562.2799999999997,4048.6999999999998,2235.52,3926.21,170.07300000000001,2406.3899999999999,-302.738
166399.0,4460.0100000000002,3960.3400000000001,2266.0999999999999,3335.3899999999999,351.59100000000001,2394.8800000000001,-193.499
166400.0,4401.54,3841.48,2288.3000000000002,2710.5300000000002,548.29300000000001,2346.3400000000001,-83.363900000000001
166401.0,4403.8100000000004,3713.2199999999998,2321.5100000000002,2077.1199999999999,757.85699999999997,2260.6599999999999,26.136399999999998
166402.0,4472.2399999999998,3515.9099999999999,2298.21,1386.2,972.08600000000001,2135.96,134.07900000000001
166403.0,4594.21,3348.8699999999999,2298.6799999999998,749.62800000000004,1178.76,1970.29,233.07499999999999
166404.0,4874.4200000000001,3296.4499999999998,2010.6199999999999,6129.9799999999996,-139.38399999999999,1776.3399999999999,-550.72500000000002
166405.0,4909.7600000000002,3451.6199999999999,1994.3599999999999,5940.5100000000002,-168.89599999999999,1924.99,-565.15099999999995
166406.0,4858.9799999999996,3551.9400000000001,2050.6199999999999,5683.2399999999998,-129.85599999999999,2057.54,-536.21000000000004
166407.0,4755.9499999999998,3547.21,2079.6300000000001,5294.4099999999999,-40.3294,2174.4400000000001,-468.69200000000001
166408.0,4634.0699999999997,3507.5700000000002,2125.6700000000001,4844.3299999999999,90.717799999999997,2271.4200000000001,-377.72899999999998
166409.0,4521.71,3347.8000000000002,2085.1100000000001,4247.0799999999999,250.708,2344.52,-275.89600000000002
166410.0,4440.4399999999996,3259.8400000000001,2141.5599999999999,3698.8099999999999,431.85599999999999,2390.1700000000001,-168.53299999999999
166411.0,4406.3100000000004,3061.7600000000002,2115.73,3023.75,632.61900000000003,2404.4400000000001,-59.062800000000003
166412.0,4439.6800000000003,2956.54,2208.27,2431.0599999999999,852.13300000000004,2386.1700000000001,52.226999999999997
166413.0,4551.3400000000001,2676.8600000000001,2149.1199999999999,1659.9100000000001,1086.6900000000001,2332.1300000000001,162.92599999999999
166414.0,4746.9499999999998,2528.8400000000001,2244.3099999999999,1023.16,1333.52,2240.5500000000002,270.10300000000001
166415.0,5017.9300000000003,2237.0599999999999,2210.0300000000002,255.30000000000001,1582.02,2111.4899999999998,374.88299999999998
166416.0,5331.21,2099.48,2317.79,-335.51299999999998,1821.4400000000001,1941.1099999999999,467.86500000000001
166417.0,4544.1099999999997,2715.73,2015.4300000000001,5581.7399999999998,141.965,1786.3699999999999,-318.154
166418.0,4573.6199999999999,2875.7199999999998,2018.8499999999999,5404.0299999999997,125.38500000000001,1935.6300000000001,-335.56299999999999
166419.0,4532.4399999999996,2953.3899999999999,2089.3699999999999,5130.3000000000002,187.88200000000001,2065.2600000000002,-302.67500000000001
166420.0,4461.0699999999997,2831.7199999999998,2052.4200000000001,4630.8100000000004,310.101,2176.5500000000002,-226.899
166421.0,4399.0299999999997,2771.0700000000002,2140.9899999999998,4169.1300000000001,473.69200000000001,2265.3600000000001,-129.40199999999999
166422.0,4379.4300000000003,2578.0700000000002,2144.3099999999999,3552.9899999999998,667.76499999999999,2329.4200000000001,-22.843900000000001
166423.0,4429.1199999999999,2455.3400000000001,2249.1100000000001,2988.8200000000002,886.94799999999998,2366.1300000000001,89.725200000000001
166424.0,4566.3999999999996,2168.75,2218.0599999999999,2244.4099999999999,1127.3,2374.25,203.20099999999999
166425.0,4798.2700000000004,1950.1600000000001,2280.3200000000002,1557.47,1386.6800000000001,2349.6199999999999,316.029
166426.0,5123.3500000000004,1624.8299999999999,2268.4000000000001,764.63599999999997,1660.0,2289.6900000000001,426.726
166427.0,5536.2299999999996,1359.01,2335.1900000000001,32.727699999999999,1945.76,2193.8600000000001,531.06799999999998
166428.0,6013.6999999999998,952.17899999999997,2274.5,-828.21199999999999,2231.8800000000001,2061.3699999999999,632.56799999999998
166429.0,6511.25,658.92399999999998,2312.0500000000002,-1552.9200000000001,2507.8899999999999,1887.97,719.46699999999998
166430.0,4304.0600000000004,2088.3499999999999,2046.4200000000001,4974.5500000000002,449.33999999999997,1775.1400000000001,-65.799999999999997
166431.0,4334.8999999999996,2206.75,2024.49,4765.9899999999998,449.64999999999998,1924.8499999999999,-82.112399999999994
166432.0,4330.5100000000002,2222.5599999999999,2074.79,4440.21,536.96199999999999,2050.5799999999999,-45.445799999999998
166433.0,4332.2700000000004,2087.02,2084.4200000000001,3938.7399999999998,688.51599999999996,2153.21,35.289700000000003
166434.0,4388.1000000000004,1918.0899999999999,2139.4000000000001,3385.3499999999999,889.73800000000006,2231.9200000000001,140.18600000000001
166435.0,4531.8699999999999,1597.6900000000001,2095.6199999999999,2662.8000000000002,1125.1600000000001,2287.1500000000001,254.72200000000001
166436.0,4776.5699999999997,1334.8800000000001,2142.9499999999998,1979.6099999999999,1385.23,2316.3099999999999,372.12299999999999
166437.0,5124.9499999999998,947.08600000000001,2107.0300000000002,1160.6900000000001,1666.0799999999999,2315.0900000000001,488.35700000000003
166438.0,5577.3599999999997,681.93399999999997,2226.9400000000001,459.726,1966.3099999999999,2283.2800000000002,602.21100000000001
166439.0,6118.1000000000004,185.40899999999999,2139.3499999999999,-476.36099999999999,2279.9899999999998,2218.73,711.53800000000001
166440.0,6731.6999999999998,-131.43100000000001,2256.4299999999998,-1228.5599999999999,2604.5,2118.4000000000001,811.84400000000005
166441.0,7392.1800000000003,-620.14499999999998,2215.6900000000001,-2140.1100000000001,2926.6300000000001,1984.3199999999999,908.03700000000003
166442.0,8048.6499999999996,-940.16600000000005,2320.4499999999998,-2865.0700000000002,3236.1599999999999,1809.7,987.30399999999997
166443.0,4236.9899999999998,1340.8599999999999,2025.77,4235.1000000000004,785.87099999999998,1741.9400000000001,210.40700000000001
166444.0,4275.3199999999997,1501.8699999999999,2070.5900000000001,4084.48,801.10299999999995,1890.1800000000001,191.58099999999999
166445.0,4337.46,1433.1600000000001,2089.5,3689.0,914.66499999999996,2008.6099999999999,231.786
166446.0,4463.7600000000002,1247.0699999999999,2117.9899999999998,3156.3000000000002,1101.99,2100.1300000000001,321.21899999999999
166447.0,4692.7700000000004,953.72699999999998,2132.6999999999998,2502.8499999999999,1341.4400000000001,2167.73,433.27600000000001
166448.0,5037.7700000000004,633.32399999999996,2184.4000000000001,1809.8800000000001,1616.23,2210.6599999999999,552.63800000000003
166449.0,5500.9499999999998,278.08600000000001,2252.9699999999998,1072.0599999999999,1917.8900000000001,2228.52,674.30700000000002
166450.0,6070.0100000000002,-149.27799999999999,2276.9299999999998,248.72900000000001,2241.6100000000001,2221.3800000000001,793.23400000000004
166451.0,6729.1199999999999,-657.45600000000002,2250.52,-665.07500000000005,2583.5100000000002,2184.25,906.65200000000004
166452.0,7463.9399999999996,-1108.53,2322.75,-1514.02,2938.0100000000002,2113.8499999999999,1013.28
166453.0,8257.0799999999999,-1644.9300000000001,2329.6100000000001,-2447.9000000000001,3301.5100000000002,2013.02,1108.96
166454.0,9077.8700000000008,-2212.75,2312.3099999999999,-3405.5999999999999,3661.4099999999999,1878.3299999999999,1198.46
166455.0,9879.4899999999998,-2723.4899999999998,2330.7600000000002,-4287.0900000000001,4006.23,1705.3,1269.8299999999999
166456.0,4413.1000000000004,580.32100000000003,2065.77,3472.46,1148.6900000000001,1681.1400000000001,504.46100000000001
166457.0,4473.7200000000003,673.83000000000004,2075.79,3275.7199999999998,1183.3499999999999,1826.52,488.90199999999999
166458.0,4638.1800000000003,518.16800000000001,2066.4000000000001,2813.8699999999999,1327.8299999999999,1936.4400000000001,535.67899999999997
166459.0,4923.3699999999999,276.97399999999999,2120.4200000000001,2252.0999999999999,1551.3499999999999,2013.6500000000001,631.601
166460.0,5353.3100000000004,-134.56700000000001,2122.48,1517.52,1831.75,2066.3699999999999,749.98599999999999
166461.0,5916.1099999999997,-569.93499999999995,2162.5700000000002,749.26199999999994,2150.73,2099.1900000000001,875.88499999999999
166462.0,6588.9799999999996,-1156.9400000000001,2090.7800000000002,-189.386,2496.4000000000001,2111.0999999999999,1001.15
166463.0,7354.9099999999999,-1682.49,2135.2600000000002,-1067.8199999999999,2863.71,2091.3499999999999,1120.2
166464.0,8209.1100000000006,-2195.6500000000001,2244.8400000000001,-1927.8199999999999,3248.0,2047.54,1233.3299999999999
166465.0,9115.5,-2894.77,2176.52,-2983.7800000000002,3644.3000000000002,1976.8199999999999,1335.25
166466.0,10065.799999999999,-3467.4299999999998,2263.8299999999999,-3910.1100000000001,4046.3400000000001,1874.3299999999999,1423.9400000000001
166467.0,11033.5,-4116.0500000000002,2284.8400000000001,-4903.5699999999997,4441.8400000000001,1743.99,1504.7
166468.0,11963.1,-4704.7399999999998,2327.2399999999998,-5832.0600000000004,4818.6099999999997,1575.6600000000001,1566.78
166469.0,4878.7299999999996,-322.69900000000001,2014.53,2563.0,1538.01,1595.47,821.31500000000005
166470.0,4969.3400000000001,-190.54599999999999,2116.6399999999999,2427.4000000000001,1594.26,1730.29,806.44399999999996
166471.0,5256.1199999999999,-447.07400000000001,2107.9000000000001,1900.6800000000001,1771.1300000000001,1820.3299999999999,862.94500000000005
166472.0,5729.3400000000001,-757.23199999999997,2201.5300000000002,1316.3599999999999,2039.78,1880.0799999999999,969.57500000000005
166473.0,6370.2799999999997,-1337.95,2136.8000000000002,454.964,2367.0700000000002,1924.02,1096.5699999999999
166474.0,7133.7700000000004,-1843.53,2220.9400000000001,-342.55599999999998,2731.8800000000001,1942.6300000000001,1225.77
166475.0,8011.8100000000004,-2427.8299999999999,2311.27,-1211.0699999999999,3122.3000000000002,1938.52,1353.52
166476.0,8963.7099999999991,-3044.4499999999998,2382.1700000000001,-2125.77,3534.8400000000001,1918.5799999999999,1473.46
166477.0,9973.0499999999993,-3929.21,2206.46,-3325.5700000000002,3963.3400000000001,1873.54,1581.1500000000001
166478.0,11040.700000000001,-4493.75,2413.7399999999998,-4184.0600000000004,4400.5100000000002,1798.74,1676.03
166479.0,12140.799999999999,-5346.9899999999998,2348.3400000000001,-5336.9300000000003,4840.5100000000002,1704.1400000000001,1756.3099999999999
166480.0,13236.700000000001,-6100.0799999999999,2372.6599999999999,-6396.25,5270.96,1579.53,1824.99
166481.0,14294.4,-6828.4499999999998,2396.6100000000001,-7423.0699999999997,5679.5299999999997,1420.8399999999999,1876.3800000000001
166482.0,5566.6400000000003,-1063.29,2168.6999999999998,1807.6400000000001,1933.0,1475.3800000000001,1131.1600000000001
166483.0,5740.9200000000001,-1227.23,2094.48,1424.46,2019.47,1583.3800000000001,1146.74
166484.0,6201.0600000000004,-1563.8,2106.0599999999999,865.44500000000005,2253.3499999999999,1657.02,1228.6800000000001
166485.0,6872.3699999999999,-2109.73,2084.23,93.627099999999999,2575.8600000000001,1701.3800000000001,1346.22
166486.0,7716.2700000000004,-2700.1300000000001,2159.5500000000002,-719.63199999999995,2952.6700000000001,1723.8,1478.4300000000001
166487.0,8680.2399999999998,-3386.8499999999999,2201.5300000000002,-1632.5799999999999,3367.3200000000002,1733.01,1614.1199999999999
166488.0,9723.0799999999999,-4303.3299999999999,2030.6700000000001,-2801.3899999999999,3811.8699999999999,1729.3599999999999,1742.8800000000001
166489.0,10848.6,-5098.1199999999999,2072.8400000000001,-3830.6500000000001,4274.0100000000002,1693.5599999999999,1857.1199999999999
166490.0,12049.700000000001,-5719.9399999999996,2368.1399999999999,-4661.5100000000002,4745.9499999999998,1644.72,1960.49
166491.0,13259.799999999999,-6794.8400000000001,2176.1900000000001,-5977.8999999999996,5225.8699999999999,1583.48,2045.53
166492.0,14487.6,-7555.9200000000001,2318.3899999999999,-6991.4499999999998,5703.8400000000001,1494.8099999999999,2108.5599999999999
166493.0,15709.1,-8415.5599999999995,2366.8800000000001,-8101.0699999999997,6164.1199999999999,1387.22,2163.8000000000002
166494.0,16865.0,-9258.2099999999991,2361.7600000000002,-9224.3799999999992,6599.3000000000002,1247.0,2196.9099999999999
166495.0,6376.9799999999996,-2141.3200000000002,1885.54,705.97500000000002,2310.8899999999999,1342.73,1458.24
166496.0,6753.25,-2247.2600000000002,2104.25,448.13,2463.1300000000001,1402.0999999999999,1531.4400000000001
166497.0,7431.8299999999999,-2739.25,2168.4699999999998,-197.994,2767.3499999999999,1431.74,1636.6400000000001
166498.0,8329.3500000000004,-3370.8800000000001,2242.9200000000001,-987.12400000000002,3151.8699999999999,1451.95,1773.46
166499.0,9371.7199999999993,-4229.29,2162.27,-2015.3199999999999,3594.9400000000001,1461.4200000000001,1919.03
166500.0,10533.1,-5128.1800000000003,2142.9200000000001,-3075.5500000000002,4073.2199999999998,1451.27,2057.2800000000002
166501.0,11798.200000000001,-5787.21,2487.8200000000002,-3855.2199999999998,4567.3500000000004,1423.75,2184.25
166502.0,13095.799999999999,-6760.7200000000003,2491.0500000000002,-4975.7200000000003,5082.3800000000001,1404.6600000000001,2296.54
166503.0,14404.4,-8101.6300000000001,2099.0799999999999,-6509.3100000000004,5612.5299999999997,1369.6700000000001,2381.0900000000001
166504.0,15768.799999999999,-8805.5300000000007,2454.73,-7364.5500000000002,6134.3999999999996,1310.8599999999999,2446.9099999999999
166505.0,17136.599999999999,-9917.3099999999995,2401.3699999999999,-8648.2800000000007,6649.0,1251.3800000000001,2490.6999999999998
166506.0,18459.5,-10958.4,2364.1300000000001,-9915.6900000000005,7139.6999999999998,1168.22,2519.75
166507.0,19726.599999999999,-11762.5,2527.1300000000001,-10956.4,7598.4099999999999,1049.22,2536.77
166508.0,32008.099999999999,-62738.199999999997,-33171.699999999997,-53895.900000000001,-10397.700000000001,-1568.48,-790.49599999999998
166509.0,32068.5,-66422.100000000006,-41008.400000000001,-47294.699999999997,-12939.299999999999,314.89800000000002,-261.98399999999998
166510.0,35418.199999999997,-55507.900000000001,-36795.5,-34018.099999999999,-12992.700000000001,5726.25,8940.6399999999994
166511.0,34948.400000000001,-34809.0,-17001.700000000001,-24293.799999999999,-6956.0299999999997,9245.2900000000009,13897.0
166512.0,24301.200000000001,-14900.1,594.39300000000003,-13855.9,-790.62099999999998,6704.5799999999999,8733.6700000000001
166513.0,14817.9,-8037.8199999999997,3258.1100000000001,-7631.79,624.04100000000005,3256.5599999999999,4597.4200000000001
166514.0,10858.6,-6808.1400000000003,2173.6500000000001,-5426.6000000000004,642.07100000000003,1803.47,3499.6500000000001
166515.0,8132.5500000000002,-4025.2800000000002,3056.1100000000001,-2041.1700000000001,663.07299999999998,863.70399999999995,2741.5799999999999
166516.0,6145.0200000000004,-3062.9899999999998,2374.3200000000002,-471.78899999999999,531.80600000000004,210.59999999999999,2205.3099999999999
166517.0,4844.71,-1564.3900000000001,2538.0300000000002,1405.77,409.06700000000001,-212.833,1766.96
166518.0,4048.1799999999998,-679.93200000000002,2210.9000000000001,2577.8099999999999,270.435,-532.77800000000002,1386.1900000000001
166519.0,3725.73,356.97899999999998,2194.52,3784.5,144.465,-760.16999999999996,1042.22
166520.0,3785.6900000000001,1111.8900000000001,1998.1199999999999,4641.8999999999996,23.09,-934.65800000000002,728.26700000000005
166521.0,4071.1500000000001,1883.1300000000001,1927.1500000000001,5451.6300000000001,-87.957999999999998,-1062.6800000000001,441.26299999999998
166522.0,4454.8699999999999,2507.5700000000002,1808.8499999999999,6065.6000000000004,-190.53700000000001,-1155.1500000000001,182.58199999999999
166523.0,4839.9700000000003,3107.2399999999998,1761.8399999999999,6603.3999999999996,-277.91300000000001,-1217.3099999999999,-60.9206
166524.0,5211.6000000000004,3595.6599999999999,1674.4400000000001,6994.8800000000001,-354.214,-1258.8299999999999,-290.96699999999998
166525.0,5543.8599999999997,4030.0100000000002,1603.47,7303.71,-423.12299999999999,-1279.3599999999999,-496.01900000000001
166526.0,5820.0600000000004,4383.5799999999999,1522.3699999999999,7504.9300000000003,-482.17200000000003,-1281.22,-680.89599999999996
166527.0,6040.2600000000002,4691.1300000000001,1459.96,7640.75,-530.721,-1267.54,-846.24400000000003
166528.0,6206.5799999999999,4934.8400000000001,1393.24,7698.8699999999999,-569.63800000000003,-1241.8399999999999,-991.60900000000004
166529.0,6316.7200000000003,5129.6400000000003,1335.0699999999999,7695.6099999999997,-600.05200000000002,-1205.76,-1116.48
166530.0,6377.2799999999997,5276.3800000000001,1279.52,7635.7299999999996,-623.48500000000001,-1161.46,-1222.71
166531.0,6389.9300000000003,5373.7299999999996,1222.1400000000001,7519.4799999999996,-640.41700000000003,-1109.7,-1311.28
166532.0,6360.4499999999998,5436.0299999999997,1172.3900000000001,7365.2399999999998,-651.91600000000005,-1051.95,-1382.5899999999999
166533.0,6292.79,5449.9099999999999,1113.45,7161.3299999999999,-658.18100000000004,-989.42399999999998,-1438.45
166534.0,6191.2299999999996,5447.8100000000004,1073.73,6942.5200000000004,-660.322,-923.17899999999997,-1478.9400000000001
166535.0,6060.6800000000003,5398.5100000000002,1017.83,6678.9399999999996,-658.57600000000002,-854.21799999999996,-1505.8399999999999
166536.0,5904.8699999999999,5341.7700000000004,982.38699999999994,6412.1199999999999,-653.82000000000005,-783.19399999999996,-1519.75
166537.0,5728.1099999999997,5254.6199999999999,940.95299999999997,6120.2600000000002,-646.43399999999997,-711.07100000000003,-1522.02
166538.0,5534.0500000000002,5138.5500000000002,891.83199999999999,5805.9200000000001,-636.70899999999995,-638.37699999999995,-1513.5899999999999
166539.0,5326.0200000000004,5017.1400000000003,855.79300000000001,5493.5200000000004,-625.06100000000004,-565.70299999999997,-1495.3499999999999
166540.0,5107.79,4879.3400000000001,818.93499999999995,5173.0100000000002,-611.95299999999997,-493.67500000000001,-1468.49
166541.0,4881.3800000000001,4738.4399999999996,792.66700000000003,4857.6800000000003,-597.62699999999995,-422.565,-1433.74
166542.0,4651.1899999999996,4574.6199999999999,753.846,4529.0200000000004,-582.52800000000002,-353.06,-1392.29
166543.0,4417.8599999999997,4413.4700000000003,727.33000000000004,4211.6199999999999,-566.53899999999999,-285.108,-1344.9100000000001
166544.0,4185.8299999999999,4232.8699999999999,687.42700000000002,3885.23,-550.39999999999998,-219.411,-1292.21
166545.0,3955.25,4064.9200000000001,666.404,3580.1199999999999,-533.601,-155.761,-1235.54
166546.0,3729.9499999999998,3878.8200000000002,630.00199999999995,3267.7199999999998,-517.19399999999996,-94.821899999999999,-1174.75
166547.0,3510.0999999999999,3714.6599999999999,618.88999999999999,2985.6399999999999,-500.30500000000001,-36.313600000000001,-1111.6900000000001
166548.0,3298.8699999999999,3522.02,579.346,2686.0300000000002,-484.166,19.255299999999998,-1045.6199999999999
166549.0,3096.48,3377.3699999999999,589.00599999999997,2442.25,-467.846,72.068700000000007,-978.76999999999998
166550.0,2905.46,3155.3699999999999,519.04700000000003,2131.6399999999999,-452.41500000000002,121.837,-909.91499999999996
166551.0,2726.2800000000002,3026.3099999999999,541.29600000000005,1921.3900000000001,-436.786,168.81399999999999,-841.49699999999996
166552.0,2560.3099999999999,2800.96,463.625,1624.78,-422.26100000000002,212.68899999999999,-771.82600000000002
166553.0,2408.5,2692.1300000000001,500.40600000000001,1451.5,-407.68200000000002,253.702,-703.66800000000001
166554.0,2271.3400000000001,2447.2199999999998,396.26799999999997,1151.26,-394.23599999999999,291.68299999999999,-634.95399999999995
166555.0,2149.9499999999998,2358.8499999999999,445.572,1013.5700000000001,-380.60599999999999,326.86200000000002,-568.81799999999998
166556.0,2042.9400000000001,2113.4400000000001,332.52999999999997,727.38800000000003,-368.303,359.375,-501.61599999999999
166557.0,1953.1700000000001,2069.04,415.82100000000003,647.96100000000001,-355.67200000000003,388.44600000000003,-439.48500000000001
166558.0,1875.04,1827.77,297.60899999999998,379.93400000000003,-345.29199999999997,415.97899999999998,-372.72699999999998
166559.0,1814.5599999999999,1813.3299999999999,401.75099999999998,341.447,-333.17399999999998,439.238,-315.96300000000002
166560.0,1756.25,1572.4100000000001,257.09899999999999,108.626,-333.94200000000001,459.69400000000002,-237.00299999999999
166561.0,1718.3,1626.4200000000001,445.49799999999999,153.58199999999999,-339.69600000000003,498.51600000000002,-110.015
166562.0,40231.400000000001,-95202.100000000006,-74761.600000000006,-75945.300000000003,-19886.099999999999,151.64500000000001,-3516.96
166563.0,44306.300000000003,-82599.399999999994,-75815.600000000006,-60244.800000000003,-19850.799999999999,7271.4899999999998,8720.7900000000009
166564.0,48030.0,-52707.900000000001,-46247.800000000003,-40997.599999999999,-12640.799999999999,11809.4,20864.0
166565.0,37013.0,-22421.200000000001,-10006.799999999999,-24457.299999999999,-3223.9400000000001,9870.9400000000005,16960.099999999999
166566.0,21711.200000000001,-8582.4200000000001,3333.2800000000002,-12701.0,612.95299999999997,5009.4099999999999,7893.9499999999998
166567.0,13689.4,-7542.8599999999997,1914.8699999999999,-8725.2999999999993,897.58000000000004,2541.9899999999998,4603.1300000000001
166568.0,10281.5,-4988.8500000000004,2836.5999999999999,-4603.6000000000004,921.91899999999998,1489.6400000000001,3565.1300000000001
166569.0,7570.2399999999998,-3678.3299999999999,2541.3299999999999,-2093.3299999999999,814.08399999999995,708.11699999999996,2737.27
166570.0,5792.6599999999999,-2366.3099999999999,2516.8499999999999,51.8581,666.44100000000003,226.67599999999999,2174.3899999999999
166571.0,4598.5,-1372.75,2317.02,1596.1500000000001,510.23200000000003,-122.815,1717.1400000000001
166572.0,3917.2600000000002,-351.99000000000001,2273.6399999999999,2994.0599999999999,361.38799999999998,-375.67500000000001,1319.76
166573.0,3682.6700000000001,447.43400000000003,2113.4499999999998,4032.0599999999999,218.88999999999999,-570.80600000000004,963.98099999999999
166574.0,3792.6999999999998,1258.24,2059.8099999999999,4989.8100000000004,84.084000000000003,-718.95100000000002,642.04300000000001
166575.0,4097.8100000000004,1903.26,1925.23,5701.1000000000004,-41.407899999999998,-833.03800000000001,348.5
166576.0,4481.2600000000002,2548.4099999999999,1875.29,6349.71,-158.67099999999999,-917.23900000000003,82.683400000000006
166577.0,4870.1300000000001,3049.2399999999998,1760.04,6800.1700000000001,-262.798,-976.86300000000006,-164.30000000000001
166578.0,5236.1499999999996,3548.9000000000001,1713.1400000000001,7209.4300000000003,-352.77300000000002,-1016.16,-390.22000000000003
166579.0,5560.2299999999996,3926.1700000000001,1608.77,7461.9899999999998,-429.875,-1039.28,-593.07799999999997
166580.0,5830.0699999999997,4300.1199999999999,1566.3399999999999,7682.8999999999996,-495.76900000000001,-1047.9000000000001,-773.21100000000001
166581.0,6044.0900000000001,4559.9799999999996,1470.54,7766.8299999999999,-551.05799999999999,-1044.6700000000001,-932.75900000000001
166582.0,6202.7600000000002,4816.1999999999998,1427.9100000000001,7829.2600000000002,-597.178,-1031.01,-1071.95
166583.0,6307.9399999999996,4978.2799999999997,1343.8599999999999,7782.9499999999998,-634.37900000000002,-1008.25,-1192.27
166584.0,6364.4099999999999,5134.1300000000001,1301.8599999999999,7721.3100000000004,-664.04600000000005,-977.79700000000003,-1293.5799999999999
166585.0,6374.6800000000003,5221.25,1236.1099999999999,7583.2600000000002,-686.16200000000003,-940.91700000000003,-1377.77
166586.0,6343.7200000000003,5291.6800000000003,1194.1700000000001,7425.0100000000002,-702.41700000000003,-898.50999999999999,-1444.3699999999999
166587.0,6276.0699999999997,5323.5900000000001,1150.3099999999999,7225.96,-712.79399999999998,-851.77499999999998,-1495.99
166588.0,6175.2299999999996,5316.5500000000002,1100.8499999999999,6988.6300000000001,-718.38499999999999,-801.12599999999998,-1532.2
166589.0,6046.5200000000004,5297.3900000000003,1068.78,6741.5200000000004,-719.57600000000002,-747.76499999999999,-1555.24
166590.0,5892.7600000000002,5234.6800000000003,1019.8200000000001,6454.6899999999996,-716.89800000000002,-692.11300000000006,-1565.26
166591.0,5718.8500000000004,5159.9799999999996,981.98299999999995,6161.3100000000004,-710.85500000000002,-634.99000000000001,-1563.95
166592.0,5527.5900000000001,5070.9300000000003,950.43200000000002,5860.0500000000002,-702.07600000000002,-576.80600000000004,-1551.8499999999999
166593.0,5322.9200000000001,4962.25,916.98099999999999,5546.5500000000002,-690.93299999999999,-518.21799999999996,-1530.4100000000001
166594.0,5107.8999999999996,4831.6700000000001,876.79200000000003,5219.4200000000001,-677.84100000000001,-459.64699999999999,-1500.3900000000001
166595.0,4885.1700000000001,4693.3599999999997,841.952,4893.2299999999996,-663.04300000000001,-401.40800000000002,-1462.8199999999999
166596.0,4657.9899999999998,4540.3500000000004,802.93499999999995,4561.9399999999996,-647.02800000000002,-343.98700000000002,-1418.51
166597.0,4428.2200000000003,4393.4700000000003,779.154,4246.1400000000003,-629.88,-287.55900000000003,-1368.5
166598.0,4198.8000000000002,4221.3400000000001,736.92600000000004,3915.3800000000001,-612.12800000000004,-232.50700000000001,-1313.3900000000001
166599.0,3971.29,4071.4299999999998,722.56600000000003,3616.52,-593.73800000000006,-179.01300000000001,-1254.2
166600.0,3748.1700000000001,3878.2199999999998,668.61699999999996,3284.8000000000002,-575.096,-127.274,-1191.49
166601.0,3530.6500000000001,3728.8800000000001,661.41499999999996,3006.6900000000001,-556.28399999999999,-77.434799999999996,-1125.99
166602.0,3321.1100000000001,3522.8699999999999,598.61599999999999,2682.1799999999998,-537.46500000000003,-29.7302,-1058.4400000000001
166603.0,3120.02,3371.4299999999998,591.24599999999998,2421.6700000000001,-518.68899999999996,15.9434,-989.22199999999998
166604.0,2929.9200000000001,3178.8699999999999,541.59900000000005,2130.3000000000002,-500.25099999999998,59.280999999999999,-919.02499999999998
166605.0,2750.6500000000001,3041.79,546.86300000000006,1902.9400000000001,-482.01400000000001,100.422,-848.23900000000003
166606.0,2584.9200000000001,2839.8299999999999,484.21899999999999,1620.74,-464.334,139.071,-777.51599999999996
166607.0,2431.8400000000001,2723.5900000000001,505.87700000000001,1431.6800000000001,-446.88299999999998,175.56100000000001,-707.12699999999995
166608.0,2293.7600000000002,2527.1300000000001,442.67700000000002,1172.3699999999999,-430.23399999999998,209.55099999999999,-637.15499999999997
166609.0,2170.2199999999998,2439.6700000000001,486.49700000000001,1028.1199999999999,-413.66000000000003,241.279,-569.07299999999998
166610.0,2061.1900000000001,2228.9200000000001,401.822,769.91999999999996,-398.29199999999997,270.887,-500.40600000000001
166611.0,1968.98,2151.1700000000001,446.60300000000001,650.18499999999995,-382.69499999999999,297.63799999999998,-436.56099999999998
166612.0,1888.3399999999999,1928.9100000000001,342.077,395.15300000000002,-369.17599999999999,323.43799999999999,-368.09100000000001
166613.0,1825.29,1865.8399999999999,395.75799999999998,300.25099999999998,-353.58699999999999,346.20499999999998,-308.94900000000001
166614.0,1764.4400000000001,1644.99,269.28699999999998,82.293000000000006,-348.62900000000002,367.363,-230.19800000000001
166615.0,1718.76,1673.5999999999999,433.74299999999999,96.399900000000002,-346.11099999999999,406.71300000000002,-98.673400000000001
166616.0,58283.300000000003,-111405.0,-125849.0,-93793.399999999994,-24941.200000000001,10882.4,11579.799999999999
166617.0,58683.900000000001,-65375.699999999997,-80561.800000000003,-59725.900000000001,-12083.700000000001,13293.200000000001,26628.799999999999
166618.0,49491.300000000003,-31667.799999999999,-31492.599999999999,-38322.099999999999,-3280.46,10194.299999999999,26203.400000000001
166619.0,30935.200000000001,-11076.5,-1070.45,-20722.0,1263.5,5700.5200000000004,13723.9
166620.0,17396.599999999999,-6599.6499999999996,2514.0500000000002,-11639.0,1594.78,2575.5799999999999,6343.71
166621.0,12402.200000000001,-6475.6800000000003,1419.23,-8171.1199999999999,1277.05,1597.8599999999999,4570.6700000000001
166622.0,9212.8400000000001,-3735.71,2946.3600000000001,-3579.0500000000002,1195.8099999999999,943.45500000000004,3380.7600000000002
166623.0,6828.71,-3269.6300000000001,2075.5,-1680.1199999999999,962.197,465.464,2620.6300000000001
166624.0,5311.75,-1773.51,2481.02,680.03499999999997,781.197,167.22200000000001,2050.8400000000001
166625.0,4305.5799999999999,-1091.9000000000001,2105.3899999999999,1992.0,587.70299999999997,-75.156199999999998,1592.8900000000001
166626.0,3778.0599999999999,-25.821400000000001,2241.6799999999998,3449.0100000000002,419.56299999999999,-252.732,1185.6300000000001
166627.0,3668.8899999999999,622.46500000000003,2015.21,4367.8999999999996,254.11699999999999,-401.88799999999998,822.78999999999996
166628.0,3848.75,1433.29,2038.79,5336.1700000000001,101.623,-515.77599999999995,499.298
166629.0,4188.2299999999996,1975.8199999999999,1861.4200000000001,5955.2700000000004,-37.583799999999997,-606.93499999999995,206.14500000000001
166630.0,4577.0600000000004,2605.5100000000002,1845.72,6591.0500000000002,-162.03299999999999,-675.86400000000003,-58.671300000000002
166631.0,4967.1599999999999,3054.2199999999998,1714.22,6992.7700000000004,-272.47699999999998,-729.05100000000004,-300.01499999999999
166632.0,5320.8400000000001,3536.21,1685.79,7382.8999999999996,-369.76400000000001,-766.74900000000002,-515.88300000000004
166633.0,5628.8800000000001,3874.77,1576.3,7593.9300000000003,-453.91000000000003,-792.96600000000001,-710.94600000000003
166634.0,5881.8999999999996,4226.7600000000002,1540.95,7788.5200000000004,-526.57000000000005,-807.95500000000004,-883.29200000000003
166635.0,6081.04,4473.6800000000003,1455.6199999999999,7853.8900000000003,-588.202,-813.75699999999995,-1035.76
166636.0,6225.8800000000001,4725.1899999999996,1427.5699999999999,7905.1099999999997,-640.04899999999998,-810.80899999999997,-1167.3299999999999
166637.0,6319.8100000000004,4885.8299999999999,1357.1600000000001,7850.4899999999998,-682.34000000000003,-800.63199999999995,-1280.4000000000001
166638.0,6365.9799999999996,5046.1800000000003,1331.25,7785.1099999999997,-716.55100000000004,-783.83600000000001,-1374.1400000000001
166639.0,6368.8000000000002,5124.1199999999999,1264.0599999999999,7629.3299999999999,-742.76800000000003,-761.53899999999999,-1451.47
166640.0,6331.3500000000004,5204.9200000000001,1237.6400000000001,7472.1599999999999,-762.26300000000003,-734.08600000000001,-1511.27
166641.0,6259.3500000000004,5206.3699999999999,1165.9200000000001,7233.6199999999999,-775.28399999999999,-702.71000000000004,-1556.5799999999999
166642.0,6155.0900000000001,5229.21,1146.9200000000001,7016.6800000000003,-782.95500000000004,-667.60500000000002,-1586.5999999999999
166643.0,6024.4300000000003,5175.54,1078.8099999999999,6725.5,-785.52800000000002,-629.82399999999996,-1603.8699999999999
166644.0,5869.7700000000004,5143.8100000000004,1057.73,6460.0600000000004,-783.96699999999998,-589.50900000000001,-1608.4100000000001
166645.0,5695.9099999999999,5062.8500000000004,1009.11,6150.6700000000001,-778.63199999999995,-547.524,-1602.02
166646.0,5505.6800000000003,4973.1199999999999,971.00199999999995,5839.0200000000004,-770.04700000000003,-504.15199999999999,-1585.23
166647.0,5302.4099999999999,4859.9099999999999,926.29499999999996,5511.2399999999998,-758.55100000000004,-459.86599999999999,-1559.4000000000001
166648.0,5089.3599999999997,4747.1800000000003,896.28899999999999,5192.5500000000002,-744.76999999999998,-415.04000000000002,-1525.1300000000001
166649.0,4869.0900000000001,4617.1700000000001,861.56500000000005,4865.2399999999998,-728.91600000000005,-370.05099999999999,-1483.8599999999999
166650.0,4644.2799999999997,4481.1000000000004,830.928,4541.6599999999999,-711.55700000000002,-325.15699999999998,-1435.8199999999999
166651.0,4417.6300000000001,4329.2799999999997,793.13,4211.9899999999998,-692.779,-280.76100000000002,-1382.73
166652.0,4190.6700000000001,4180.3400000000001,765.08199999999999,3895.4099999999999,-673.01499999999999,-236.91800000000001,-1324.4400000000001
166653.0,3966.3200000000002,4013.6399999999999,724.50400000000002,3571.4099999999999,-652.45399999999995,-194.03100000000001,-1262.5699999999999
166654.0,3745.6999999999998,3866.25,707.26599999999996,3277.04,-631.37199999999996,-152.15100000000001,-1197.2
166655.0,3530.8400000000001,3693.21,667.13800000000003,2967.3800000000001,-609.90599999999995,-111.494,-1129.3199999999999
166656.0,3323.5999999999999,3548.5700000000002,656.82399999999996,2696.6100000000001,-588.37900000000002,-72.1982,-1059.52
166657.0,3124.7199999999998,3382.3800000000001,625.87400000000002,2413.9299999999998,-566.77999999999997,-34.319299999999998,-988.25999999999999
166658.0,2936.6799999999998,3220.5799999999999,598.44399999999996,2146.23,-545.47799999999995,1.84379,-916.27999999999997
166659.0,2759.0100000000002,3055.6399999999999,567.76900000000001,1884.04,-524.21799999999996,36.581200000000003,-843.87
166660.0,2594.7600000000002,2898.5700000000002,541.87099999999998,1640.54,-503.65699999999998,69.4084,-771.46100000000001
166661.0,2442.7800000000002,2740.9499999999998,514.83600000000001,1403.47,-483.01600000000002,100.727,-699.94399999999996
166662.0,2305.4200000000001,2569.4899999999998,469.20400000000001,1163.6700000000001,-463.61399999999998,130.131,-628.33699999999999
166663.0,2182.48,2427.5999999999999,452.18000000000001,958.82899999999995,-443.84399999999999,157.74700000000001,-559.59199999999998
166664.0,2073.0900000000001,2254.0100000000002,398.24099999999999,733.12599999999998,-425.71800000000002,184.09,-489.142
166665.0,1980.4100000000001,2154.0300000000002,415.714,585.97400000000005,-406.97500000000002,207.90100000000001,-424.53300000000002
166666.0,1898.1400000000001,1979.5999999999999,354.14800000000002,375.262,-390.46300000000002,231.679,-354.15499999999997
166667.0,1832.8499999999999,1906.53,395.89800000000002,266.08100000000002,-371.63900000000001,252.62799999999999,-293.56999999999999
166668.0,1768.8699999999999,1713.28,295.16500000000002,73.379300000000001,-362.22899999999998,273.017,-213.62899999999999
166669.0,1719.95,1703.49,418.75,40.863399999999999,-351.70999999999998,310.10399999999998,-81.228899999999996
166670.0,75861.899999999994,-70690.399999999994,-114180.0,-77977.5,-2007.3800000000001,12914.4,34713.300000000003
166671.0,58435.300000000003,-33632.800000000003,-46505.0,-46806.800000000003,3811.4699999999998,7522.4799999999996,31789.200000000001
166672.0,37497.400000000001,-11833.4,-6813.3599999999997,-24947.700000000001,3852.0700000000002,3333.5,18843.099999999999
166673.0,22108.700000000001,-7261.4300000000003,1651.0,-15562.299999999999,2700.4000000000001,1607.95,8885.2600000000002
166674.0,14384.0,-6154.2700000000004,1630.79,-9834.1700000000001,2021.04,998.42499999999995,5442.3599999999997
166675.0,10742.5,-4543.8599999999997,2247.3600000000001,-5679.3199999999997,1670.5999999999999,725.399,4095.8699999999999
166676.0,7940.7299999999996,-3285.8600000000001,2384.6199999999999,-2623.1900000000001,1357.4000000000001,466.32100000000003,3057.1999999999998
166677.0,6047.96,-2379.52,2209.3400000000001,-488.13499999999999,1085.6800000000001,272.50099999999998,2370.8800000000001
166678.0,4776.8199999999997,-1326.1400000000001,2274.3699999999999,1385.3099999999999,841.42999999999995,112.03100000000001,1835.1500000000001
166679.0,4013.6500000000001,-563.875,2119.3699999999999,2715.29,624.15800000000002,-16.255800000000001,1388.76
166680.0,3677.9200000000001,331.21100000000001,2164.52,3980.6199999999999,431.01299999999998,-128.86099999999999,988.47900000000004
166681.0,3708.48,960.48800000000006,1999.0899999999999,4856.4300000000003,253.673,-226.30000000000001,631.255
166682.0,3973.7600000000002,1672.01,1983.7,5714.6499999999996,89.631900000000002,-308.536,316.755
166683.0,4342.3900000000003,2194.5,1847.4400000000001,6301.9799999999996,-57.537300000000002,-376.72899999999998,32.834099999999999
166684.0,4735.9899999999998,2765.7199999999998,1826.76,6873.29,-189.94999999999999,-433.28300000000002,-221.708
166685.0,5111.6899999999996,3177.2800000000002,1708.9200000000001,7230.8599999999997,-306.67200000000003,-480.20600000000002,-453.06200000000001
166686.0,5446.7299999999996,3614.5599999999999,1678.0799999999999,7570.0500000000002,-410.262,-517.45299999999997,-659.06100000000004
166687.0,5733.1800000000003,3943.3299999999999,1595.4400000000001,7764.2799999999997,-500.50400000000002,-546.61300000000006,-844.20899999999995
166688.0,5965.46,4266.0500000000002,1562.05,7923.3699999999999,-578.77599999999995,-567.56299999999999,-1006.38
166689.0,6144.8500000000004,4502.8900000000003,1493.97,7972.7200000000003,-645.00999999999999,-581.80499999999995,-1149.1700000000001
166690.0,6271.6499999999996,4708.54,1443.1700000000001,7972.5200000000004,-700.86900000000003,-589.31500000000005,-1270.6500000000001
166691.0,6350.0500000000002,4867.4399999999996,1390.23,7910.6899999999996,-746.44100000000003,-591.23800000000006,-1374.5899999999999
166692.0,6381.8699999999999,4976.6499999999996,1329.5,7788.8500000000004,-783.35599999999999,-587.44500000000005,-1458.9200000000001
166693.0,6373.54,5078.25,1298.71,7652.1099999999997,-811.75300000000004,-579.33399999999995,-1527.5999999999999
166694.0,6325.8199999999997,5109.4200000000001,1233.0999999999999,7440.1499999999996,-832.95699999999999,-566.49300000000005,-1578.9200000000001
166695.0,6246.3400000000001,5168.1400000000003,1225.74,7254.2200000000003,-847.40999999999997,-550.32799999999997,-1616.1099999999999
166696.0,6135.8599999999997,5129.3299999999999,1150.1700000000001,6970.5,-855.726,-530.51700000000005,-1638.8699999999999
166697.0,6000.5600000000004,5139.5200000000004,1148.8399999999999,6738.3800000000001,-858.89700000000005,-508.05099999999999,-1648.9300000000001
166698.0,5842.8999999999996,5057.75,1078.6300000000001,6417.9499999999998,-857.11099999999999,-483.13099999999997,-1647.1600000000001
166699.0,5666.5900000000001,5008.2700000000004,1061.2,6135.1899999999996,-851.14599999999996,-456.137,-1634.5599999999999
166700.0,5475.3400000000001,4908.4499999999998,1011.08,5808.7700000000004,-841.58900000000006,-427.49599999999998,-1612.1700000000001
166701.0,5271.6700000000001,4827.04,995.226,5507.8999999999996,-828.87300000000005,-397.51799999999997,-1581.1500000000001
166702.0,5059.2200000000003,4692.46,939.25300000000004,5162.6099999999997,-813.60799999999995,-366.56799999999998,-1542.1400000000001
166703.0,4840.0100000000002,4581.6000000000004,918.81500000000005,4849.5200000000004,-795.89200000000005,-334.93099999999998,-1496.6300000000001
166704.0,4616.79,4425.1099999999997,862.077,4500.7799999999997,-776.46799999999996,-302.75599999999997,-1444.5899999999999
166705.0,4392.0600000000004,4306.4200000000001,851.24800000000005,4199.3599999999997,-755.35599999999999,-270.50200000000001,-1387.95
166706.0,4167.5100000000002,4132.0,790.94200000000001,3852.6599999999999,-733.19500000000005,-238.108,-1326.4000000000001
166707.0,3945.5900000000001,4011.1199999999999,789.30200000000002,3569.5500000000002,-710.00199999999995,-206.083,-1261.6800000000001
166708.0,3727.79,3817.6500000000001,718.52599999999995,3224.6300000000001,-686.24099999999999,-174.31999999999999,-1193.5999999999999
166709.0,3515.73,3694.1799999999998,720.73400000000004,2959.5599999999999,-661.95600000000002,-143.179,-1123.6300000000001
166710.0,3311.3099999999999,3490.48,643.63999999999999,2625.4000000000001,-637.56299999999999,-112.721,-1051.51
166711.0,3115.0799999999999,3361.29,642.67399999999998,2374.9699999999998,-612.84199999999998,-83.055000000000007,-978.78200000000004
166712.0,2929.2800000000002,3171.1199999999999,579.33199999999999,2074.9299999999998,-588.54399999999998,-54.225999999999999,-904.58399999999995
166713.0,2754.3400000000001,3053.5100000000002,589.00999999999999,1855.5599999999999,-564.02099999999996,-26.504200000000001,-831.346
166714.0,2591.4699999999998,2856.3699999999999,516.17399999999998,1568.1500000000001,-540.40099999999995,0.32256800000000002,-756.80899999999997
166715.0,2441.8899999999999,2757.9699999999998,541.72400000000005,1386.45,-516.53499999999997,25.770299999999999,-684.88800000000003
166716.0,2305.0500000000002,2567.9000000000001,471.43299999999999,1124.3099999999999,-493.91199999999998,50.529899999999998,-611.30100000000004
166717.0,2183.8699999999999,2490.71,512.72500000000002,981.00199999999995,-471.02499999999998,73.497299999999996,-542.221
166718.0,2074.8299999999999,2292.4299999999998,428.613,726.95299999999997,-449.64299999999997,96.196200000000005,-470.41300000000001
166719.0,1982.8800000000001,2214.1399999999999,462.32299999999998,598.49199999999996,-428.00400000000002,116.505,-405.24299999999999
166720.0,1900.79,2010.8599999999999,366.654,355.726,-408.27800000000002,137.399,-334.06400000000002
166721.0,1835.3699999999999,1935.3900000000001,402.03899999999999,240.46199999999999,-386.54700000000003,155.62,-272.42899999999997
166722.0,1771.55,1734.78,288.62299999999999,37.137500000000003,-373.072,175.14099999999999,-191.92099999999999
166723.0,1722.4400000000001,1743.3699999999999,424.50700000000001,15.893800000000001,-355.17500000000001,210.24000000000001,-59.082500000000003
166724.0,64447.099999999999,-26841.299999999999,-40735.900000000001,-41878.0,17735.599999999999,966.54200000000003,31605.599999999999
166725.0,39742.900000000001,-11846.9,-8039.5699999999997,-24663.400000000001,8500.8400000000001,-1190.5699999999999,19415.599999999999
166726.0,24457.900000000001,-9272.9599999999991,-471.66800000000001,-17811.0,4348.9499999999998,-521.63199999999995,10249.0
166727.0,16155.5,-6244.1499999999996,1573.1099999999999,-10820.1,2984.7199999999998,-124.45099999999999,6229.1400000000003
166728.0,11962.0,-5276.0100000000002,1638.99,-7072.8800000000001,2278.1900000000001,141.65899999999999,4618.3699999999999
166729.0,8941.6200000000008,-3515.3299999999999,2405.9299999999998,-3425.5700000000002,1834.21,224.501,3423.96
166730.0,6771.1899999999996,-2783.5,2059.1500000000001,-1321.6800000000001,1446.4100000000001,218.44900000000001,2640.7399999999998
166731.0,5277.75,-1693.03,2192.5900000000001,688.41600000000005,1140.45,187.59399999999999,2027.4200000000001
166732.0,4300.8800000000001,-900.82600000000002,2061.4200000000001,2164.6399999999999,859.97500000000002,132.85400000000001,1542.1500000000001
166733.0,3793.7600000000002,-92.267600000000002,2043.1500000000001,3424.1500000000001,621.53599999999994,81.392099999999999,1125.1099999999999
166734.0,3674.5900000000001,664.26599999999996,2019.3900000000001,4495.0799999999999,410.11799999999999,21.808700000000002,747.51900000000001
166735.0,3837.1599999999999,1292.6600000000001,1927.6400000000001,5320.8699999999999,221.727,-37.170499999999997,408.39299999999997
166736.0,4168.5600000000004,1932.48,1902.1400000000001,6077.4899999999998,48.187399999999997,-93.969200000000001,109.017
166737.0,4550.8199999999997,2424.5900000000001,1794.21,6607.9300000000003,-106.14700000000001,-145.80500000000001,-160.75899999999999
166738.0,4937.2700000000004,2933.3400000000001,1761.55,7098.1999999999998,-245.21600000000001,-193.149,-401.99599999999998
166739.0,5292.0299999999997,3340.3200000000002,1686.3199999999999,7435.3599999999997,-367.80900000000003,-235.816,-620.38800000000003
166740.0,5603.4700000000003,3727.8000000000002,1647.54,7714.0200000000004,-476.11200000000002,-273.08800000000002,-813.50099999999998
166741.0,5863.6199999999999,4033.6100000000001,1580.8800000000001,7876.54,-569.66300000000001,-305.78399999999999,-986.28999999999996
166742.0,6070.9799999999996,4300.7600000000002,1526.03,7974.0799999999999,-650.774,-333.08800000000002,-1135.5699999999999
166743.0,6226.7200000000003,4533.6700000000001,1484.53,8014.3500000000004,-719.34100000000001,-356.01799999999997,-1266.75
166744.0,6331.9399999999996,4712.3199999999997,1433.04,7983.6400000000003,-777.34000000000003,-373.67500000000001,-1375.8599999999999
166745.0,6392.0699999999997,4877.29,1408.75,7925.2200000000003,-824.56500000000005,-387.54500000000002,-1469.21
166746.0,6406.7200000000003,4974.4099999999999,1355.23,7788.96,-862.64599999999996,-396.44600000000003,-1542.25
166747.0,6385.2700000000004,5064.8900000000003,1328.95,7639.7600000000002,-891.94000000000005,-402.20100000000002,-1601.3499999999999
166748.0,6325.0299999999997,5094.8599999999997,1275.46,7425.0200000000004,-913.24599999999998,-403.56200000000001,-1642.97
166749.0,6236.1700000000001,5108.5699999999997,1233.6300000000001,7193.6099999999997,-927.62599999999998,-402.06299999999999,-1671.47
166750.0,6117.6199999999999,5098.2799999999997,1194.95,6937.6800000000003,-935.45699999999999,-397.17899999999997,-1685.98
166751.0,5976.0,5056.4799999999996,1147.8699999999999,6653.2399999999998,-937.61000000000001,-389.63200000000001,-1688.3699999999999
166752.0,5813.7299999999996,5003.2600000000002,1110.45,6361.0299999999997,-934.74800000000005,-379.51400000000001,-1679.5799999999999
166753.0,5634.3000000000002,4937.29,1078.78,6061.29,-927.49300000000005,-367.19099999999997,-1660.5
166754.0,5441.21,4836.5900000000001,1028.5799999999999,5733.4099999999999,-916.34400000000005,-352.96899999999999,-1632.3499999999999
166755.0,5236.6400000000003,4736.3400000000001,993.32399999999996,5413.1999999999998,-901.67499999999995,-337.00200000000001,-1595.9100000000001
166756.0,5024.0900000000001,4618.96,953.01499999999999,5084.3500000000004,-884.17499999999995,-319.60599999999999,-1552.1900000000001
166757.0,4805.5299999999997,4501.5100000000002,923.21000000000004,4764.1099999999997,-864.16399999999999,-300.99299999999999,-1502.02
166758.0,4583.8100000000004,4369.6599999999999,887.71500000000003,4439.0,-842.13999999999999,-281.404,-1446.3699999999999
166759.0,4360.6099999999997,4228.3299999999999,850.08799999999997,4114.0500000000002,-818.404,-261.01999999999998,-1385.8399999999999
166760.0,4138.5699999999997,4089.5700000000002,820.75400000000002,3801.8899999999999,-793.29600000000005,-240.10499999999999,-1321.53
166761.0,3918.6300000000001,3930.5500000000002,775.97299999999996,3479.46,-767.09500000000003,-218.672,-1253.6700000000001
166762.0,3703.6599999999999,3795.21,757.90899999999999,3191.4000000000001,-740.20299999999997,-197.10900000000001,-1183.3599999999999
166763.0,3493.9899999999998,3632.1399999999999,714.91899999999998,2885.5,-712.60299999999995,-175.34800000000001,-1110.97
166764.0,3292.1900000000001,3497.1700000000001,700.88599999999997,2618.4299999999998,-684.91399999999999,-153.626,-1037.02
166765.0,3099.0100000000002,3344.5900000000001,670.06600000000003,2343.2399999999998,-656.94399999999996,-132.11500000000001,-962.48299999999995
166766.0,2915.7800000000002,3190.1100000000001,636.84699999999998,2076.73,-629.29100000000005,-110.81699999999999,-887.10500000000002
166767.0,2743.6500000000001,3041.7800000000002,609.22299999999996,1825.4400000000001,-601.60000000000002,-89.984499999999997,-812.31399999999996
166768.0,2583.3200000000002,2887.7399999999998,574.03300000000002,1578.46,-574.52300000000002,-69.425299999999993,-737.26099999999997
166769.0,2436.25,2743.7600000000002,547.22900000000004,1350.0,-547.66600000000005,-49.638300000000001,-663.88499999999999
166770.0,2301.9699999999998,2578.8400000000001,496.94999999999999,1109.97,-521.63400000000001,-30.1525,-590.53999999999996
166771.0,2182.3000000000002,2442.9899999999998,473.36900000000003,907.00599999999997,-495.99000000000001,-11.678900000000001,-519.82399999999996
166772.0,2075.3200000000002,2286.5100000000002,426.40499999999997,691.73000000000002,-471.11799999999999,6.6581000000000001,-448.738
166773.0,1983.77,2175.8000000000002,421.99200000000002,530.14499999999998,-446.77800000000002,23.721499999999999,-381.637
166774.0,1903.0799999999999,2035.3,385.05200000000002,346.80200000000002,-423.32499999999999,41.206099999999999,-311.50999999999999
166775.0,1837.45,1932.46,387.57799999999997,203.80500000000001,-399.03899999999999,57.1997,-247.89599999999999
166776.0,1773.99,1783.51,321.85399999999998,49.051900000000003,-381.10500000000002,75.609099999999998,-167.90000000000001
166777.0,1725.77,1740.55,401.77800000000002,-31.406099999999999,-355.74400000000003,107.203,-37.557400000000001
166778.0,35724.599999999999,-10985.200000000001,2952.4499999999998,-17084.700000000001,10350.9,-4378.6300000000001,13914.4
166779.0,23182.299999999999,-10774.4,-759.56799999999998,-15936.5,5712.0600000000004,-2740.5700000000002,8913.6599999999999
166780.0,17064.200000000001,-7011.3599999999997,1490.4400000000001,-10543.200000000001,3911.46,-1210.6300000000001,6483.5699999999997
166781.0,12791.5,-5624.1899999999996,1761.1199999999999,-7055.7700000000004,2985.3000000000002,-529.85299999999995,4791.6099999999997
166782.0,9693.8199999999997,-3929.1900000000001,2311.0500000000002,-3770.3699999999999,2317.9099999999999,-128.56200000000001,3643.6100000000001
166783.0,7421.3699999999999,-3084.1100000000001,2066.8099999999999,-1717.8299999999999,1823.3299999999999,85.709599999999995,2811.8800000000001
166784.0,5782.5,-1899.27,2259.2600000000002,366.315,1445.3299999999999,192.78800000000001,2164.4299999999998
166785.0,4642.21,-1174.3599999999999,2049.5700000000002,1755.8399999999999,1116.4400000000001,233.30600000000001,1644.6300000000001
166786.0,3972.3400000000001,-244.84299999999999,2119.6999999999998,3169.25,829.80899999999997,241.58000000000001,1206.1400000000001
166787.0,3720.3800000000001,394.61900000000003,1977.05,4146.1599999999999,575.94600000000003,228.81299999999999,826.13300000000004
166788.0,3784.6599999999999,1154.5,2017.5799999999999,5134.0299999999997,351.80200000000002,202.04599999999999,477.13900000000001
166789.0,4052.5999999999999,1691.21,1891.3800000000001,5811.21,152.197,166.83000000000001,164.17400000000001
166790.0,4417.7799999999997,2289.4299999999998,1882.5999999999999,6479.4300000000003,-27.037199999999999,126.917,-115.538
166791.0,4801.4499999999998,2740.4699999999998,1786.2,6936.7700000000004,-186.40000000000001,85.032300000000006,-366.97500000000002
166792.0,5168.8000000000002,3215.1399999999999,1770.0599999999999,7368.0699999999997,-328.66800000000001,42.891599999999997,-591.77599999999995
166793.0,5497.8500000000004,3565.1300000000001,1684.0999999999999,7631.0500000000002,-453.67000000000002,1.2378400000000001,-793.89800000000002
166794.0,5779.6899999999996,3914.1300000000001,1649.5999999999999,7858.0600000000004,-563.87300000000005,-38.3262,-971.71600000000001
166795.0,6011.1300000000001,4201.3000000000002,1602.48,7993.0299999999997,-659.36000000000001,-75.984399999999994,-1129.45
166796.0,6190.6099999999997,4447.3800000000001,1561.26,8063.0,-741.83299999999997,-110.40300000000001,-1264.73
166797.0,6321.3199999999997,4657.7600000000002,1527.79,8077.2600000000002,-811.32799999999997,-142.327,-1382.1300000000001
166798.0,6403.1400000000003,4792.1000000000004,1459.8199999999999,8000.0600000000004,-869.471,-170.46000000000001,-1478.76
166799.0,6442.8199999999997,4936.29,1439.02,7921.0299999999997,-916.69100000000003,-195.96199999999999,-1559.46
166800.0,6439.4899999999998,4984.4300000000003,1358.1600000000001,7736.7200000000003,-954.11199999999997,-217.452,-1621.5999999999999
166801.0,6401.8699999999999,5081.6499999999996,1357.3800000000001,7596.5,-982.65599999999995,-236.27199999999999,-1669.23
166802.0,6329.1000000000004,5066.04,1273.76,7339.0299999999997,-1002.85,-251.47300000000001,-1701.27
166803.0,6228.6599999999999,5126.0699999999997,1291.45,7156.9099999999999,-1015.92,-263.86500000000001,-1719.98
166804.0,6101.8000000000002,5053.6000000000004,1200.8900000000001,6842.4899999999998,-1022.05,-273.25400000000002,-1726.1300000000001
166805.0,5952.9799999999996,5064.6099999999997,1215.04,6614.3000000000002,-1022.49,-279.82100000000003,-1720.47
166806.0,5785.54,4965.29,1137.8599999999999,6279.7700000000004,-1017.4400000000001,-283.959,-1704.5999999999999
166807.0,5601.9099999999999,4912.2600000000002,1124.2,5996.8900000000003,-1007.6900000000001,-285.53100000000001,-1678.8900000000001
166808.0,5405.9200000000001,4807.2799999999997,1073.1400000000001,5668.4700000000003,-993.822,-284.95499999999998,-1644.8
166809.0,5199.8199999999997,4721.5500000000002,1054.25,5366.5299999999997,-976.49400000000003,-282.303,-1602.9100000000001
166810.0,4986.6199999999999,4594.8599999999997,1005.37,5031.6300000000001,-956.04899999999998,-277.87700000000001,-1554.53
166811.0,4768.2299999999996,4475.3000000000002,973.08199999999999,4712.5600000000004,-933.04700000000003,-271.71499999999997,-1500.0
166812.0,4547.4200000000001,4335.2200000000003,928.03300000000002,4382.0600000000004,-907.79200000000003,-264.14600000000002,-1440.6900000000001
166813.0,4325.6599999999999,4203.5299999999997,897.88699999999994,4069.4400000000001,-880.79200000000003,-255.16300000000001,-1376.79
166814.0,4105.5299999999997,4053.3600000000001,854.24099999999999,3748.0500000000002,-852.35799999999995,-245.125,-1309.54
166815.0,3888.29,3917.0,828.41600000000005,3450.4099999999999,-822.84500000000003,-234.05199999999999,-1239.26
166816.0,3675.6999999999998,3754.79,779.71600000000001,3136.79,-792.49099999999999,-222.15799999999999,-1166.79
166817.0,3469.5100000000002,3610.3299999999999,750.38699999999994,2851.1500000000001,-761.68299999999999,-209.56399999999999,-1092.53
166818.0,3270.5700000000002,3445.6100000000001,702.39400000000001,2554.8600000000001,-730.43899999999996,-196.47,-1017.35
166819.0,3080.3600000000001,3287.9299999999998,661.38999999999999,2276.0599999999999,-699.16399999999999,-182.82499999999999,-941.09500000000003
166820.0,2900.1100000000001,3146.2399999999998,636.447,2022.25,-667.79600000000005,-168.97300000000001,-865.20299999999997
166821.0,2730.7199999999998,2986.5,591.87300000000005,1760.6500000000001,-636.86500000000001,-154.74100000000001,-788.822
166822.0,2573.25,2856.3299999999999,576.28200000000004,1536.97,-606.09400000000005,-140.62200000000001,-713.92999999999995
166823.0,2427.9899999999998,2698.6100000000001,530.34100000000001,1295.78,-576.02800000000002,-126.158,-638.83900000000006
166824.0,2296.3200000000002,2595.6100000000001,537.93899999999996,1116.5899999999999,-546.26800000000003,-112.084,-566.27099999999996
166825.0,2177.8400000000001,2435.6199999999999,484.53500000000003,890.20000000000005,-517.48599999999999,-97.694599999999994,-493.67399999999998
166826.0,2073.5500000000002,2345.9299999999998,500.584,739.88800000000003,-489.125,-83.890900000000002,-424.17500000000001
166827.0,1982.55,2163.3499999999999,418.435,507.09300000000002,-461.99200000000002,-69.864000000000004,-354.81599999999997
166828.0,1904.3699999999999,2087.54,443.065,385.68900000000002,-435.09300000000002,-56.089700000000001,-287.13499999999999
166829.0,1838.51,1886.6500000000001,341.68900000000002,145.809,-408.32900000000001,-42.575000000000003,-221.047
166830.0,1776.3399999999999,1833.1800000000001,367.87700000000001,83.415800000000004,-386.23899999999998,-25.573,-142.62299999999999
166831.0,1729.8,1703.47,356.73899999999998,-90.924000000000007,-353.315,2.29291,-15.4879
166832.0,20044.900000000001,-10797.6,-88.284999999999997,-13282.4,5231.1899999999996,-2557.4499999999998,7132.2700000000004
166833.0,16501.599999999999,-8517.6100000000006,888.75400000000002,-9758.5400000000009,4450.3000000000002,-1583.6700000000001,5878.4799999999996
166834.0,13122.9,-5973.4399999999996,2065.75,-6285.4099999999999,3539.0300000000002,-909.06399999999996,4651.9799999999996
166835.0,10080.700000000001,-4653.4899999999998,1955.3900000000001,-3929.0700000000002,2708.1900000000001,-364.43200000000002,3642.5999999999999
166836.0,7865.04,-3280.0799999999999,2181.6199999999999,-1670.0799999999999,2153.8200000000002,-12.3705,2846.8000000000002
166837.0,6188.2700000000004,-2297.1700000000001,2108.4499999999998,64.619299999999996,1706.49,192.53,2225.9699999999998
166838.0,4968.29,-1313.1800000000001,2144.4099999999999,1612.78,1335.6300000000001,318.66699999999997,1695.8900000000001
166839.0,4188.3999999999996,-544.577,2028.8499999999999,2828.9299999999998,1013.85,386.26799999999997,1250.3199999999999
166840.0,3816.6999999999998,265.63600000000002,2035.5599999999999,3959.4000000000001,730.41800000000001,415.30599999999998,858.36400000000003
166841.0,3792.4299999999998,891.53999999999996,1924.8499999999999,4812.3400000000001,475.90100000000001,420.416,511.154
166842.0,3999.6100000000001,1580.3299999999999,1940.5799999999999,5646.6599999999999,248.798,407.43599999999998,194.25899999999999
166843.0,4331.8299999999999,2080.6500000000001,1827.8,6225.6599999999999,46.593200000000003,383.32100000000003,-90.055099999999996
166844.0,4708.1800000000003,2652.5100000000002,1844.97,6819.9300000000003,-134.358,350.21600000000001,-346.41199999999998
166845.0,5079.0100000000002,3041.7800000000002,1736.6400000000001,7181.6499999999996,-294.899,311.53699999999998,-577.16600000000005
166846.0,5419.8900000000003,3483.29,1735.54,7554.2799999999997,-437.71800000000002,269.63,-783.08799999999997
166847.0,5718.7700000000004,3798.98,1659.6800000000001,7765.4799999999996,-563.46400000000006,225.71700000000001,-966.71600000000001
166848.0,5968.04,4137.7200000000003,1657.02,7969.3900000000003,-673.38800000000003,181.55000000000001,-1128.0599999999999
166849.0,6168.5,4350.3999999999996,1573.9100000000001,8022.8299999999999,-768.375,137.57300000000001,-1268.8800000000001
166850.0,6317.9300000000003,4588.8999999999996,1561.3,8080.7200000000003,-849.44899999999996,94.948800000000006,-1389.6700000000001
166851.0,6421.3699999999999,4727.04,1487.8299999999999,8022.4099999999999,-917.89700000000005,53.940100000000001,-1491.23
166852.0,6478.96,4906.1800000000003,1493.8499999999999,7990.6800000000003,-974.28099999999995,15.085900000000001,-1575.3399999999999
166853.0,6496.3199999999997,4972.1300000000001,1420.23,7836.5699999999997,-1020.0,-21.304300000000001,-1641.5799999999999
166854.0,6475.6300000000001,5095.2600000000002,1436.29,7731.3800000000001,-1055.3900000000001,-55.2926,-1693.1600000000001
166855.0,6420.25,5081.96,1344.8499999999999,7485.4799999999996,-1081.8,-86.227099999999993,-1728.3199999999999
166856.0,6335.4700000000003,5154.0500000000002,1365.3599999999999,7322.4099999999999,-1099.6600000000001,-114.761,-1751.1600000000001
166857.0,6222.1099999999997,5069.5600000000004,1253.79,7002.0100000000002,-1109.98,-140.03200000000001,-1759.8699999999999
166858.0,6086.6199999999999,5105.75,1284.01,6803.9300000000003,-1113.5799999999999,-162.839,-1757.6199999999999
166859.0,5929.7600000000002,4984.6300000000001,1176.73,6450.96,-1110.8599999999999,-182.684,-1744.1400000000001
166860.0,5756.3199999999997,4969.4300000000003,1192.1700000000001,6208.1800000000003,-1102.8599999999999,-199.88,-1720.97
166861.0,5568.9399999999996,4847.8199999999997,1116.02,5864.0600000000004,-1090.0899999999999,-214.547,-1689.04
166862.0,5369.9200000000001,4775.9300000000003,1103.04,5575.8299999999999,-1073.0799999999999,-226.72200000000001,-1649.1800000000001
166863.0,5162.3999999999996,4637.8800000000001,1035.1900000000001,5228.6999999999998,-1052.3800000000001,-236.55699999999999,-1602.3900000000001
166864.0,4948.21,4539.46,1016.92,4928.7700000000004,-1028.48,-244.13499999999999,-1549.3399999999999
166865.0,4730.29,4400.5,966.16200000000003,4596.7700000000004,-1001.95,-249.66,-1491.0599999999999
166866.0,4510.1199999999999,4282.5200000000004,943.43700000000001,4294.3400000000001,-973.178,-253.22999999999999,-1428.1099999999999
166867.0,4290.21,4132.4799999999996,894.08699999999999,3969.1300000000001,-942.58100000000002,-255.04400000000001,-1361.4400000000001
166868.0,4071.6500000000001,4002.4400000000001,869.495,3673.0900000000001,-910.47299999999996,-255.16900000000001,-1291.52
166869.0,3856.7800000000002,3843.04,818.61500000000001,3357.4299999999998,-877.24099999999999,-253.792,-1219.0899999999999
166870.0,3646.5900000000001,3712.6700000000001,799.42899999999997,3080.1199999999999,-843.11599999999999,-251.04599999999999,-1144.8
166871.0,3442.7600000000002,3555.2600000000002,754.60000000000002,2785.6900000000001,-808.46500000000003,-247.01599999999999,-1068.97
166872.0,3246.5999999999999,3425.4400000000001,738.10500000000002,2528.0300000000002,-773.44299999999998,-241.90299999999999,-992.43399999999997
166873.0,3059.4400000000001,3277.9200000000001,703.67100000000005,2262.3400000000001,-738.47400000000005,-235.768,-915.34500000000003
166874.0,2882.0999999999999,3132.9499999999998,671.57899999999995,2008.1700000000001,-703.553,-228.86000000000001,-838.54200000000003
166875.0,2715.6799999999998,2988.0700000000002,638.09900000000005,1763.5899999999999,-669.00900000000001,-221.09399999999999,-761.86500000000001
166876.0,2561.02,2844.6300000000001,604.85199999999998,1528.6199999999999,-634.779,-212.809,-686.34199999999998
166877.0,2418.98,2698.3299999999999,566.06899999999996,1300.1300000000001,-601.33500000000004,-203.84700000000001,-611.51199999999994
166878.0,2289.8000000000002,2549.5700000000002,523.57399999999996,1076.3,-568.34299999999996,-194.648,-538.56299999999999
166879.0,2174.02,2405.4299999999998,481.84300000000002,866.73199999999997,-536.43600000000004,-184.80000000000001,-466.43200000000002
166880.0,2071.4299999999998,2274.8800000000001,453.125,676.04499999999996,-504.74900000000002,-174.98099999999999,-396.77499999999998
166881.0,1982.1099999999999,2141.8499999999999,416.39699999999999,493.505,-474.52499999999998,-164.37,-327.66399999999999
166882.0,1905.1400000000001,2044.71,415.99099999999999,350.661,-444.23599999999999,-153.75899999999999,-260.25999999999999
166883.0,1840.2,1899.9000000000001,366.50200000000001,166.94,-414.37299999999999,-142.81800000000001,-193.99000000000001
166884.0,1778.8800000000001,1811.0699999999999,353.06200000000001,67.955200000000005,-388.41199999999998,-127.0,-116.44799999999999
166885.0,1733.02,1719.1600000000001,373.24700000000001,-70.861699999999999,-348.834,-102.53,9.98597
166886.0,16684.799999999999,-8692.8299999999999,1344.51,-8248.0100000000002,5194.5500000000002,-1704.0,5544.9499999999998
166887.0,13027.700000000001,-6180.1300000000001,2213.5300000000002,-5406.8699999999999,3854.4499999999998,-942.24199999999996,4394.1999999999998
166888.0,10214.299999999999,-4864.5100000000002,2072.8600000000001,-3460.3800000000001,3013.0799999999999,-366.18599999999998,3480.1999999999998
166889.0,8137.4399999999996,-3590.6900000000001,2123.8299999999999,-1566.5599999999999,2431.75,2.0736599999999998,2786.3800000000001
166890.0,6486.0600000000004,-2463.5300000000002,2151.9400000000001,94.648099999999999,1939.21,252.739,2202.73
166891.0,5236.8100000000004,-1530.4000000000001,2091.73,1478.01,1526.5999999999999,425.21699999999998,1694.77
166892.0,4393.21,-620.87599999999998,2098.1100000000001,2750.29,1172.9400000000001,533.63900000000001,1255.27
166893.0,3941.3899999999999,120.547,2017.0999999999999,3768.21,860.34000000000003,598.47000000000003,867.01099999999997
166894.0,3838.27,878.79200000000003,2022.75,4728.7200000000003,582.08299999999997,629.23900000000003,516.91899999999998
166895.0,3990.4200000000001,1471.3,1930.76,5455.0,333.22800000000001,636.87199999999996,202.392
166896.0,4291.6599999999999,2087.9099999999999,1925.1099999999999,6149.7299999999996,109.756,625.92499999999995,-83.035300000000007
166897.0,4651.8599999999997,2565.73,1843.1900000000001,6652.8400000000001,-89.890100000000004,602.06700000000001,-340.82400000000001
166898.0,5022.0,3050.5999999999999,1825.46,7120.3199999999997,-268.911,568.346,-572.976
166899.0,5369.3500000000004,3437.3099999999999,1764.4000000000001,7449.8299999999999,-427.89999999999998,527.47799999999995,-781.97900000000004
166900.0,5679.0299999999997,3821.0799999999999,1752.3399999999999,7743.1199999999999,-568.72000000000003,481.89699999999999,-967.58100000000002
166901.0,5943.7200000000003,4098.6000000000004,1683.01,7901.4200000000001,-692.17200000000003,432.87200000000001,-1132.23
166902.0,6159.2799999999997,4375.5799999999999,1659.6500000000001,8034.3000000000002,-799.596,382.23899999999998,-1275.55
166903.0,6327.0900000000001,4590.3800000000001,1616.78,8084.5600000000004,-892.17499999999995,330.709,-1399.3
166904.0,6447.3100000000004,4787.9499999999998,1597.02,8100.04,-970.68700000000001,279.358,-1504.04
166905.0,6523.25,4923.5500000000002,1552.6300000000001,8039.9899999999998,-1036.3399999999999,228.774,-1590.9200000000001
166906.0,6557.0299999999997,5026.8999999999996,1510.9400000000001,7936.6700000000001,-1089.8199999999999,179.52099999999999,-1660.8599999999999
166907.0,6552.1800000000003,5098.0200000000004,1469.21,7793.1300000000001,-1132.29,132.17099999999999,-1714.7
166908.0,6512.5200000000004,5129.8199999999997,1417.1700000000001,7604.71,-1164.55,86.846100000000007,-1753.52
166909.0,6440.8800000000001,5165.6499999999996,1395.98,7416.3299999999999,-1187.4000000000001,44.024999999999999,-1778.49
166910.0,6341.4799999999996,5139.0100000000002,1335.8499999999999,7164.1700000000001,-1201.97,3.7635700000000001,-1790.05
166911.0,6217.6999999999998,5155.3100000000004,1340.29,6954.6999999999998,-1208.6700000000001,-33.944200000000002,-1790.4100000000001
166912.0,6071.6300000000001,5068.6499999999996,1261.4400000000001,6643.8800000000001,-1208.5599999999999,-68.647599999999997,-1779.0699999999999
166913.0,5908.29,5052.21,1269.48,6406.3400000000001,-1202.29,-100.792,-1758.3900000000001
166914.0,5728.6499999999996,4938.0799999999999,1195.71,6075.0900000000001,-1190.47,-129.999,-1728.3699999999999
166915.0,5536.6999999999998,4869.4200000000001,1180.8,5794.8100000000004,-1173.75,-156.49700000000001,-1690.45
166916.0,5334.4099999999999,4750.4899999999998,1127.3199999999999,5470.1099999999997,-1152.77,-180.21000000000001,-1645.1199999999999
166917.0,5124.8800000000001,4658.46,1110.5799999999999,5179.1400000000003,-1128.1300000000001,-201.35499999999999,-1593.6199999999999
166918.0,4909.8500000000004,4522.0100000000002,1058.0999999999999,4851.0900000000001,-1100.3499999999999,-219.928,-1536.48
166919.0,4691.7200000000003,4401.0699999999997,1028.24,4546.46,-1069.8399999999999,-236.07900000000001,-1474.6600000000001
166920.0,4472.25,4252.71,976.85799999999995,4222.6700000000001,-1037.0799999999999,-249.86600000000001,-1408.72
166921.0,4253.46,4122.1800000000003,947.94299999999998,3925.29,-1002.48,-261.44299999999998,-1339.45
166922.0,4036.96,3967.3600000000001,898.28399999999999,3612.3400000000001,-966.42200000000003,-270.92500000000001,-1267.45
166923.0,3824.27,3833.1300000000001,871.92999999999995,3328.9499999999998,-929.28999999999996,-278.41699999999997,-1193.29
166924.0,3616.8699999999999,3671.4499999999998,819.88300000000004,3027.0500000000002,-891.34900000000005,-284.09100000000001,-1117.5899999999999
166925.0,3416.1900000000001,3527.8299999999999,786.73900000000003,2752.23,-852.91899999999998,-288.02199999999999,-1040.8199999999999
166926.0,3223.1599999999999,3365.0500000000002,735.096,2467.23,-814.255,-290.40699999999998,-963.53899999999999
166927.0,3038.9000000000001,3212.8299999999999,693.58900000000006,2201.8299999999999,-775.47199999999998,-291.24700000000001,-885.92899999999997
166928.0,2864.6399999999999,3069.23,659.93100000000004,1953.6099999999999,-736.84900000000005,-290.774,-808.75199999999995
166929.0,2701.1999999999998,2919.0500000000002,618.14800000000002,1707.5599999999999,-698.58900000000006,-289.01400000000001,-731.99400000000003
166930.0,2549.2800000000002,2785.8699999999999,592.05600000000004,1486.6400000000001,-660.82299999999998,-286.20600000000002,-656.37300000000005
166931.0,2409.6100000000001,2645.2600000000002,556.00900000000001,1266.8299999999999,-623.69200000000001,-282.26900000000001,-581.68799999999999
166932.0,2282.6500000000001,2534.0500000000002,547.61500000000001,1083.5799999999999,-587.20100000000002,-277.541,-508.75299999999999
166933.0,2169.02,2395.6399999999999,508.44400000000002,881.56500000000005,-551.70799999999997,-271.81999999999999,-437.137
166934.0,2068.4299999999998,2291.48,502.238,719.43399999999997,-516.89400000000001,-265.62599999999998,-367.53899999999999
166935.0,1981.1800000000001,2137.46,441.39499999999998,516.70799999999997,-483.43000000000001,-258.41800000000001,-299.46600000000001
166936.0,1905.5899999999999,2038.8900000000001,435.61500000000001,373.78699999999998,-450.17500000000001,-250.62899999999999,-231.964
166937.0,1842.1099999999999,1873.1199999999999,362.32799999999997,169.52199999999999,-417.32499999999999,-242.51300000000001,-166.84100000000001
166938.0,1781.4300000000001,1793.9400000000001,354.06799999999998,79.619200000000006,-387.40100000000001,-227.65799999999999,-89.531099999999995
166939.0,1736.29,1698.8800000000001,364.49200000000002,-62.497300000000003,-341.69600000000003,-206.453,35.971200000000003
166940.0,12529.200000000001,-6408.4300000000003,2345.1500000000001,-4492.4899999999998,3951.9400000000001,-713.245,3876.23
166941.0,10219.9,-5319.21,1854.6400000000001,-3241.9499999999998,3256.52,-236.12899999999999,3244.8400000000001
166942.0,8306.6900000000005,-3830.0599999999999,2079.3899999999999,-1423.75,2648.79,112.547,2672.2600000000002
166943.0,6699.3299999999999,-2675.9499999999998,2100.4699999999998,88.686099999999996,2125.7399999999998,378.85300000000001,2132.4299999999998
166944.0,5457.1099999999997,-1664.8,2083.2600000000002,1433.6199999999999,1690.4400000000001,568.66200000000003,1653.49
166945.0,4581.4399999999996,-756.75900000000001,2061.98,2618.3699999999999,1311.6900000000001,697.94000000000005,1230.6400000000001
166946.0,4073.0700000000002,46.4465,2021.45,3642.0,975.25,783.42499999999995,850.06500000000005
166947.0,3908.8200000000002,773.37599999999998,1982.1099999999999,4534.3100000000004,674.84199999999998,833.18399999999997,506.74799999999999
166948.0,4011.8200000000002,1420.6900000000001,1933.71,5295.9099999999999,404.85700000000003,855.56100000000004,195.40700000000001
166949.0,4279.0299999999997,2017.0699999999999,1900.99,5958.7700000000004,162.643,856.245,-88.132400000000004
166950.0,4624.21,2540.9299999999998,1857.6099999999999,6506.2299999999996,-55.438499999999998,840.29200000000003,-344.34800000000001
166951.0,4989.6700000000001,3021.5500000000002,1829.1099999999999,6971.5299999999997,-250.72999999999999,811.03200000000004,-577.49000000000001
166952.0,5340.0600000000004,3435.1100000000001,1789.77,7334.6800000000003,-425.24200000000002,772.27999999999997,-786.24400000000003
166953.0,5659.1199999999999,3805.2600000000002,1758.99,7624.9499999999998,-580.20600000000002,725.58299999999997,-973.47900000000004
166954.0,5934.8500000000004,4102.3999999999996,1705.5899999999999,7815.0,-716.78899999999999,673.69799999999998,-1139.1400000000001
166955.0,6164.8100000000004,4400.1999999999998,1698.5799999999999,7983.0,-836.38199999999995,617.79600000000005,-1284.0899999999999
166956.0,6347.2600000000002,4614.3299999999999,1651.55,8047.5500000000002,-939.80399999999997,559.34400000000005,-1409.8
166957.0,6482.5900000000001,4809.1800000000003,1626.1500000000001,8076.2299999999996,-1028.1099999999999,499.52300000000002,-1516.5699999999999
166958.0,6573.6300000000001,4935.4799999999996,1569.74,8023.1000000000004,-1102.5,439.221,-1605.5699999999999
166959.0,6622.0900000000001,5066.6300000000001,1553.02,7963.3900000000003,-1163.7,379.21800000000002,-1677.6400000000001
166960.0,6632.0900000000001,5142.8199999999997,1512.6400000000001,7840.3900000000003,-1212.97,320.17399999999998,-1733.54
166961.0,6606.3500000000004,5216.3400000000001,1498.6300000000001,7707.8599999999997,-1250.97,262.452,-1774.8800000000001
166962.0,6548.2299999999996,5238.3999999999996,1459.52,7519.6800000000003,-1278.8800000000001,206.72200000000001,-1801.8199999999999
166963.0,6461.5299999999997,5245.0500000000002,1429.04,7313.5600000000004,-1297.4200000000001,152.971,-1816.3299999999999
166964.0,6348.3299999999999,5220.9799999999996,1390.0799999999999,7075.7799999999997,-1307.4400000000001,101.855,-1818.45
166965.0,6213.25,5162.6899999999996,1336.1600000000001,6804.8500000000004,-1309.95,53.2303,-1809.73
166966.0,6058.4200000000001,5117.7799999999997,1313.0599999999999,6548.9300000000003,-1305.4000000000001,7.41526,-1790.98
166967.0,5886.7399999999998,5020.3900000000003,1253.27,6243.8800000000001,-1294.75,-35.464500000000001,-1762.9200000000001
166968.0,5701.7700000000004,4944.0600000000004,1227.47,5963.9799999999996,-1278.53,-75.492900000000006,-1726.78
166969.0,5505.5100000000002,4837.71,1183.47,5658.8000000000002,-1257.55,-112.56399999999999,-1683.27
166970.0,5300.6999999999998,4723.8800000000001,1142.0999999999999,5352.1000000000004,-1232.3099999999999,-146.738,-1633.3099999999999
166971.0,5089.1599999999999,4593.9499999999998,1093.6099999999999,5035.6300000000001,-1203.3699999999999,-177.988,-1577.6300000000001
166972.0,4873.4300000000003,4466.79,1054.97,4728.9899999999998,-1171.22,-206.37100000000001,-1516.95
166973.0,4655.25,4332.4300000000003,1015.3099999999999,4422.3999999999996,-1136.4400000000001,-231.994,-1452.0799999999999
166974.0,4436.6599999999999,4197.8299999999999,980.13199999999995,4123.4200000000001,-1099.45,-254.89599999999999,-1383.5899999999999
166975.0,4219.1300000000001,4051.6399999999999,937.44399999999996,3820.71,-1060.6600000000001,-275.25299999999999,-1312.3099999999999
166976.0,4004.3200000000002,3911.3800000000001,903.45399999999995,3532.3400000000001,-1020.45,-293.04399999999998,-1238.52
166977.0,3793.6599999999999,3757.5900000000001,858.149,3238.5300000000002,-979.13499999999999,-308.54300000000001,-1163.1800000000001
166978.0,3588.4899999999998,3617.75,827.74400000000003,2967.3000000000002,-937.077,-321.63400000000001,-1086.3
166979.0,3390.0599999999999,3471.2199999999998,791.64599999999996,2697.5700000000002,-894.553,-332.72699999999998,-1008.98
166980.0,3199.5300000000002,3333.27,763.31299999999999,2444.9299999999998,-851.74699999999996,-341.59699999999998,-930.89300000000003
166981.0,3018.3099999999999,3195.7800000000002,735.21299999999997,2200.6100000000001,-809.11599999999999,-348.79199999999997,-853.45500000000004
166982.0,2846.75,3046.4400000000001,693.60199999999998,1952.97,-766.70600000000002,-353.99000000000001,-775.84500000000003
166983.0,2686.2600000000002,2913.3899999999999,667.43700000000001,1729.0999999999999,-724.779,-357.82299999999998,-699.755
166984.0,2537.04,2762.8499999999999,620.75400000000002,1496.01,-683.36699999999996,-359.75700000000001,-623.84299999999996
166985.0,2400.6399999999999,2628.5900000000001,589.23199999999997,1285.97,-642.86699999999996,-360.77100000000002,-550.53499999999997
166986.0,2276.0500000000002,2470.0900000000001,529.68499999999995,1059.78,-603.072,-359.92000000000002,-477.17500000000001
166987.0,2165.4899999999998,2345.0900000000001,502.55700000000002,873.34500000000003,-564.48099999999999,-358.57499999999999,-407.62
166988.0,2066.04,2198.4200000000001,449.56400000000002,672.56500000000005,-526.30999999999995,-355.245,-336.98899999999998
166989.0,1981.47,2093.4099999999999,436.77800000000002,519.91499999999996,-489.81799999999998,-351.79899999999998,-271.76100000000002
166990.0,1905.95,1971.1500000000001,402.37900000000002,356.50299999999999,-453.08800000000002,-345.78800000000001,-202.46799999999999
166991.0,1844.6900000000001,1865.6400000000001,388.714,212.44300000000001,-417.13499999999999,-341.08100000000002,-140.39500000000001
166992.0,1784.1600000000001,1738.53,327.274,75.299400000000006,-383.41899999999998,-326.50099999999998,-62.380299999999998
166993.0,1739.1600000000001,1700.74,386.21300000000002,-7.1153500000000003,-331.32799999999997,-307.49599999999998,63.110599999999998
166994.0,10129.9,-5442.1099999999997,1766.1199999999999,-2894.9000000000001,3438.6700000000001,41.248399999999997,3002.8200000000002
166995.0,8405.1700000000001,-3759.9400000000001,2276.9699999999998,-1053.0799999999999,2819.4699999999998,303.22199999999998,2522.73
166996.0,6878.3900000000003,-2785.02,2108.4299999999998,134.345,2290.0700000000002,546.03200000000004,2041.4000000000001
166997.0,5663.75,-1741.6199999999999,2112.7399999999998,1403.4200000000001,1838.3499999999999,735.649,1601.1099999999999
166998.0,4767.2600000000002,-850.27700000000004,2056.5799999999999,2499.3299999999999,1437.3399999999999,873.80200000000002,1197.98
166999.0,4212.4499999999998,15.553599999999999,2058.3899999999999,3532.54,1081.1600000000001,970.04600000000005,828.11099999999999
167000.0,3993.2600000000002,729.54300000000001,1986.79,4375.1999999999998,761.36599999999999,1031.3199999999999,492.702
167001.0,4046.2399999999998,1453.74,2000.52,5188.0,472.98099999999999,1064.0,185.10599999999999
167002.0,4281.04,2014.0,1918.45,5800.3699999999999,212.48099999999999,1073.5899999999999,-93.977400000000003
167003.0,4608.5699999999997,2611.1799999999998,1938.0899999999999,6414.2200000000003,-22.7742,1063.6300000000001,-350.00599999999997
167004.0,4967.1999999999998,3035.1999999999998,1846.0999999999999,6821.9399999999996,-234.23500000000001,1039.28,-580.803
167005.0,5321.6199999999999,3520.3899999999999,1871.5899999999999,7262.79,-424.30900000000003,1002.08,-790.04300000000001
167006.0,5646.1199999999999,3835.5999999999999,1782.1900000000001,7505.2299999999996,-593.03099999999995,955.67999999999995,-977.36099999999999
167007.0,5933.6899999999996,4214.25,1805.1300000000001,7788.79,-743.05399999999997,901.81399999999996,-1143.0699999999999
167008.0,6176.1800000000003,4462.8800000000001,1745.3499999999999,7920.1800000000003,-874.33799999999997,842.00800000000004,-1289.9200000000001
167009.0,6372.2200000000003,4709.9499999999998,1728.28,8032.5299999999997,-988.70299999999997,778.37900000000002,-1416.3699999999999
167010.0,6522.6199999999999,4884.1499999999996,1679.01,8056.21,-1086.95,711.66899999999998,-1525.24
167011.0,6628.1599999999999,5055.3999999999996,1664.2,8063.7600000000002,-1170.1800000000001,643.46400000000006,-1615.5599999999999
167012.0,6692.25,5179.6400000000003,1636.8800000000001,8013.3599999999997,-1239.3699999999999,574.26199999999994,-1690.02
167013.0,6716.3599999999997,5260.0699999999997,1597.95,7910.4799999999996,-1295.55,505.19999999999999,-1748.0
167014.0,6704.5900000000001,5314.1099999999997,1562.29,7774.7799999999997,-1339.76,436.68799999999999,-1791.79
167015.0,6659.1599999999999,5323.79,1509.24,7590.1700000000001,-1372.9200000000001,369.58300000000003,-1820.9300000000001
167016.0,6584.21,5331.8000000000002,1478.97,7400.8500000000004,-1395.9100000000001,304.02300000000002,-1837.74
167017.0,6482.1400000000003,5302.04,1432.5799999999999,7172.3500000000004,-1409.5699999999999,240.786,-1841.72
167018.0,6357.3000000000002,5274.1700000000001,1407.5,6945.4099999999999,-1414.76,179.66900000000001,-1835.53
167019.0,6211.1700000000001,5220.25,1373.78,6693.4099999999999,-1412.1800000000001,121.499,-1818.3900000000001
167020.0,6048.3100000000004,5146.9399999999996,1336.24,6424.4700000000003,-1402.9000000000001,65.871799999999993,-1792.8499999999999
167021.0,5869.8500000000004,5063.0,1301.4400000000001,6147.6899999999996,-1387.26,13.4024,-1758.3199999999999
167022.0,5679.7600000000002,4965.1899999999996,1265.0899999999999,5861.5200000000004,-1366.4400000000001,-36.125900000000001,-1716.9400000000001
167023.0,5478.9700000000003,4843.75,1215.6700000000001,5556.4300000000003,-1340.5899999999999,-82.448899999999995,-1668.4000000000001
167024.0,5271.1999999999998,4737.2600000000002,1189.8299999999999,5271.9200000000001,-1310.6500000000001,-125.65300000000001,-1614.3099999999999
167025.0,5057.6999999999998,4607.25,1147.8900000000001,4969.6300000000001,-1277.01,-165.72200000000001,-1554.95
167026.0,4840.9899999999998,4479.6400000000003,1114.54,4676.3699999999999,-1240.3800000000001,-202.69800000000001,-1491.28
167027.0,4622.5600000000004,4333.5900000000001,1067.8900000000001,4371.3699999999999,-1201.0799999999999,-236.636,-1423.9200000000001
167028.0,4404.3000000000002,4187.7700000000004,1025.3399999999999,4073.8699999999999,-1159.6500000000001,-267.541,-1353.4000000000001
167029.0,4187.75,4042.46,986.38,3784.0599999999999,-1116.45,-295.57400000000001,-1280.51
167030.0,3974.4499999999998,3886.0799999999999,938.17499999999995,3490.7800000000002,-1071.9000000000001,-320.70400000000001,-1205.51
167031.0,3765.7399999999998,3745.1199999999999,907.00900000000001,3220.3200000000002,-1026.3900000000001,-343.22000000000003,-1129.3299999999999
167032.0,3562.9200000000001,3580.5599999999999,852.34699999999998,2934.21,-980.20100000000002,-362.95600000000002,-1051.8599999999999
167033.0,3367.1799999999998,3435.3699999999999,817.59500000000003,2674.5900000000001,-933.63699999999994,-380.447,-974.45500000000004
167034.0,3179.4099999999999,3264.1300000000001,755.51599999999996,2397.3000000000002,-887.048,-395.19900000000001,-896.202
167035.0,3000.7199999999998,3124.3899999999999,725.08199999999999,2158.27,-840.49300000000005,-408.13600000000002,-819.20399999999995
167036.0,2831.71,2960.2800000000002,667.16600000000005,1903.28,-794.21799999999996,-418.29300000000001,-741.50599999999997
167037.0,2674.0599999999999,2835.8299999999999,648.89099999999996,1693.95,-748.54999999999995,-427.21699999999998,-666.51099999999997
167038.0,2526.9400000000001,2671.5100000000002,586.27599999999995,1453.46,-703.48900000000003,-433.23500000000001,-590.40599999999995
167039.0,2393.0700000000002,2577.2800000000002,594.255,1288.1400000000001,-659.37900000000002,-438.72399999999999,-518.69200000000001
167040.0,2269.8299999999999,2415.73,528.55999999999995,1064.3099999999999,-615.88499999999999,-440.94799999999998,-444.78300000000002
167041.0,2161.9499999999998,2345.8000000000002,555.96900000000005,936.03499999999997,-573.91399999999999,-443.60700000000003,-377.64499999999998
167042.0,2063.4299999999998,2164.3600000000001,464.01499999999999,704.86599999999999,-532.27300000000002,-442.483,-305.92099999999999
167043.0,1981.9000000000001,2109.9299999999998,501.64999999999998,604.41099999999994,-492.98200000000003,-442.76100000000002,-244.16
167044.0,1906.5699999999999,1899.1800000000001,373.786,356.08300000000003,-452.81200000000001,-438.13900000000001,-173.07599999999999
167045.0,1847.8599999999999,1869.0999999999999,436.13200000000001,287.90600000000001,-414.31400000000002,-436.83600000000001,-114.535
167046.0,1787.3299999999999,1646.3099999999999,273.637,55.863500000000002,-376.32100000000003,-422.38499999999999,-35.936100000000003
167047.0,1742.25,1708.02,423.99799999999999,76.689999999999998,-318.19600000000003,-405.08800000000002,89.647900000000007
167048.0,8480.6399999999994,-3819.6599999999999,2317.52,-934.17499999999995,2948.23,535.04100000000005,2359.6700000000001
167049.0,7069.54,-2956.4299999999998,2033.6600000000001,32.904699999999998,2448.4000000000001,734.58299999999997,1954.0999999999999
167050.0,5900.7299999999996,-1899.71,2078.8699999999999,1237.74,1987.3800000000001,906.46500000000003,1561.45
167051.0,4985.1099999999997,-943.09400000000005,2084.6599999999999,2330.9699999999998,1571.97,1045.4000000000001,1181.21
167052.0,4374.7600000000002,-97.934799999999996,2041.03,3298.1500000000001,1197.9100000000001,1147.8299999999999,823.93100000000004
167053.0,4086.4499999999998,686.255,2017.29,4176.8999999999996,859.41700000000003,1216.75,493.88900000000001
167054.0,4081.6300000000001,1382.1400000000001,1981.51,4940.9899999999998,551.50800000000004,1257.9200000000001,190.18799999999999
167055.0,4275.4799999999996,2005.0799999999999,1945.1700000000001,5602.3999999999996,272.16300000000001,1274.72,-87.434100000000001
167056.0,4581.75,2573.8600000000001,1922.04,6181.4700000000003,18.872699999999998,1271.47,-341.70400000000001
167057.0,4934.2600000000002,3065.0599999999999,1883.5699999999999,6656.1899999999996,-209.76400000000001,1251.24,-572.43600000000004
167058.0,5290.0799999999999,3526.29,1874.0999999999999,7075.21,-415.28500000000003,1216.9400000000001,-782.46199999999999
167059.0,5624.5799999999999,3893.9899999999998,1825.9000000000001,7377.8000000000002,-599.25999999999999,1171.53,-969.94500000000005
167060.0,5924.8199999999997,4256.8699999999999,1823.79,7654.4899999999998,-762.77599999999995,1116.5,-1138.4100000000001
167061.0,6181.7399999999998,4516.04,1767.3900000000001,7808.6899999999996,-907.06399999999996,1054.5999999999999,-1286.0899999999999
167062.0,6394.5500000000002,4768.96,1749.3800000000001,7940.9099999999999,-1033.3499999999999,986.85199999999998,-1415.1800000000001
167063.0,6561.4700000000003,4970.8900000000003,1721.8,8007.3100000000004,-1142.45,915.09500000000003,-1525.6800000000001
167064.0,6684.0699999999997,5141.29,1701.3299999999999,8030.1199999999999,-1235.4400000000001,840.30899999999997,-1618.99
167065.0,6763.9099999999999,5255.7799999999997,1661.0699999999999,7987.0100000000002,-1313.53,763.76300000000003,-1695.5799999999999
167066.0,6803.6899999999996,5339.6400000000003,1623.22,7905.2299999999996,-1377.6600000000001,686.27499999999998,-1756.3800000000001
167067.0,6806.3000000000002,5407.9300000000003,1599.71,7801.3000000000002,-1428.79,608.74400000000003,-1802.25
167068.0,6775.0299999999997,5444.7700000000004,1571.45,7660.8900000000003,-1467.75,531.79600000000005,-1834.1500000000001
167069.0,6713.0299999999997,5467.5500000000002,1553.74,7502.7799999999997,-1495.6099999999999,455.93900000000002,-1853.3800000000001
167070.0,6623.2399999999998,5449.9300000000003,1517.5899999999999,7302.2600000000002,-1513.23,381.81400000000002,-1860.28
167071.0,6509.1300000000001,5416.8400000000001,1486.2,7085.5699999999997,-1521.72,309.69200000000001,-1856.55
167072.0,6372.71,5352.9200000000001,1442.1099999999999,6838.5299999999997,-1521.76,240.06999999999999,-1842.0799999999999
167073.0,6218.1099999999997,5270.21,1394.99,6574.3299999999999,-1514.3199999999999,173.03,-1818.77
167074.0,6046.8699999999999,5185.2700000000004,1359.75,6310.1000000000004,-1499.97,108.98699999999999,-1786.6500000000001
167075.0,5862.4799999999996,5075.2700000000004,1311.72,6024.3500000000004,-1479.6199999999999,48.000100000000003,-1747.0899999999999
167076.0,5666.9300000000003,4965.4099999999999,1274.1500000000001,5742.3800000000001,-1453.7,-9.8215699999999995,-1700.6900000000001
167077.0,5462.9399999999996,4845.3100000000004,1235.0699999999999,5454.6099999999997,-1423.0699999999999,-64.332800000000006,-1648.3499999999999
167078.0,5252.4399999999996,4707.6599999999999,1186.25,5154.4700000000003,-1388.3599999999999,-115.56,-1590.8099999999999
167079.0,5037.0799999999999,4564.3900000000003,1138.3599999999999,4854.1999999999998,-1350.0,-163.42400000000001,-1528.6099999999999
167080.0,4819.2799999999997,4420.1199999999999,1094.46,4559.0200000000004,-1308.6099999999999,-207.90000000000001,-1462.5599999999999
167081.0,4600.3699999999999,4273.5500000000002,1052.46,4267.5600000000004,-1264.6199999999999,-249.09100000000001,-1393.24
167082.0,4382.3000000000002,4129.1700000000001,1015.54,3984.9400000000001,-1218.5799999999999,-286.95299999999997,-1321.1500000000001
167083.0,4166.3999999999996,3973.1199999999999,969.38900000000001,3697.1799999999998,-1170.8699999999999,-321.69099999999997,-1247.1199999999999
167084.0,3953.98,3827.6199999999999,935.13800000000003,3426.9899999999998,-1121.9000000000001,-353.21600000000001,-1171.26
167085.0,3746.46,3667.3000000000002,886.93299999999999,3148.6700000000001,-1071.96,-381.79599999999999,-1094.52
167086.0,3544.9499999999998,3522.4200000000001,854.00900000000001,2893.0,-1021.47,-407.30700000000002,-1016.8200000000001
167087.0,3350.54,3375.1999999999998,818.63800000000003,2641.6700000000001,-970.63699999999994,-430.13600000000002,-939.13
167088.0,3164.4200000000001,3234.5300000000002,788.01300000000003,2404.0500000000002,-919.71900000000005,-450.029,-861.18799999999999
167089.0,2987.6599999999999,3093.7199999999998,756.40099999999995,2172.54,-869.10400000000004,-467.65600000000001,-784.322
167090.0,2820.7199999999998,2946.1300000000001,715.28099999999995,1941.6500000000001,-818.95899999999995,-482.43400000000003,-707.41300000000001
167091.0,2664.9000000000001,2812.3099999999999,686.93299999999999,1730.3599999999999,-769.47799999999995,-495.39999999999998,-632.67899999999997
167092.0,2520.0,2660.75,636.76099999999997,1508.55,-720.67200000000003,-505.50999999999999,-557.84900000000005
167093.0,2388.0999999999999,2525.23,601.77300000000002,1308.0,-673.06399999999996,-514.40700000000004,-486.50700000000001
167094.0,2267.2600000000002,2364.5100000000002,536.52700000000004,1089.46,-626.26599999999996,-520.33199999999999,-414.35899999999998
167095.0,2160.7600000000002,2243.9299999999998,511.12599999999998,915.75199999999995,-581.06100000000004,-525.67999999999995,-347.25900000000001
167096.0,2064.3099999999999,2092.5300000000002,449.02100000000002,717.93899999999996,-536.24400000000003,-527.77800000000002,-277.83999999999997
167097.0,1983.0999999999999,1997.6800000000001,443.47300000000001,581.41200000000003,-493.61099999999999,-529.83799999999997,-215.499
167098.0,1909.55,1866.3800000000001,394.94200000000001,414.49799999999999,-450.23899999999998,-528.01800000000003,-147.31399999999999
167099.0,1850.6600000000001,1777.8399999999999,395.63099999999997,291.48500000000001,-408.47199999999998,-527.85699999999997,-87.966800000000006
167100.0,1791.21,1633.1700000000001,309.399,136.83600000000001,-366.57600000000002,-514.55399999999997,-11.9404
167101.0,1747.6800000000001,1623.53,387.19900000000001,86.060699999999997,-302.11900000000003,-500.846,110.322
167102.0,7248.9499999999998,-3104.27,1919.99,-167.602,2597.29,928.31200000000001,1880.74
167103.0,6204.7399999999998,-1930.25,2212.9699999999998,1142.6199999999999,2159.1799999999998,1064.3299999999999,1553.1600000000001
167104.0,5281.79,-1161.95,2051.6999999999998,1991.02,1742.6199999999999,1197.6500000000001,1203.8499999999999
167105.0,4599.3999999999996,-244.11799999999999,2076.25,2986.5100000000002,1353.2,1304.1400000000001,862.93100000000004
167106.0,4214.2799999999997,537.47199999999998,2027.0699999999999,3837.8200000000002,994.45299999999997,1382.25,537.44000000000005
167107.0,4118.9200000000001,1296.98,2026.76,4647.8299999999999,665.61300000000006,1432.52,234.28800000000001
167108.0,4250.7700000000004,1952.48,1993.1800000000001,5331.0900000000001,365.452,1458.6500000000001,-45.552799999999998
167109.0,4523.1700000000001,2552.1399999999999,1973.74,5935.3800000000001,92.115499999999997,1463.23,-301.48399999999998
167110.0,4863.8400000000001,3080.7800000000002,1948.28,6446.6300000000001,-155.90700000000001,1448.9300000000001,-536.17100000000005
167111.0,5221.8999999999996,3539.73,1915.29,6866.79,-380.09899999999999,1419.3,-748.08699999999999
167112.0,5568.6499999999996,3955.1500000000001,1896.0899999999999,7224.5799999999999,-581.95100000000002,1376.0799999999999,-940.26599999999996
167113.0,5884.1899999999996,4303.9899999999998,1864.96,7496.8699999999999,-762.03999999999996,1322.3900000000001,-1111.24
167114.0,6161.6999999999998,4615.9799999999996,1847.4100000000001,7717.3299999999999,-922.22400000000005,1259.5799999999999,-1263.05
167115.0,6394.5900000000001,4876.3000000000002,1824.47,7870.21,-1062.4300000000001,1189.78,-1395.6700000000001
167116.0,6583.3400000000001,5106.2200000000003,1814.3399999999999,7980.4300000000003,-1184.74,1114.3599999999999,-1510.52
167117.0,6726.4700000000003,5258.3000000000002,1767.2,8001.3900000000003,-1289.7,1034.8099999999999,-1607.71
167118.0,6826.8100000000004,5401.5699999999997,1748.1400000000001,8004.5500000000002,-1378.6600000000001,952.27300000000002,-1688.1900000000001
167119.0,6886.1700000000001,5499.9899999999998,1717.77,7954.4399999999996,-1452.27,867.86699999999996,-1753.0599999999999
167120.0,6907.4099999999999,5582.6899999999996,1702.3800000000001,7882.2200000000003,-1511.73,782.45100000000002,-1802.97
167121.0,6893.5600000000004,5606.5,1656.4300000000001,7746.1000000000004,-1558.1500000000001,696.84900000000005,-1839.23
167122.0,6846.9499999999998,5612.8100000000004,1619.1300000000001,7589.0799999999999,-1592.5899999999999,611.86800000000005,-1861.96
167123.0,6771.4300000000003,5584.6899999999996,1570.72,7395.54,-1615.97,527.98699999999997,-1872.8
167124.0,6669.3800000000001,5545.0900000000001,1531.76,7189.2700000000004,-1629.1600000000001,445.899,-1871.97
167125.0,6544.5699999999997,5492.8800000000001,1498.5599999999999,6970.46,-1632.99,365.791,-1861.02
167126.0,6399.25,5418.7600000000002,1459.5799999999999,6730.1300000000001,-1628.1900000000001,288.298,-1840.4000000000001
167127.0,6236.6499999999996,5347.96,1438.6199999999999,6494.96,-1615.8699999999999,213.42099999999999,-1811.4000000000001
167128.0,6058.9700000000003,5234.5200000000004,1387.3599999999999,6219.3999999999996,-1596.5,141.703,-1774.3399999999999
167129.0,5869.3400000000001,5135.4899999999998,1361.5599999999999,5961.3699999999999,-1571.1500000000001,73.046499999999995,-1730.72
167130.0,5669.1800000000003,5001.1000000000004,1309.97,5671.6599999999999,-1540.3900000000001,7.8752599999999999,-1680.46
167131.0,5461.4200000000001,4874.25,1274.1700000000001,5394.0200000000004,-1504.99,-53.9358,-1624.96
167132.0,5247.5299999999997,4735.1999999999998,1232.6500000000001,5108.6400000000003,-1465.27,-112.134,-1564.45
167133.0,5030.1400000000003,4601.7399999999998,1202.05,4833.9399999999996,-1422.0999999999999,-166.852,-1500.04
167134.0,4810.5900000000001,4448.8100000000004,1156.23,4545.0900000000001,-1375.9400000000001,-217.959,-1432.05
167135.0,4590.6499999999996,4299.7299999999996,1117.6900000000001,4265.7600000000002,-1327.28,-265.58699999999999,-1361.25
167136.0,4371.8000000000002,4133.5200000000004,1064.29,3975.1500000000001,-1276.55,-309.62,-1288.04
167137.0,4155.5699999999997,3984.0599999999999,1029.28,3707.27,-1224.22,-350.27699999999999,-1213.1300000000001
167138.0,3943.3000000000002,3813.0799999999999,973.25400000000002,3423.9099999999999,-1170.6300000000001,-387.464,-1136.8399999999999
167139.0,3736.2199999999998,3664.8800000000001,940.29200000000003,3169.5,-1116.28,-421.43799999999999,-1059.75
167140.0,3535.4499999999998,3495.21,885.05899999999997,2899.8099999999999,-1061.3199999999999,-452.11700000000002,-982.11900000000003
167141.0,3342.21,3335.8800000000001,839.32600000000002,2646.5300000000002,-1006.24,-479.81299999999999,-904.65099999999995
167142.0,3157.1799999999998,3166.5,781.93100000000004,2389.5799999999999,-951.26499999999999,-504.38499999999999,-827.17700000000002
167143.0,2981.4099999999999,3013.5100000000002,739.40200000000004,2155.0599999999999,-896.577,-526.20899999999995,-750.61500000000001
167144.0,2815.52,2856.4499999999998,690.10400000000004,1922.52,-842.29200000000003,-545.09799999999996,-674.62199999999996
167145.0,2660.79,2711.5700000000002,650.80200000000002,1707.9200000000001,-788.88599999999997,-561.55799999999999,-600.26800000000003
167146.0,2517.0700000000002,2568.0900000000001,609.69299999999998,1500.6199999999999,-736.25999999999999,-575.28800000000001,-526.69899999999996
167147.0,2385.7800000000002,2446.5,588.00199999999995,1320.73,-684.83900000000006,-586.91099999999994,-455.49000000000001
167148.0,2266.1700000000001,2320.8299999999999,558.50300000000004,1142.1300000000001,-634.27499999999998,-596.00599999999997,-385.15699999999998
167149.0,2160.0599999999999,2205.4200000000001,536.45699999999999,979.10199999999998,-585.39599999999996,-603.31500000000005,-317.90300000000002
167150.0,2065.4699999999998,2080.4000000000001,501.25,811.01800000000003,-537.29399999999998,-608.41899999999998,-251.077
167151.0,1984.51,1957.1099999999999,464.47000000000003,650.52599999999995,-491.40499999999997,-611.78399999999999,-188.07900000000001
167152.0,1913.0899999999999,1829.27,420.20299999999997,488.98000000000002,-445.08999999999997,-612.86099999999999,-123.145
167153.0,1854.0999999999999,1700.6800000000001,377.82900000000001,330.04300000000001,-400.20600000000002,-613.70500000000004,-62.935099999999998
167154.0,1795.6400000000001,1595.1199999999999,330.07400000000001,213.95699999999999,-354.50400000000002,-601.73599999999999,10.3452
167155.0,1753.6099999999999,1533.49,355.536,110.991,-283.238,-591.38099999999997,128.88800000000001
167156.0,6587.8000000000002,-2127.0900000000001,2274.0,864.79999999999995,2344.3800000000001,1184.8599999999999,1585.95
167157.0,5688.8100000000004,-1443.03,2062.1900000000001,1566.8,1959.3099999999999,1310.8099999999999,1277.45
167158.0,4936.4300000000003,-553.13300000000004,2077.8099999999999,2490.1799999999998,1569.1199999999999,1422.1300000000001,955.29300000000001
167159.0,4418.1499999999996,292.26900000000001,2075.4200000000001,3375.73,1193.77,1511.6300000000001,632.61699999999996
167160.0,4184.3800000000001,1051.0799999999999,2033.99,4164.8000000000002,841.73599999999999,1577.0799999999999,327.137
167161.0,4208.3999999999996,1768.9000000000001,2020.3099999999999,4898.8100000000004,515.60299999999995,1616.1099999999999,40.793900000000001
167162.0,4419.8599999999997,2389.1799999999998,1978.1700000000001,5519.0200000000004,216.39400000000001,1632.6400000000001,-221.26300000000001
167163.0,4734.3599999999997,2972.1100000000001,1969.1500000000001,6084.4399999999996,-56.924199999999999,1627.8,-462.30500000000001
167164.0,5092.3999999999996,3467.6399999999999,1936.96,6545.71,-304.87200000000001,1605.6900000000001,-680.68200000000002
167165.0,5452.2799999999997,3930.71,1934.46,6957.8500000000004,-528.99900000000002,1567.8299999999999,-879.76599999999996
167166.0,5790.8699999999999,4306.5299999999997,1901.4000000000001,7267.5500000000002,-729.90999999999997,1517.54,-1057.21
167167.0,6095.2200000000003,4652.71,1892.48,7533.54,-909.30399999999997,1456.1500000000001,-1216.5999999999999
167168.0,6357.1199999999999,4922.04,1856.01,7709.2799999999997,-1067.47,1386.22,-1355.8099999999999
167169.0,6575.2700000000004,5158.8999999999996,1834.0899999999999,7841.9300000000003,-1206.8399999999999,1309.0799999999999,-1477.6199999999999
167170.0,6747.0200000000004,5334.04,1793.26,7902.6400000000003,-1327.0699999999999,1226.47,-1580.78
167171.0,6875.2600000000002,5506.04,1788.28,7951.4899999999998,-1429.8499999999999,1139.5799999999999,-1667.97
167172.0,6960.5299999999997,5611.2799999999997,1752.6900000000001,7926.0900000000001,-1516.0599999999999,1049.79,-1738.6300000000001
167173.0,7005.8400000000001,5692.1599999999999,1726.4400000000001,7870.5600000000004,-1587.1300000000001,957.92399999999998,-1794.51
167174.0,7013.5799999999999,5725.2600000000002,1682.5799999999999,7762.6599999999999,-1643.77,865.274,-1835.53
167175.0,6987.0900000000001,5761.0100000000002,1668.9200000000001,7653.71,-1687.0899999999999,772.25999999999999,-1863.5799999999999
167176.0,6929.2399999999998,5757.6300000000001,1640.1199999999999,7502.9300000000003,-1717.71,679.90300000000002,-1878.8
167177.0,6843.5799999999999,5742.6300000000001,1621.9100000000001,7338.8400000000001,-1737.1199999999999,588.59500000000003,-1882.96
167178.0,6732.4499999999998,5692.4200000000001,1588.0699999999999,7138.8900000000003,-1745.8599999999999,499.04300000000001,-1876.1600000000001
167179.0,6599.3400000000001,5617.5699999999997,1547.3499999999999,6914.4399999999996,-1745.3599999999999,411.649,-1859.8399999999999
167180.0,6446.6499999999996,5529.3400000000001,1508.9000000000001,6677.9700000000003,-1736.3,326.78800000000001,-1834.26
167181.0,6277.3000000000002,5410.2799999999997,1453.25,6412.1899999999996,-1719.4300000000001,244.762,-1800.8299999999999
167182.0,6093.8100000000004,5302.3100000000004,1420.3199999999999,6160.0299999999997,-1695.7,165.96299999999999,-1759.79
167183.0,5898.6400000000003,5165.8199999999997,1369.29,5882.3500000000004,-1665.78,90.385800000000003,-1712.46
167184.0,5693.9700000000003,5035.5799999999999,1332.5899999999999,5614.2200000000003,-1630.1400000000001,18.427499999999998,-1659.1600000000001
167185.0,5482.3400000000001,4888.3500000000004,1286.0799999999999,5332.7700000000004,-1589.8199999999999,-50.022199999999998,-1601.1700000000001
167186.0,5265.21,4733.0299999999997,1237.1900000000001,5047.5,-1545.28,-114.676,-1538.4200000000001
167187.0,5044.9499999999998,4568.0900000000001,1183.6800000000001,4757.2600000000002,-1497.3,-175.642,-1472.29
167188.0,4822.6499999999996,4407.4499999999998,1137.8099999999999,4476.0699999999997,-1446.0899999999999,-232.708,-1402.6600000000001
167189.0,4600.6099999999997,4242.4899999999998,1090.3099999999999,4195.5600000000004,-1392.49,-286.05900000000003,-1330.73
167190.0,4379.9200000000001,4086.1500000000001,1052.8299999999999,3928.8299999999999,-1336.77,-335.57299999999998,-1256.51
167191.0,4162.29,3914.6799999999998,1001.39,3652.23,-1279.5899999999999,-381.49099999999999,-1181.02
167192.0,3948.6500000000001,3760.5999999999999,967.28300000000002,3398.5700000000002,-1221.1800000000001,-423.63499999999999,-1104.1099999999999
167193.0,3740.5700000000002,3589.2600000000002,915.73299999999995,3132.9699999999998,-1162.01,-462.34199999999998,-1026.9300000000001
167194.0,3538.77,3434.6700000000001,879.56500000000005,2889.7399999999998,-1102.3399999999999,-497.392,-949.04899999999998
167195.0,3344.71,3283.5500000000002,845.80700000000002,2655.3899999999999,-1042.6300000000001,-529.25999999999999,-871.71600000000001
167196.0,3158.9699999999998,3135.0999999999999,812.03200000000004,2429.1599999999999,-982.83699999999999,-557.64099999999996,-794.41200000000003
167197.0,2983.0300000000002,2986.6300000000001,776.49199999999996,2208.0599999999999,-923.71000000000004,-583.18600000000004,-718.39999999999998
167198.0,2817.0500000000002,2836.75,736.077,1991.1400000000001,-865.10199999999998,-605.39999999999998,-642.77599999999995
167199.0,2662.3400000000001,2696.5100000000002,703.49699999999996,1788.79,-807.56700000000001,-625.16300000000001,-569.24000000000001
167200.0,2518.73,2542.9699999999998,653.13499999999999,1578.51,-750.74000000000001,-641.68700000000001,-496.28399999999999
167201.0,2387.9200000000001,2396.6799999999998,608.32100000000003,1379.98,-695.56100000000004,-656.26099999999997,-426.238
167202.0,2268.6999999999998,2237.9699999999998,545.74099999999999,1174.3399999999999,-641.22199999999998,-667.62300000000005,-356.50299999999999
167203.0,2163.2399999999998,2107.0999999999999,509.69400000000002,1000.72,-588.97199999999998,-677.51099999999997,-290.637
167204.0,2068.77,1962.96,454.40300000000002,818.67700000000002,-537.178,-684.16499999999996,-224.339
167205.0,1988.4400000000001,1856.3199999999999,435.36099999999999,678.38699999999994,-488.04599999999999,-689.61400000000003,-163.09200000000001
167206.0,1917.05,1738.3,399.08199999999999,530.69799999999998,-438.13900000000001,-691.67899999999997,-98.924700000000001
167207.0,1858.77,1634.45,381.899,398.86399999999998,-390.012,-694.23299999999995,-40.43
167208.0,1800.96,1507.0799999999999,311.09399999999999,260.98000000000002,-340.30599999999998,-683.221,30.7882
167209.0,1758.3800000000001,1481.51,365.03899999999999,198.04400000000001,-262.02300000000002,-672.98199999999997,148.74799999999999
167210.0,22906.900000000001,-14956.0,2267.02,-13236.9,8711.8500000000004,849.93299999999999,2880.4400000000001
167211.0,26536.799999999999,-17871.099999999999,2689.8499999999999,-15025.299999999999,9984.0799999999999,644.02599999999995,3244.02
167212.0,30683.5,-22398.799999999999,1827.6300000000001,-18243.0,11515.299999999999,493.21499999999997,3625.4400000000001
167213.0,35823.5,-26158.200000000001,2508.71,-20406.099999999999,13459.4,381.59199999999998,4059.3200000000002
167214.0,41980.900000000001,-33260.0,335.11599999999999,-25775.700000000001,15991.299999999999,509.012,4518.29
167215.0,51142.800000000003,-38685.099999999999,1497.6400000000001,-29606.299999999999,20010.200000000001,970.72799999999995,5140.5900000000001
167216.0,60484.300000000003,-51620.800000000003,-7096.9499999999998,-44141.400000000001,24665.200000000001,1897.3,6248.5200000000004
167217.0,81838.5,-54513.199999999997,-3041.4099999999999,-48537.0,36841.300000000003,2103.1599999999999,8849.9799999999996
167218.0,136583.0,-89554.300000000003,-75696.899999999994,-105853.0,75331.300000000003,2418.5900000000001,17601.099999999999
167219.0,183039.0,-142171.0,-267634.0,-224210.0,78599.199999999997,11559.200000000001,28226.099999999999
167220.0,156269.0,-201017.0,-366604.0,-297472.0,-12628.700000000001,21123.799999999999,24845.599999999999
167221.0,135807.0,-267440.0,-292789.0,-295674.0,-72924.899999999994,16985.5,17319.299999999999
167222.0,105714.0,-234622.0,-174226.0,-218296.0,-49152.099999999999,9094.7900000000009,15825.1
167223.0,21636.099999999999,-13761.799999999999,2509.0900000000001,-11754.0,8252.8799999999992,916.31500000000005,2896.3099999999999
167224.0,25184.900000000001,-17340.0,2155.5999999999999,-14194.6,9520.4200000000001,669.55700000000002,3284.8600000000001
167225.0,29433.400000000001,-20832.299999999999,2482.9699999999998,-16193.799999999999,11068.700000000001,420.70600000000002,3709.3899999999999
167226.0,34605.800000000003,-26328.0,1402.1900000000001,-19808.700000000001,13103.799999999999,265.39699999999999,4144.8900000000003
167227.0,41297.400000000001,-31519.099999999999,1799.2,-22529.0,15820.700000000001,300.45299999999997,4579.6499999999996
167228.0,50996.400000000001,-41467.300000000003,-1137.99,-29077.5,20341.299999999999,915.60900000000004,5050.5900000000001
167229.0,63165.900000000001,-51806.5,-3979.54,-37356.099999999999,26342.200000000001,3650.3499999999999,4586.0900000000001
167230.0,87704.0,-65075.199999999997,-10970.1,-55523.199999999997,40608.0,7435.9499999999998,5076.2600000000002
167231.0,125435.0,-80882.199999999997,-68091.399999999994,-105696.0,66561.699999999997,12123.1,17368.400000000001
167232.0,149011.0,-101546.0,-186517.0,-187318.0,54434.400000000001,25477.299999999999,36873.400000000001
167233.0,132655.0,-164372.0,-260645.0,-265040.0,-14411.700000000001,35916.800000000003,33631.5
167234.0,117642.0,-209129.0,-207189.0,-266904.0,-52526.5,22628.900000000001,13814.5
167235.0,96126.699999999997,-188745.0,-129093.0,-209729.0,-35170.5,3443.52,9006.3199999999997
167236.0,20232.400000000001,-12810.700000000001,2344.02,-10623.1,7749.1999999999998,947.00199999999995,2898.8400000000001
167237.0,23743.0,-15926.9,2428.5100000000002,-12560.4,8993.4699999999993,627.17100000000005,3338.8099999999999
167238.0,27986.200000000001,-20076.400000000001,2009.98,-15196.5,10578.1,286.25400000000002,3805.5900000000001
167239.0,33228.199999999997,-24598.599999999999,1994.7,-17638.0,12609.1,-75.027900000000002,4342.7799999999997
167240.0,40378.5,-31680.299999999999,728.83900000000006,-21645.700000000001,15632.0,-279.166,4874.1999999999998
167241.0,50625.800000000003,-40421.900000000001,-477.00400000000002,-26032.200000000001,20369.700000000001,-224.786,5482.5299999999997
167242.0,65786.399999999994,-56515.900000000001,-7052.4799999999996,-34053.0,28201.400000000001,1172.03,5705.3500000000004
167243.0,100956.0,-76171.100000000006,-17799.0,-48331.699999999997,49413.599999999999,9808.2999999999993,2650.9499999999998
167244.0,168890.0,-97123.300000000003,-68816.399999999994,-111994.0,88660.800000000003,32500.099999999999,-10477.1
167245.0,224491.0,-131020.0,-189852.0,-253774.0,93210.5,52150.0,-40269.599999999999
167246.0,210109.0,-172840.0,-258789.0,-357642.0,24810.0,35491.199999999997,-65485.599999999999
167247.0,168651.0,-193136.0,-196176.0,-322621.0,-35417.199999999997,-2737.52,-52521.199999999997
167248.0,122462.0,-175046.0,-111517.0,-223956.0,-33828.5,-19453.400000000001,-17254.5
167249.0,18796.700000000001,-11856.700000000001,2169.4299999999998,-9523.3999999999996,7207.96,971.00800000000004,2896.8000000000002
167250.0,22161.299999999999,-14653.1,2378.3899999999999,-11252.4,8411.5699999999997,562.88599999999997,3375.9200000000001
167251.0,26466.599999999999,-18871.099999999999,1933.9300000000001,-13868.4,9999.4799999999996,106.7,3944.6599999999999
167252.0,31635.5,-23425.799999999999,1593.8699999999999,-16500.299999999999,12091.299999999999,-405.86200000000002,4510.6199999999999
167253.0,38932.0,-30000.200000000001,997.57899999999995,-19811.200000000001,15034.700000000001,-1111.1300000000001,5323.6899999999996
167254.0,50841.300000000003,-40082.599999999999,-1272.8099999999999,-24994.5,21005.099999999999,-1415.25,5969.4899999999998
167255.0,63489.199999999997,-55419.900000000001,-8124.4799999999996,-33634.0,26880.900000000001,-2807.5799999999999,7265.8599999999997
167256.0,119490.0,-77712.899999999994,-9955.6700000000001,-31000.700000000001,58888.300000000003,1119.79,9356.9799999999996
167257.0,267829.0,-154623.0,-171205.0,-124833.0,148686.0,26864.5,-23011.400000000001
167258.0,414710.0,-246133.0,-499131.0,-347600.0,158288.0,40249.800000000003,-120175.0
167259.0,409118.0,-303493.0,-581996.0,-484452.0,5812.8299999999999,-9114.4799999999996,-188957.0
167260.0,313633.0,-315869.0,-354872.0,-419558.0,-87059.5,-60302.300000000003,-137222.0
167261.0,184403.0,-223861.0,-136223.0,-248043.0,-52726.400000000001,-51583.800000000003,-49319.599999999999
167262.0,17312.0,-10223.700000000001,2637.52,-7811.4200000000001,6635.2299999999996,970.95799999999997,2863.1100000000001
167263.0,20547.0,-13942.299999999999,1725.4000000000001,-10580.1,7804.2600000000002,531.74400000000003,3391.6599999999999
167264.0,24708.099999999999,-16437.599999999999,2860.0700000000002,-11613.200000000001,9290.1000000000004,-102.40000000000001,4040.0500000000002
167265.0,30049.400000000001,-23009.0,334.24000000000001,-16218.200000000001,11552.1,-750.70100000000002,4775.5900000000001
167266.0,36846.800000000003,-26836.599999999999,1806.48,-17496.700000000001,14377.1,-1721.0599999999999,5433.1099999999997
167267.0,50948.900000000001,-39344.800000000003,-3185.4000000000001,-25286.900000000001,21945.799999999999,-3031.4499999999998,6495.1899999999996
167268.0,59330.5,-55831.599999999999,-17074.799999999999,-39258.5,27212.200000000001,-5224.4099999999999,5236.71
167269.0,118330.0,-72114.699999999997,-8944.6100000000006,-32279.0,56926.0,-14157.5,14352.700000000001
167270.0,306188.0,-172034.0,-236855.0,-130274.0,163670.0,-7332.8999999999996,39045.099999999999
167271.0,493510.0,-324197.0,-763075.0,-374262.0,151823.0,20332.0,-2066.1999999999998
167272.0,488074.0,-507508.0,-962229.0,-573890.0,-84682.5,-8811.1800000000003,-108746.0
167273.0,406941.0,-528718.0,-580087.0,-494727.0,-182121.0,-69078.600000000006,-124152.0
167274.0,235538.0,-307069.0,-186794.0,-250069.0,-85705.300000000003,-64537.800000000003,-57985.900000000001
167275.0,15758.299999999999,-9686.4400000000005,1877.1400000000001,-7293.7299999999996,6060.29,994.64700000000005,2792.96
167276.0,18986.0,-11719.6,2750.73,-8363.6599999999999,7151.0200000000004,486.74599999999998,3379.1300000000001
167277.0,22701.599999999999,-16410.700000000001,999.99900000000002,-12054.1,8554.5900000000001,-191.816,4059.8600000000001
167278.0,28303.299999999999,-18722.599999999999,3138.27,-12349.700000000001,10654.200000000001,-1162.4000000000001,5076.0200000000004
167279.0,34790.300000000003,-28509.5,-3374.7800000000002,-20243.299999999999,14169.299999999999,-2213.75,5803.5100000000002
167280.0,46801.599999999999,-32465.299999999999,-3060.9899999999998,-21474.900000000001,20852.599999999999,-4835.6700000000001,7153.1099999999997
167281.0,56320.300000000003,-60741.300000000003,-34799.599999999999,-47982.900000000001,27477.299999999999,-8504.9200000000001,7856.9399999999996
167282.0,93253.399999999994,-62464.900000000001,-25679.799999999999,-43524.900000000001,43132.300000000003,-20905.5,16214.4
167283.0,251488.0,-133095.0,-170687.0,-134506.0,119012.0,-25890.599999999999,76117.100000000006
167284.0,441830.0,-311475.0,-666758.0,-389147.0,112135.0,19638.0,131238.0
167285.0,461750.0,-502140.0,-911630.0,-531959.0,-115709.0,40382.599999999999,62700.800000000003
167286.0,411595.0,-575991.0,-608456.0,-453651.0,-221461.0,-13328.1,-24151.599999999999
167287.0,251041.0,-363339.0,-222480.0,-231372.0,-111495.0,-40867.099999999999,-26142.099999999999
167288.0,14269.299999999999,-8510.8700000000008,1869.6800000000001,-6083.6599999999999,5479.3900000000003,1028.45,2703.0
167289.0,17315.200000000001,-10270.700000000001,2843.1700000000001,-7056.9700000000003,6487.9899999999998,460.66500000000002,3303.5999999999999
167290.0,20788.0,-14749.299999999999,983.57100000000003,-10763.0,7789.2299999999996,-214.81999999999999,4053.4200000000001
167291.0,26027.0,-16602.700000000001,3309.0900000000001,-11136.700000000001,9598.0,-1341.74,5102.8599999999997
167292.0,32692.5,-25492.5,-3301.2600000000002,-18819.799999999999,13101.0,-2736.6199999999999,6892.6199999999999
167293.0,40977.300000000003,-29787.200000000001,-6700.6899999999996,-22301.5,17319.900000000001,-5092.2399999999998,9750.1800000000003
167294.0,52973.0,-49718.900000000001,-28498.900000000001,-43371.900000000001,22822.900000000001,-8702.3099999999995,14837.0
167295.0,74382.300000000003,-65333.5,-47477.099999999999,-64447.099999999999,31482.299999999999,-16105.9,22191.0
167296.0,163330.0,-91446.600000000006,-111832.0,-121468.0,69331.800000000003,-23851.400000000001,57284.0
167297.0,298861.0,-177037.0,-372875.0,-276797.0,69203.100000000006,8740.6499999999996,123765.0
167298.0,350624.0,-338755.0,-584276.0,-400512.0,-77445.399999999994,57709.900000000001,123856.0
167299.0,335383.0,-444278.0,-446613.0,-355668.0,-173967.0,42434.199999999997,52350.699999999997
167300.0,231679.0,-332144.0,-189761.0,-199036.0,-106627.0,1346.25,13209.799999999999
167301.0,12862.9,-7061.6499999999996,2284.29,-4559.0699999999997,4899.3699999999999,1037.1300000000001,2581.6199999999999
167302.0,15577.0,-9657.0300000000007,1961.1199999999999,-6644.75,5838.7799999999997,498.77300000000002,3191.8499999999999
167303.0,18954.400000000001,-12109.1,2205.71,-8423.75,6979.3199999999997,-232.624,3968.0
167304.0,23519.799999999999,-16200.700000000001,1341.0999999999999,-11690.9,8637.8700000000008,-1290.95,5013.3199999999997
167305.0,29762.200000000001,-20025.400000000001,580.33600000000001,-15183.0,11063.1,-2636.7399999999998,7059.1300000000001
167306.0,38061.0,-28124.0,-5100.6400000000003,-23847.5,14274.200000000001,-3774.48,10719.799999999999
167307.0,49447.900000000001,-37113.599999999999,-14235.6,-37078.400000000001,19629.900000000001,-4831.25,15236.700000000001
167308.0,65523.0,-50645.599999999999,-38105.300000000003,-64644.400000000001,26501.400000000001,-7979.3900000000003,22109.599999999999
167309.0,105332.0,-69923.199999999997,-88852.5,-111733.0,33771.400000000001,-12636.4,44269.199999999997
167310.0,174926.0,-109865.0,-193408.0,-185613.0,25600.099999999999,3973.8899999999999,86017.0
167311.0,214924.0,-202642.0,-309601.0,-266051.0,-33462.099999999999,44842.900000000001,96819.100000000006
167312.0,212198.0,-270082.0,-266846.0,-250936.0,-95326.899999999994,54093.199999999997,53768.0
167313.0,178278.0,-244798.0,-128405.0,-164914.0,-77555.100000000006,25182.299999999999,20044.700000000001
167314.0,11483.200000000001,-6019.1499999999996,2252.1399999999999,-3480.6500000000001,4353.8500000000004,1054.27,2435.8099999999999
167315.0,13938.6,-8172.1800000000003,2144.6199999999999,-5266.8500000000004,5182.4899999999998,547.40899999999999,3050.04
167316.0,17032.5,-10636.6,2091.54,-7304.5799999999999,6214.1700000000001,-179.459,3806.3299999999999
167317.0,21114.299999999999,-13793.4,1746.72,-10022.1,7601.2700000000004,-1155.77,4877.1599999999999
167318.0,26531.5,-17873.200000000001,996.39499999999998,-13811.6,9560.3899999999994,-2240.1399999999999,6291.3199999999997
167319.0,34383.099999999999,-23415.099999999999,-364.08600000000001,-19574.400000000001,12753.6,-2986.1799999999998,8364.8299999999999
167320.0,47541.800000000003,-30787.400000000001,-6892.6700000000001,-30837.299999999999,20878.299999999999,-1667.47,11135.700000000001
167321.0,58496.099999999999,-42061.599999999999,-36066.400000000001,-63537.400000000001,27930.400000000001,625.32299999999998,12307.200000000001
167322.0,67670.399999999994,-53797.099999999999,-64406.900000000001,-106549.0,18306.799999999999,-734.30499999999995,20302.599999999999
167323.0,101181.0,-81059.899999999994,-92232.399999999994,-144623.0,8602.1399999999994,5038.3400000000001,46491.800000000003
167324.0,127756.0,-116176.0,-149739.0,-169330.0,-5352.9300000000003,28194.599999999999,62404.400000000001
167325.0,124822.0,-157682.0,-166400.0,-169512.0,-44389.800000000003,40579.199999999997,39227.199999999997
167326.0,119988.0,-172653.0,-97703.600000000006,-134124.0,-50532.699999999997,26402.799999999999,11984.299999999999
167327.0,10195.200000000001,-5229.4200000000001,2014.6900000000001,-2644.3400000000001,3844.25,1086.0799999999999,2282.96
167328.0,12408.299999999999,-6806.6599999999999,2350.6500000000001,-3949.8800000000001,4559.29,595.47799999999995,2868.3800000000001
167329.0,15101.6,-9490.7999999999993,1612.3399999999999,-6477.4899999999998,5477.5600000000004,-61.034700000000001,3611.77
167330.0,18802.299999999999,-11330.6,2535.5,-7980.9300000000003,6607.9399999999996,-964.58299999999997,4571.6199999999999
167331.0,23586.5,-16355.200000000001,140.12200000000001,-12787.700000000001,8439.3700000000008,-2074.4299999999998,5881.2600000000002
167332.0,30522.200000000001,-19877.5,846.17499999999995,-14859.0,11270.4,-3253.1999999999998,7486.3400000000001
167333.0,48408.099999999999,-31247.200000000001,-10456.200000000001,-26416.799999999999,24165.0,-1761.48,8699.0200000000004
167334.0,62603.599999999999,-52394.099999999999,-65252.300000000003,-69645.5,34638.900000000001,4257.5600000000004,2837.1199999999999
167335.0,48298.800000000003,-60559.800000000003,-87984.699999999997,-105896.0,14023.200000000001,3862.3499999999999,-6681.3699999999999
167336.0,56594.0,-65181.699999999997,-57846.199999999997,-116985.0,423.06,-4.2004400000000004,5320.1999999999998
167337.0,77612.5,-74684.699999999997,-71342.199999999997,-124347.0,2978.1399999999999,11864.0,31258.5
167338.0,82630.5,-103418.0,-104474.0,-127310.0,-18541.599999999999,26383.700000000001,32462.299999999999
167339.0,80081.5,-124647.0,-80719.0,-107153.0,-31041.5,22503.099999999999,13365.799999999999
167340.0,9064.1299999999992,-4223.9899999999998,2152.6199999999999,-1541.21,3377.9899999999998,1106.21,2121.5900000000001
167341.0,10950.799999999999,-5699.79,2295.5999999999999,-2885.0900000000001,3997.0799999999999,655.05899999999997,2668.2399999999998
167342.0,13284.299999999999,-7871.8800000000001,1842.28,-5007.6599999999999,4754.3500000000004,79.971100000000007,3361.3699999999999
167343.0,16527.0,-9629.1599999999999,2414.4299999999998,-6613.0100000000002,5748.7299999999996,-784.93100000000004,4255.5900000000001
167344.0,20700.400000000001,-13751.6,555.43200000000002,-10811.0,7177.3900000000003,-1857.74,5548.0699999999997
167345.0,27852.599999999999,-16773.5,1642.0599999999999,-12630.799999999999,9781.1599999999999,-3563.8299999999999,7542.0500000000002
167346.0,46613.400000000001,-29332.099999999999,-15954.799999999999,-23134.400000000001,22343.700000000001,-4965.1499999999996,12472.4
167347.0,67232.399999999994,-53381.800000000003,-82037.699999999997,-56954.5,33304.099999999999,1032.51,12355.200000000001
167348.0,54598.099999999999,-88494.399999999994,-141471.0,-109595.0,13855.4,6901.0,-6539.2600000000002
167349.0,45353.199999999997,-102367.0,-114315.0,-134709.0,-7065.75,-198.70099999999999,-19189.200000000001
167350.0,49574.800000000003,-72879.199999999997,-55542.800000000003,-110875.0,-3796.8000000000002,-1606.3099999999999,-1119.52
167351.0,52973.699999999997,-70898.800000000003,-54803.099999999999,-97923.699999999997,-6050.6300000000001,11132.6,17322.200000000001
167352.0,56121.800000000003,-87227.600000000006,-56594.699999999997,-86558.699999999997,-15744.9,16676.200000000001,14757.299999999999
167353.0,8131.3500000000004,-3493.9099999999999,2183.96,-677.82299999999998,2976.5900000000001,1108.1099999999999,1972.79
167354.0,9591.4200000000001,-4917.7200000000003,1959.6500000000001,-2118.0500000000002,3488.4000000000001,733.29899999999998,2449.0500000000002
167355.0,11631.700000000001,-6269.0299999999997,2269.8099999999999,-3395.2399999999998,4095.4699999999998,212.98400000000001,3066.54
167356.0,14220.6,-8523.5200000000004,1619.6800000000001,-5897.3599999999997,4915.1599999999999,-532.45299999999997,3905.3499999999999
167357.0,17971.299999999999,-10359.799999999999,2139.3600000000001,-7791.8999999999996,5961.5500000000002,-1588.3199999999999,5100.75
167358.0,24238.700000000001,-14968.5,21.227399999999999,-12757.6,8383.8799999999992,-3323.8899999999999,7001.4700000000003
167359.0,38773.400000000001,-18972.0,-7444.5900000000001,-18527.400000000001,13772.9,-6121.1199999999999,15209.0
167360.0,66599.699999999997,-44304.199999999997,-56034.699999999997,-42638.199999999997,24255.299999999999,-1634.24,28882.700000000001
167361.0,76109.5,-90025.5,-149169.0,-93747.300000000003,19856.400000000001,10148.4,18341.400000000001
167362.0,57477.699999999997,-115181.0,-166902.0,-126530.0,-11782.0,4932.9799999999996,-14111.4
167363.0,52042.699999999997,-106927.0,-97272.899999999994,-118377.0,-20408.299999999999,-7786.6800000000003,-17721.900000000001
167364.0,37142.800000000003,-70381.699999999997,-44085.599999999999,-84132.100000000006,-6421.0100000000002,-1774.8599999999999,1198.9400000000001
167365.0,38129.599999999999,-63365.0,-37432.699999999997,-69738.5,-7804.9300000000003,7688.8699999999999,8473.1499999999996
167366.0,7341.9300000000003,-2613.2600000000002,2482.25,332.94400000000002,2651.9200000000001,1093.25,1787.77
167367.0,8351.9200000000001,-4128.4799999999996,1750.6500000000001,-1282.3900000000001,3032.73,827.50099999999998,2173.8099999999999
167368.0,10025.299999999999,-4558.1899999999996,2798.25,-1662.3099999999999,3494.0799999999999,347.16899999999998,2727.6399999999999
167369.0,12018.299999999999,-7512.5799999999999,978.404,-5031.21,4134.21,-226.85499999999999,3455.6399999999999
167370.0,15255.1,-7194.1599999999999,3459.2399999999998,-5042.6099999999997,4857.9399999999996,-1234.53,4551.29
167371.0,20415.200000000001,-13194.6,-1278.3499999999999,-12298.700000000001,6826.54,-2552.52,6462.8500000000004
167372.0,27751.799999999999,-12383.0,-31.403099999999998,-15854.1,7307.4300000000003,-4241.7799999999997,10778.1
167373.0,54591.0,-22574.799999999999,-11057.9,-26474.799999999999,17012.099999999999,-3558.3800000000001,25041.200000000001
167374.0,84639.899999999994,-62570.099999999999,-103111.0,-70940.899999999994,24024.900000000001,7312.0600000000004,36044.699999999997
167375.0,76337.0,-105672.0,-172232.0,-107617.0,-10874.1,12049.700000000001,15624.5
167376.0,58827.699999999997,-127315.0,-130130.0,-113404.0,-31729.400000000001,-179.583,-8159.46
167377.0,38234.800000000003,-85305.5,-56054.699999999997,-79401.899999999994,-13955.9,-4896.9099999999999,-5412.29
167378.0,30383.5,-56306.0,-30005.200000000001,-57240.099999999999,-7796.2399999999998,605.00400000000002,2741.1700000000001
167379.0,1744.0599999999999,1442.8099999999999,244.57300000000001,360.41699999999997,-233.71000000000001,-690.06899999999996,215.18000000000001
167380.0,1749.9200000000001,1370.6800000000001,243.72999999999999,450.42899999999997,-205.97,-753.178,226.05199999999999
167381.0,1756.23,1271.4400000000001,226.06299999999999,528.39099999999996,-177.99799999999999,-808.21100000000001,232.024
167382.0,1762.6600000000001,1172.55,213.32599999999999,619.89999999999998,-149.15199999999999,-852.48099999999999,234.26400000000001
167383.0,1768.95,1086.3499999999999,212.92099999999999,735.26099999999997,-119.67100000000001,-883.56399999999996,234.28399999999999
167384.0,1775.55,995.50300000000004,211.52699999999999,854.21100000000001,-91.093500000000006,-902.798,230.023
167385.0,1782.1700000000001,891.97699999999998,201.066,965.73699999999997,-64.301299999999998,-909.95500000000004,220.542
167386.0,1789.29,798.61400000000003,199.81200000000001,1089.3800000000001,-39.437600000000003,-903.899,207.01300000000001
167387.0,1796.25,696.29600000000005,190.76300000000001,1203.8499999999999,-18.278600000000001,-884.84699999999998,188.76400000000001
167388.0,1804.2,597.78800000000001,180.881,1317.0899999999999,-0.28111599999999998,-852.596,166.60400000000001
167389.0,1811.6900000000001,526.322,189.52199999999999,1448.3599999999999,15.012700000000001,-805.62,141.80500000000001
167390.0,1821.6700000000001,449.40699999999998,184.09899999999999,1561.28,28.116900000000001,-747.11800000000005,115.36
167391.0,1832.74,402.685,195.82599999999999,1686.25,40.9086,-676.827,89.029200000000003
167392.0,1786.21,1478.3499999999999,238.33099999999999,419.47899999999998,-319.07600000000002,-710.68799999999999,89.553100000000001
167393.0,1792.27,1387.0799999999999,221.12100000000001,490.06700000000001,-299.35500000000002,-773.11500000000001,103.39
167394.0,1799.1300000000001,1312.3599999999999,226.352,592.95000000000005,-279.31599999999997,-826.38800000000003,113.11799999999999
167395.0,1806.21,1222.9100000000001,222.59200000000001,694.82600000000002,-258.51499999999999,-869.44399999999996,119.547
167396.0,1813.7,1119.21,209.529,793.09000000000003,-237.02799999999999,-901.51800000000003,123.214
167397.0,1821.75,1010.5700000000001,193.958,894.51199999999994,-216.482,-921.48000000000002,122.80500000000001
167398.0,1830.3900000000001,920.31899999999996,197.62100000000001,1020.4400000000001,-197.679,-928.53899999999999,118.15600000000001
167399.0,1839.77,816.63099999999997,187.364,1134.8199999999999,-181.22300000000001,-922.47900000000004,109.374
167400.0,1850.01,736.34900000000005,197.62200000000001,1272.3499999999999,-167.90100000000001,-902.51900000000001,96.722999999999999
167401.0,1860.96,656.14599999999996,203.59800000000001,1404.1700000000001,-157.66999999999999,-869.14800000000002,80.619799999999998
167402.0,1872.77,572.24199999999996,201.63800000000001,1526.1199999999999,-150.32499999999999,-822.04499999999996,61.836399999999998
167403.0,1882.74,500.97000000000003,206.959,1644.8900000000001,-143.18100000000001,-763.01599999999996,42.087299999999999
167404.0,1888.78,422.62,200.91999999999999,1742.1600000000001,-132.352,-690.50199999999995,23.471800000000002
167405.0,1834.47,1622.55,282.64999999999998,583.92200000000003,-361.85199999999998,-702.88900000000001,51.185499999999998
167406.0,1841.3199999999999,1560.1300000000001,292.44799999999998,680.50999999999999,-345.26999999999998,-764.78700000000003,64.383499999999998
167407.0,1849.3499999999999,1463.0699999999999,272.09199999999998,757.38900000000001,-327.65100000000001,-817.57299999999998,74.829300000000003
167408.0,1857.76,1377.5999999999999,268.82299999999998,859.69000000000005,-309.87299999999999,-860.17200000000003,81.921999999999997
167409.0,1867.21,1291.4300000000001,269.16399999999999,972.32299999999998,-292.95699999999999,-891.97699999999998,84.607500000000002
167410.0,1877.0999999999999,1214.2,280.93700000000001,1102.6400000000001,-276.44200000000001,-911.74699999999996,83.831000000000003
167411.0,1888.25,1110.4100000000001,266.84800000000001,1211.8099999999999,-261.30900000000003,-919.07600000000002,79.818799999999996
167412.0,1899.73,1032.0799999999999,277.36500000000001,1348.6800000000001,-247.791,-912.93499999999995,72.192800000000005
167413.0,1913.23,929.12,261.03199999999998,1460.6700000000001,-236.97200000000001,-893.822,61.2241
167414.0,1926.49,846.26499999999999,261.58499999999998,1587.0999999999999,-228.803,-860.98599999999999,46.8566
167415.0,1942.01,765.51400000000001,260.613,1710.24,-223.13900000000001,-815.42200000000003,30.833500000000001
167416.0,1950.6600000000001,692.10400000000004,266.21899999999999,1823.74,-215.334,-757.51599999999996,13.5969
167417.0,1954.9400000000001,591.92899999999997,249.155,1902.9000000000001,-201.279,-686.721,0.051221200000000001
167418.0,1900.1600000000001,1758.0899999999999,323.404,752.17700000000002,-420.33600000000001,-695.88699999999994,-16.263500000000001
167419.0,1908.1300000000001,1677.4200000000001,312.31999999999999,826.66700000000003,-408.46699999999998,-755.97299999999996,-1.86917
167420.0,1918.25,1610.45,319.49599999999998,929.36400000000003,-396.23399999999998,-807.72500000000002,8.7301400000000005
167421.0,1928.8800000000001,1531.8099999999999,319.88299999999998,1034.3800000000001,-383.767,-849.42700000000002,16.3279
167422.0,1940.98,1441.03,310.84500000000003,1137.75,-371.62099999999998,-880.39200000000005,20.625800000000002
167423.0,1953.79,1344.0599999999999,298.55900000000003,1244.02,-360.32499999999999,-899.61000000000001,21.790800000000001
167424.0,1968.4300000000001,1267.1700000000001,306.65699999999998,1375.54,-350.44600000000003,-906.779,19.346800000000002
167425.0,1983.9200000000001,1174.8099999999999,299.51799999999997,1494.5,-342.55599999999998,-900.96000000000004,13.5603
167426.0,2002.0599999999999,1107.0,313.61799999999999,1637.3499999999999,-337.48200000000003,-882.23000000000002,4.6320100000000002
167427.0,2019.8299999999999,1038.04,323.30599999999998,1773.8299999999999,-334.36000000000001,-849.71199999999999,-7.20505
167428.0,2040.0599999999999,962.524,323.512,1898.1400000000001,-333.75200000000001,-805.16499999999996,-20.158300000000001
167429.0,2049.9299999999998,895.06899999999996,332.935,2014.54,-328.58100000000002,-747.51999999999998,-33.838200000000001
167430.0,2053.9099999999999,803.28300000000002,324.34100000000001,2100.54,-315.55099999999999,-678.45600000000002,-42.2117
167431.0,1975.9200000000001,1876.79,345.66000000000003,903.11000000000001,-473.738,-686.20000000000005,-74.839399999999998
167432.0,1985.3,1829.8599999999999,366.20100000000002,1007.01,-466.04199999999997,-744.77599999999995,-59.843499999999999
167433.0,1997.98,1735.6700000000001,342.30900000000003,1077.77,-458.09300000000002,-795.30700000000002,-49.077100000000002
167434.0,2011.3599999999999,1671.29,353.39600000000002,1193.01,-450.47800000000001,-835.96900000000005,-40.647399999999998
167435.0,2026.8199999999999,1585.8399999999999,345.41899999999998,1297.04,-442.93700000000001,-866.36400000000003,-35.770699999999998
167436.0,2043.1900000000001,1530.1300000000001,369.71600000000001,1439.9000000000001,-436.43799999999999,-885.03800000000001,-33.340000000000003
167437.0,2062.0999999999999,1429.53,349.54000000000002,1542.9200000000001,-431.42599999999999,-892.28899999999999,-34.820799999999998
167438.0,2081.9499999999998,1374.1099999999999,373.786,1694.23,-428.35399999999998,-886.23400000000004,-38.639000000000003
167439.0,2105.23,1275.48,352.45600000000002,1801.6300000000001,-428.16199999999998,-868.178,-46.159799999999997
167440.0,2128.0500000000002,1216.1800000000001,368.209,1944.0699999999999,-430.10599999999999,-836.30399999999997,-55.651200000000003
167441.0,2152.96,1136.55,358.95800000000003,2059.6700000000001,-433.30700000000002,-792.524,-65.973100000000002
167442.0,2165.46,1082.1500000000001,378.62700000000001,2185.9699999999998,-431.149,-735.77700000000004,-76.380499999999998
167443.0,2169.54,967.71299999999997,345.68099999999998,2246.52,-419.60500000000002,-668.72900000000004,-80.4071
167444.0,2067.46,2024.03,391.62900000000002,1088.25,-530.27200000000005,-673.52599999999995,-137.911
167445.0,2078.8699999999999,1966.1900000000001,398.45299999999997,1176.24,-527.18700000000001,-730.19799999999998,-122.42400000000001
167446.0,2094.4699999999998,1895.8499999999999,394.34500000000003,1265.6700000000001,-523.74699999999996,-779.18499999999995,-111.105
167447.0,2111.3600000000001,1840.75,409.89699999999999,1384.49,-521.09799999999996,-818.42200000000003,-101.83
167448.0,2131.1700000000001,1752.9100000000001,394.91500000000002,1480.4100000000001,-518.88,-848.09900000000005,-96.613799999999998
167449.0,2152.1500000000001,1684.28,401.791,1605.0,-517.97000000000003,-866.30200000000002,-93.192300000000003
167450.0,2176.1399999999999,1607.3299999999999,399.26999999999998,1725.9100000000001,-518.09699999999998,-873.20000000000005,-93.402600000000007
167451.0,2201.3499999999999,1544.52,411.16899999999998,1864.3800000000001,-520.43499999999995,-867.32100000000003,-95.457400000000007
167452.0,2230.4200000000001,1474.3699999999999,411.30599999999998,1994.4100000000001,-525.02499999999998,-849.29399999999998,-100.861
167453.0,2259.0799999999999,1434.71,439.12,2150.3499999999999,-531.51599999999996,-817.601,-107.524
167454.0,2289.79,1355.3599999999999,425.93700000000001,2261.2399999999998,-539.79300000000001,-775.15099999999995,-115.51000000000001
167455.0,2306.2399999999998,1314.3199999999999,454.84899999999999,2396.5100000000002,-541.59199999999998,-719.68899999999996,-122.486
167456.0,2312.3000000000002,1210.9000000000001,431.024,2464.6300000000001,-534.02700000000004,-655.20399999999995,-123.15600000000001
167457.0,2172.0799999999999,2155.7800000000002,420.99599999999998,1260.5699999999999,-587.31899999999996,-659.12699999999995,-201.55199999999999
167458.0,2185.8600000000001,2115.46,441.96800000000002,1360.27,-588.61000000000001,-713.72199999999998,-185.584
167459.0,2205.0599999999999,2036.3099999999999,425.286,1435.3699999999999,-590.19000000000005,-761.13099999999997,-174.12100000000001
167460.0,2226.2199999999998,1985.6600000000001,440.923,1552.8900000000001,-592.76900000000001,-799.10699999999997,-164.53999999999999
167461.0,2250.6300000000001,1912.48,434.87700000000001,1657.76,-595.52999999999997,-827.53399999999999,-158.21199999999999
167462.0,2276.8000000000002,1869.26,460.63400000000001,1801.0799999999999,-599.75,-844.81899999999996,-153.55699999999999
167463.0,2306.4400000000001,1785.9200000000001,446.32900000000001,1909.6099999999999,-605.34400000000005,-851.48000000000002,-152.52099999999999
167464.0,2337.9099999999999,1744.53,472.73000000000002,2062.8299999999999,-613.12,-845.43700000000001,-152.96299999999999
167465.0,2373.48,1665.4000000000001,458.97399999999999,2178.0900000000001,-623.44100000000003,-828.03499999999997,-156.64400000000001
167466.0,2408.8499999999999,1622.0599999999999,478.63299999999998,2324.7800000000002,-635.68299999999999,-797.38999999999999,-161.286
167467.0,2445.9000000000001,1558.9100000000001,473.815,2445.5500000000002,-648.54300000000001,-755.41899999999998,-166.33000000000001
167468.0,2467.2600000000002,1516.9100000000001,496.274,2574.5100000000002,-654.57399999999996,-701.35599999999999,-169.93299999999999
167469.0,2475.4499999999998,1410.95,463.97000000000003,2634.77,-649.78800000000001,-638.89599999999996,-166.50200000000001
167470.0,2292.1799999999998,2313.6199999999999,471.57400000000001,1463.9000000000001,-646.50099999999998,-641.65800000000002,-267.75999999999999
167471.0,2308.9499999999998,2261.0900000000001,476.54899999999998,1544.8399999999999,-652.39400000000001,-694.00300000000004,-251.71000000000001
167472.0,2331.9400000000001,2208.3699999999999,481.56999999999999,1640.47,-658.96199999999999,-739.27300000000002,-239.41999999999999
167473.0,2358.04,2159.1999999999998,492.63200000000001,1752.1800000000001,-666.66499999999996,-775.53099999999995,-229.417
167474.0,2387.9299999999998,2096.4699999999998,491.85399999999998,1860.9200000000001,-675.29100000000005,-802.78200000000004,-222.46600000000001
167475.0,2420.3299999999999,2038.8199999999999,497.34899999999999,1982.5799999999999,-685.32600000000002,-819.48599999999999,-217.339
167476.0,2456.3600000000001,1984.8499999999999,505.42700000000002,2113.54,-696.673,-825.37800000000004,-214.684
167477.0,2494.6500000000001,1933.54,515.33399999999995,2249.4000000000001,-710.04200000000003,-819.50199999999995,-213.702
167478.0,2537.25,1885.4200000000001,524.32100000000003,2388.3200000000002,-725.75300000000004,-801.85799999999995,-214.911
167479.0,2580.0100000000002,1854.96,547.89200000000005,2539.8400000000001,-742.96799999999996,-771.66999999999996,-217.047
167480.0,2623.5799999999999,1799.28,545.50999999999999,2661.7399999999998,-761.23599999999999,-731.08900000000006,-219.21299999999999
167481.0,2650.6900000000001,1764.52,569.39700000000005,2791.48,-772.00400000000002,-679.01499999999999,-219.63200000000001
167482.0,2662.3899999999999,1681.24,556.29999999999995,2869.52,-772.03099999999995,-619.25800000000004,-212.55199999999999
167483.0,2426.4000000000001,2461.1300000000001,509.084,1660.9100000000001,-707.20399999999995,-621.74900000000002,-335.91000000000003
167484.0,2446.4299999999998,2415.5500000000002,516.56100000000004,1741.52,-717.57399999999996,-671.59100000000001,-319.73700000000002
167485.0,2473.8299999999999,2367.27,521.62699999999995,1834.98,-729.73900000000003,-714.67100000000005,-306.97899999999998
167486.0,2505.52,2317.6199999999999,526.36000000000001,1938.6700000000001,-742.81100000000004,-749.27200000000005,-297.024
167487.0,2541.2600000000002,2275.1300000000001,539.23400000000004,2060.5700000000002,-757.20699999999999,-774.75900000000001,-288.803
167488.0,2580.3699999999999,2231.7800000000002,551.05399999999997,2188.0100000000002,-772.69600000000003,-790.33399999999995,-282.86500000000001
167489.0,2623.23,2184.9299999999998,559.601,2318.48,-790.18499999999995,-795.56100000000004,-278.58199999999999
167490.0,2669.29,2143.75,571.39800000000002,2455.8000000000002,-809.39599999999996,-789.57899999999995,-276.36000000000001
167491.0,2719.3099999999999,2104.23,582.43200000000002,2595.6399999999999,-831.26900000000001,-772.26300000000003,-275.23200000000003
167492.0,2770.0500000000002,2062.1900000000001,588.01999999999998,2727.73,-854.51999999999998,-743.31799999999998,-275.548
167493.0,2821.23,2036.52,606.34299999999996,2871.3499999999999,-878.149,-703.28200000000004,-274.31900000000002
167494.0,2854.7199999999998,1991.99,613.19399999999996,2983.7399999999998,-893.75199999999995,-653.17700000000002,-271.46899999999999
167495.0,2870.0900000000001,1919.6800000000001,603.37699999999995,3065.4499999999998,-897.44000000000005,-595.76499999999999,-260.00299999999999
167496.0,2575.2399999999998,2627.3400000000001,560.90999999999997,1881.3199999999999,-769.55700000000002,-598.70100000000002,-406.113
167497.0,2598.9099999999999,2571.75,553.69399999999996,1944.0999999999999,-784.60500000000002,-645.81700000000001,-390.06200000000001
167498.0,2631.1300000000001,2549.7399999999998,579.49400000000003,2056.5599999999999,-802.38,-686.23599999999999,-376.50400000000002
167499.0,2668.8499999999999,2498.3400000000001,575.47000000000003,2149.8899999999999,-820.83299999999997,-718.73099999999999,-366.48000000000002
167500.0,2711.2399999999998,2474.4400000000001,600.35199999999998,2282.2199999999998,-841.60199999999998,-742.48500000000001,-357.38900000000001
167501.0,2757.7199999999998,2417.8600000000001,591.74699999999996,2387.5100000000002,-863.15300000000002,-757.13599999999997,-351.19099999999997
167502.0,2808.2399999999998,2403.1300000000001,624.096,2541.27,-887.005,-761.30600000000004,-345.11900000000003
167503.0,2862.21,2352.7800000000002,618.505,2660.04,-912.11699999999996,-755.26599999999996,-341.60000000000002
167504.0,2920.46,2344.8000000000002,651.76700000000005,2822.0900000000001,-940.11800000000005,-737.779,-337.86399999999998
167505.0,2979.4699999999998,2311.96,656.54399999999998,2953.4699999999998,-968.71299999999997,-709.45100000000002,-335.738
167506.0,3037.8600000000001,2299.71,681.32299999999998,3101.9299999999998,-998.03099999999995,-670.91800000000001,-331.13299999999998
167507.0,3078.3200000000002,2258.1599999999999,683.82899999999995,3208.73,-1018.97,-623.23500000000001,-325.197
167508.0,3098.4499999999998,2215.79,698.72900000000004,3313.4499999999998,-1028.03,-568.83799999999997,-309.63
167509.0,2737.9099999999999,2784.3299999999999,600.28800000000001,2096.9699999999998,-833.37900000000002,-572.77999999999997,-478.56799999999998
167510.0,2765.3499999999999,2738.8400000000001,598.16600000000005,2161.6199999999999,-853.303,-616.82000000000005,-462.36200000000002
167511.0,2803.0,2720.8499999999999,622.18399999999997,2269.6900000000001,-876.93600000000004,-654.51300000000003,-448.512
167512.0,2847.1199999999999,2676.0300000000002,617.89099999999996,2360.8499999999999,-901.16800000000001,-684.72799999999995,-438.41800000000001
167513.0,2896.6999999999998,2666.6199999999999,649.346,2498.5300000000002,-928.202,-706.39200000000005,-428.423
167514.0,2950.8800000000001,2627.3800000000001,649.06100000000004,2611.2399999999998,-955.73699999999997,-719.43799999999999,-421.32299999999998
167515.0,3009.5100000000002,2619.6500000000001,679.95500000000004,2762.04,-986.15700000000004,-722.72799999999995,-413.81299999999999
167516.0,3072.0300000000002,2582.2600000000002,678.11099999999999,2883.4099999999999,-1017.62,-716.33900000000006,-408.81900000000002
167517.0,3138.77,2585.0599999999999,713.25400000000002,3045.9499999999998,-1052.01,-699.11699999999996,-402.74400000000003
167518.0,3206.5300000000002,2547.52,705.35000000000002,3162.6700000000001,-1087.1700000000001,-671.92499999999995,-398.48200000000003
167519.0,3273.4299999999998,2561.8099999999999,746.26199999999994,3327.1500000000001,-1122.3299999999999,-634.46699999999998,-390.47800000000001
167520.0,3321.0700000000002,2519.0500000000002,738.49300000000005,3422.8499999999999,-1148.47,-588.99800000000005,-380.94299999999998
167521.0,3346.1100000000001,2484.1999999999998,751.71600000000001,3525.5700000000002,-1161.79,-537.48599999999999,-360.74000000000001
167522.0,2913.8499999999999,2952.4499999999998,646.83199999999999,2328.4699999999998,-898.32899999999995,-543.5,-552.80799999999999
167523.0,2945.4200000000001,2911.8899999999999,644.58100000000002,2389.4899999999998,-923.59100000000001,-584.22699999999998,-536.43600000000004
167524.0,2988.8299999999999,2906.1100000000001,673.90099999999995,2500.4299999999998,-952.88199999999995,-618.79100000000005,-522.39400000000001
167525.0,3039.8400000000001,2873.4400000000001,674.11300000000006,2594.23,-983.23599999999999,-646.30799999999999,-511.96600000000001
167526.0,3097.1100000000001,2871.8699999999999,704.96900000000005,2729.29,-1016.67,-665.78899999999999,-501.50900000000001
167527.0,3159.5,2838.6700000000001,702.42700000000002,2837.73,-1050.9000000000001,-677.35299999999995,-493.71499999999997
167528.0,3226.79,2846.1599999999999,738.56299999999999,2992.4299999999998,-1087.8599999999999,-679.45100000000002,-484.85500000000002
167529.0,3298.0999999999999,2821.27,739.39700000000005,3115.0900000000001,-1125.8399999999999,-672.54399999999998,-478.096
167530.0,3373.8800000000001,2835.1999999999998,775.28899999999999,3277.02,-1166.7,-655.45000000000005,-469.78800000000001
167531.0,3450.3800000000001,2826.6399999999999,784.80399999999997,3410.71,-1207.5699999999999,-628.72000000000003,-462.52600000000001
167532.0,3525.3800000000001,2837.9899999999998,813.74400000000003,3561.02,-1248.74,-593.11800000000005,-451.27800000000002
167533.0,3580.6300000000001,2817.4499999999998,819.36099999999999,3668.1300000000001,-1280.71,-550.26700000000005,-438.20100000000002
167534.0,3611.4499999999998,2793.6500000000001,837.05499999999995,3772.7800000000002,-1299.8,-502.47699999999998,-413.91800000000001
167535.0,3102.3299999999999,3117.25,687.28200000000004,2561.5799999999999,-964.49199999999996,-511.01799999999997,-629.03399999999999
167536.0,3138.3499999999999,3091.8699999999999,694.45600000000002,2628.5100000000002,-995.29600000000005,-548.05999999999995,-612.33600000000001
167537.0,3187.8099999999999,3087.0599999999999,717.64499999999998,2730.21,-1030.4100000000001,-579.29300000000001,-598.39599999999996
167538.0,3246.1199999999999,3069.8499999999999,725.24900000000002,2829.3600000000001,-1067.1300000000001,-603.88699999999994,-587.601
167539.0,3311.3499999999999,3075.4699999999998,754.23599999999999,2960.3699999999999,-1107.01,-620.88699999999994,-576.74400000000003
167540.0,3382.5100000000002,3066.1300000000001,765.12800000000004,3081.0799999999999,-1147.8699999999999,-630.34900000000005,-567.83299999999997
167541.0,3458.6100000000001,3077.48,795.20600000000002,3227.3200000000002,-1191.5999999999999,-631.29100000000005,-557.80200000000002
167542.0,3539.2199999999998,3071.2800000000002,804.06299999999999,3356.29,-1236.3900000000001,-623.798,-549.26499999999999
167543.0,3624.1900000000001,3094.98,838.88300000000004,3515.0599999999999,-1283.8900000000001,-606.84699999999998,-538.721
167544.0,3710.0300000000002,3089.8499999999999,842.33100000000002,3639.9299999999998,-1331.76,-581.31600000000003,-529.01800000000003
167545.0,3793.8499999999999,3121.8099999999999,880.55799999999999,3797.98,-1379.05,-547.24900000000002,-514.34100000000001
167546.0,3856.7800000000002,3110.4000000000001,884.24400000000003,3901.7600000000002,-1416.4100000000001,-506.85199999999998,-497.23700000000002
167547.0,3893.6100000000001,3090.4200000000001,894.99400000000003,3998.3099999999999,-1440.2,-462.67200000000003,-468.36399999999998
167548.0,3302.54,3292.3099999999999,734.85699999999997,2810.1199999999999,-1031.5699999999999,-474.96800000000002,-706.57299999999998
167549.0,3343.2399999999998,3274.48,743.46299999999997,2874.5,-1068.02,-508.03300000000002,-689.76400000000001
167550.0,3399.1199999999999,3281.4899999999998,770.65899999999999,2977.1900000000001,-1109.0799999999999,-535.59799999999996,-675.88
167551.0,3465.04,3276.5900000000001,781.81600000000003,3077.46,-1152.29,-556.92100000000005,-664.82899999999995
167552.0,3538.7199999999998,3293.5100000000002,812.26099999999997,3207.5500000000002,-1198.8299999999999,-571.16999999999996,-653.58000000000004
167553.0,3618.6900000000001,3292.9499999999998,822.05999999999995,3324.6199999999999,-1246.6300000000001,-578.64599999999996,-643.851
167554.0,3704.1900000000001,3319.8299999999999,856.36199999999997,3472.96,-1297.25,-578.08399999999995,-632.58699999999999
167555.0,3794.27,3329.5,869.572,3604.1999999999998,-1348.9000000000001,-569.82299999999998,-622.18100000000004
167556.0,3888.5500000000002,3363.54,903.274,3759.25,-1403.1300000000001,-553.029,-609.36199999999997
167557.0,3983.6500000000001,3388.0999999999999,922.91600000000005,3899.2199999999998,-1456.8900000000001,-527.97500000000002,-596.43899999999996
167558.0,4076.1300000000001,3421.9400000000001,951.96299999999997,4045.1100000000001,-1510.53,-495.92200000000003,-578.39999999999998
167559.0,4147.0799999999999,3429.54,964.73500000000001,4154.8800000000001,-1554.0799999999999,-458.60899999999998,-557.55100000000004
167560.0,4190.2600000000002,3424.3099999999999,982.10199999999998,4254.4700000000003,-1583.8800000000001,-418.80399999999997,-524.44899999999996
167561.0,3513.75,3463.96,776.78499999999997,3060.3000000000002,-1099.45,-435.476,-785.70600000000002
167562.0,3559.1700000000001,3464.1900000000001,796.90499999999997,3132.0500000000002,-1141.6900000000001,-464.12099999999998,-768.61199999999997
167563.0,3621.8800000000001,3472.4200000000001,816.85599999999999,3224.1500000000001,-1188.78,-487.81299999999999,-755.01999999999998
167564.0,3695.4400000000001,3486.7800000000002,838.10199999999998,3331.9000000000001,-1238.5899999999999,-505.44099999999997,-743.47799999999995
167565.0,3777.96,3509.8699999999999,864.24800000000005,3454.9499999999998,-1291.8399999999999,-516.82799999999997,-732.13499999999999
167566.0,3867.1599999999999,3533.77,887.10699999999997,3582.9200000000001,-1346.7,-521.65499999999997,-721.21699999999998
167567.0,3962.21,3567.6399999999999,916.70799999999997,3723.6300000000001,-1404.24,-519.68399999999997,-708.97799999999995
167568.0,4061.7399999999998,3595.3800000000001,936.12400000000002,3858.25,-1462.98,-510.495,-696.47199999999998
167569.0,4166.0299999999997,3643.7399999999998,971.27999999999997,4012.04,-1524.0599999999999,-493.82600000000002,-681.65899999999999
167570.0,4270.29,3672.9899999999998,985.21299999999997,4142.0799999999999,-1585.1099999999999,-470.02600000000001,-665.79999999999995
167571.0,4371.6700000000001,3727.1900000000001,1021.88,4292.8199999999997,-1644.79,-439.94200000000001,-644.447
167572.0,4450.7399999999998,3749.3099999999999,1036.22,4401.9799999999996,-1694.0,-405.33300000000003,-619.06500000000005
167573.0,4500.8699999999999,3748.96,1046.05,4491.8699999999999,-1728.9400000000001,-369.76799999999997,-581.46900000000005
167574.0,3734.8600000000001,3642.4899999999998,823.09199999999998,3322.5300000000002,-1167.6400000000001,-392.11900000000003,-865.73400000000004
167575.0,3785.1999999999998,3657.8000000000002,851.61400000000003,3398.0799999999999,-1215.96,-416.11500000000001,-848.38999999999999
167576.0,3854.8699999999999,3670.73,867.14800000000002,3482.1399999999999,-1268.9400000000001,-435.60300000000001,-835.30999999999995
167577.0,3936.5500000000002,3706.6399999999999,900.51199999999994,3598.9000000000001,-1325.8099999999999,-449.31400000000002,-823.36699999999996
167578.0,4028.02,3733.0999999999999,918.49800000000005,3710.8400000000001,-1385.5799999999999,-457.43400000000003,-811.96799999999996
167579.0,4126.46,3780.8299999999999,954.07799999999997,3848.4299999999998,-1447.8,-459.642,-799.85500000000002
167580.0,4231.3699999999999,3816.2399999999998,972.322,3974.6399999999999,-1512.22,-455.92200000000003,-786.77300000000002
167581.0,4340.6099999999997,3878.8000000000002,1013.76,4128.25,-1578.1800000000001,-445.62900000000002,-771.96100000000001
167582.0,4454.1599999999999,3919.6999999999998,1028.54,4257.8400000000001,-1645.79,-429.17399999999998,-755.053
167583.0,4568.1599999999999,3999.27,1077.4200000000001,4420.9200000000001,-1713.0899999999999,-405.72300000000001,-735.572
167584.0,4678.46,4038.0700000000002,1086.29,4539.54,-1779.27,-378.072,-711.11400000000003
167585.0,4765.4700000000003,4099.2600000000002,1128.4300000000001,4672.1999999999998,-1834.8199999999999,-346.863,-681.39599999999996
167586.0,4822.3500000000004,4092.3600000000001,1121.9400000000001,4741.1899999999996,-1875.72,-316.40800000000002,-639.80600000000004
167587.0,3964.8000000000002,3821.3400000000001,868.79600000000005,3590.48,-1236.1800000000001,-345.096,-946.69200000000001
167588.0,4020.46,3853.0500000000002,905.976,3670.0700000000002,-1290.53,-364.05200000000002,-929.27499999999998
167589.0,4097.1899999999996,3871.27,917.44000000000005,3746.2399999999998,-1349.6199999999999,-378.94999999999999,-916.58000000000004
167590.0,4187.0200000000004,3926.0799999999999,959.01800000000003,3868.0900000000001,-1413.22,-388.33600000000001,-904.12800000000004
167591.0,4287.5699999999997,3961.8899999999999,975.08100000000002,3974.4499999999998,-1479.8599999999999,-393.02499999999998,-892.79600000000005
167592.0,4395.6800000000003,4030.4299999999998,1018.75,4116.9700000000003,-1549.3299999999999,-392.21800000000002,-879.56200000000001
167593.0,4510.0600000000004,4080.2199999999998,1038.54,4240.79,-1620.6600000000001,-386.63099999999997,-865.37199999999996
167594.0,4629.25,4155.5500000000002,1079.0799999999999,4389.8199999999997,-1693.8499999999999,-375.19400000000002,-848.52300000000002
167595.0,4752.8400000000001,4219.9399999999996,1103.51,4524.8800000000001,-1768.5699999999999,-358.76299999999998,-829.53099999999995
167596.0,4875.5600000000004,4298.0799999999999,1139.1800000000001,4669.25,-1842.8800000000001,-336.75,-806.91899999999998
167597.0,4994.5299999999997,4366.3400000000001,1163.24,4798.9700000000003,-1915.02,-311.25599999999997,-778.89800000000002
167598.0,5089.7799999999997,4436.21,1199.5899999999999,4922.4799999999996,-1976.24,-283.18099999999998,-744.476
167599.0,5154.2399999999998,4447.3100000000004,1197.29,4992.2200000000003,-2022.5799999999999,-257.74400000000003,-698.55399999999997
167600.0,4202.7200000000003,4008.9499999999998,921.91800000000001,3872.6300000000001,-1304.6300000000001,-294.01299999999998,-1027.9100000000001
167601.0,4263.6300000000001,4046.5,956.97799999999995,3944.8000000000002,-1364.9100000000001,-307.685,-1010.67
167602.0,4347.5200000000004,4081.6999999999998,975.58000000000004,4023.9699999999998,-1430.21,-317.69900000000001,-998.26800000000003
167603.0,4445.7299999999996,4145.4899999999998,1015.6900000000001,4140.1400000000003,-1500.78,-322.67500000000001,-985.92600000000004
167604.0,4555.4099999999999,4200.1899999999996,1037.95,4249.3199999999997,-1574.1199999999999,-323.39299999999997,-974.14800000000002
167605.0,4672.8699999999999,4281.4099999999999,1081.6500000000001,4387.7200000000003,-1650.74,-319.488,-959.98800000000006
167606.0,4797.3800000000001,4346.46,1102.76,4508.8000000000002,-1729.28,-311.71499999999997,-944.74099999999999
167607.0,4925.9300000000003,4445.1700000000001,1152.6300000000001,4662.6000000000004,-1809.4000000000001,-299.06400000000002,-925.68200000000002
167608.0,5058.6800000000003,4517.1599999999999,1169.9400000000001,4785.9399999999996,-1890.52,-282.52199999999999,-904.202
167609.0,5191.3100000000004,4632.3800000000001,1226.3699999999999,4947.3199999999997,-1971.3199999999999,-261.17399999999998,-878.25800000000004
167610.0,5318.8400000000001,4701.1499999999996,1237.26,5058.1700000000001,-2049.8800000000001,-238.23400000000001,-846.779
167611.0,5421.8599999999997,4795.8299999999999,1286.03,5188.2299999999996,-2117.4000000000001,-214.19300000000001,-808.03999999999996
167612.0,5493.0200000000004,4814.6599999999999,1279.8800000000001,5248.5900000000001,-2169.5300000000002,-194.274,-757.77999999999997
167613.0,4447.1599999999999,4190.6199999999999,969.25099999999998,4153.9499999999998,-1372.6400000000001,-239.07599999999999,-1109.48
167614.0,4513.6300000000001,4246.3299999999999,1013.85,4230.4200000000001,-1438.9400000000001,-247.113,-1092.45
167615.0,4604.7299999999996,4286.3000000000002,1026.9400000000001,4299.6199999999999,-1510.45,-251.86600000000001,-1080.4100000000001
167616.0,4711.2700000000004,4373.6899999999996,1078.6600000000001,4423.7200000000003,-1587.6199999999999,-251.815,-1067.6500000000001
167617.0,4830.0500000000002,4434.9899999999998,1095.3800000000001,4522.6499999999996,-1667.9100000000001,-248.541,-1055.9200000000001
167618.0,4957.1400000000003,4539.9799999999996,1149.21,4666.7700000000004,-1751.71,-241.24199999999999,-1040.8099999999999
167619.0,5090.8400000000001,4619.2200000000003,1170.2,4782.8900000000003,-1836.9200000000001,-231.053,-1024.1400000000001
167620.0,5229.5,4733.8900000000003,1221.3099999999999,4932.7299999999996,-1924.4000000000001,-217.14500000000001,-1003.33
167621.0,5371.6599999999999,4826.7799999999997,1245.1099999999999,5056.6000000000004,-2012.5599999999999,-200.59,-979.54100000000005
167622.0,5512.3299999999999,4946.46,1292.3699999999999,5202.1000000000004,-2099.7600000000002,-180.71899999999999,-950.26999999999998
167623.0,5647.9899999999998,5041.9700000000003,1314.5699999999999,5318.6400000000003,-2184.0500000000002,-160.08699999999999,-914.94200000000001
167624.0,5759.2299999999996,5151.3900000000003,1362.1800000000001,5442.71,-2257.1599999999999,-139.744,-871.59000000000003
167625.0,5838.0600000000004,5187.5900000000001,1358.53,5500.5699999999997,-2314.8699999999999,-125.41,-816.85299999999995
167626.0,4697.1700000000001,4379.1099999999997,1023.5700000000001,4447.5600000000004,-1439.8199999999999,-179.94999999999999,-1190.6500000000001
167627.0,4769.1499999999996,4442.4899999999998,1066.71,4516.8299999999999,-1511.99,-182.05099999999999,-1173.98
167628.0,4867.3299999999999,4499.9200000000001,1086.77,4588.0,-1589.73,-181.27099999999999,-1162.26
167629.0,4982.25,4595.6899999999996,1135.6099999999999,4703.9899999999998,-1673.76,-176.298,-1149.8599999999999
167630.0,5109.9700000000003,4678.4099999999999,1160.0899999999999,4806.3999999999996,-1760.6600000000001,-168.376,-1137.5
167631.0,5246.3500000000004,4797.75,1214.1900000000001,4945.75,-1851.3099999999999,-157.43899999999999,-1121.54
167632.0,5389.8299999999999,4892.0600000000004,1235.9400000000001,5056.7700000000004,-1943.8599999999999,-144.79900000000001,-1103.8
167633.0,5537.1700000000001,5031.6000000000004,1296.27,5210.1899999999996,-2037.5799999999999,-129.33600000000001,-1080.6199999999999
167634.0,5688.1499999999996,5135.6599999999999,1315.0699999999999,5323.0900000000001,-2131.9400000000001,-112.48999999999999,-1054.0999999999999
167635.0,5838.1000000000004,5289.1700000000001,1379.6400000000001,5479.9099999999999,-2225.5300000000002,-93.569699999999997,-1021.71
167636.0,5981.4799999999996,5388.9700000000003,1391.72,5578.6800000000003,-2316.0100000000002,-75.813599999999994,-982.66999999999996
167637.0,6099.8100000000004,5520.3400000000001,1447.74,5703.71,-2395.0,-59.937600000000003,-934.94000000000005
167638.0,6185.1000000000004,5568.2600000000002,1442.3599999999999,5753.1499999999996,-2458.0999999999999,-51.654800000000002,-875.72500000000002
167639.0,4951.1599999999999,4562.3599999999997,1074.4200000000001,4741.0299999999997,-1505.8399999999999,-116.872,-1271.4100000000001
167640.0,5028.79,4640.96,1123.1199999999999,4809.9399999999996,-1583.8299999999999,-112.727,-1255.24
167641.0,5134.1499999999996,4708.0200000000004,1141.8099999999999,4874.6000000000004,-1667.8,-106.015,-1243.8399999999999
167642.0,5257.1300000000001,4825.1000000000004,1198.8,4994.29,-1757.99,-95.320800000000006,-1231.04
167643.0,5393.6899999999996,4919.21,1222.02,5089.4200000000001,-1851.8299999999999,-82.908100000000005,-1218.72
167644.0,5539.0699999999997,5056.1300000000001,1279.4300000000001,5226.1400000000003,-1949.29,-68.159800000000004,-1201.9100000000001
167645.0,5691.29,5174.2200000000003,1309.1900000000001,5339.3699999999999,-2048.0799999999999,-52.574399999999997,-1182.46
167646.0,5848.1099999999997,5321.8800000000001,1362.75,5478.6199999999999,-2149.0799999999999,-35.7911,-1157.74
167647.0,6007.5500000000002,5453.0799999999999,1393.6199999999999,5595.7799999999997,-2250.0799999999999,-18.891500000000001,-1128.74
167648.0,6164.75,5608.5200000000004,1444.71,5731.1400000000003,-2349.3699999999999,-1.3570800000000001,-1092.79
167649.0,6315.2799999999997,5741.5,1473.51,5839.21,-2444.9899999999998,13.875299999999999,-1049.76
167650.0,6440.9899999999998,5882.9300000000003,1523.2,5951.0,-2529.25,25.468499999999999,-997.39700000000005
167651.0,6533.5600000000004,5955.8100000000004,1527.3699999999999,6003.0,-2597.9000000000001,27.484300000000001,-933.74099999999999
167652.0,5207.9899999999998,4746.5600000000004,1128.1700000000001,5040.71,-1570.1700000000001,-49.574199999999998,-1351.02
167653.0,5291.0699999999997,4837.7200000000003,1179.27,5105.6899999999996,-1653.76,-38.813800000000001,-1335.3900000000001
167654.0,5403.3199999999997,4919.0299999999997,1201.0899999999999,5167.6899999999996,-1743.8499999999999,-25.976500000000001,-1324.3099999999999
167655.0,5534.2299999999996,5048.1199999999999,1258.4300000000001,5281.0900000000001,-1840.6500000000001,-9.8189299999999999,-1312.0599999999999
167656.0,5679.2799999999997,5160.2399999999998,1285.05,5374.46,-1940.7,7.8546199999999997,-1298.96
167657.0,5833.3500000000004,5319.5,1349.8800000000001,5512.1400000000003,-2044.5999999999999,26.809000000000001,-1281.26
167658.0,5994.46,5443.54,1371.1099999999999,5609.0500000000002,-2150.4099999999999,45.025700000000001,-1260.78
167659.0,6158.9499999999998,5626.8000000000002,1443.1800000000001,5759.8900000000003,-2256.8299999999999,63.835900000000002,-1233.3399999999999
167660.0,6326.3000000000002,5763.75,1462.79,5858.0299999999997,-2363.48,81.080299999999994,-1201.5899999999999
167661.0,6491.25,5957.0500000000002,1535.6600000000001,6006.4300000000003,-2468.7800000000002,97.372100000000003,-1162.4400000000001
167662.0,6648.2799999999997,6088.4899999999998,1547.99,6088.2200000000003,-2569.98,109.357,-1115.72
167663.0,6780.0200000000004,6259.04,1612.1400000000001,6205.3400000000001,-2659.48,116.18000000000001,-1058.73
167664.0,6878.46,6337.46,1606.9100000000001,6239.79,-2732.8499999999999,111.611,-990.74099999999999
167665.0,5465.6899999999996,4928.6099999999997,1183.4300000000001,5343.1000000000004,-1632.3699999999999,21.739100000000001,-1429.21
167666.0,5554.2799999999997,5029.1599999999999,1233.54,5400.3100000000004,-1721.45,39.286700000000003,-1414.46
167667.0,5673.5299999999997,5127.29,1260.6300000000001,5461.6599999999999,-1817.6800000000001,58.684699999999999,-1403.6900000000001
167668.0,5811.8999999999996,5272.1700000000001,1319.6900000000001,5571.3900000000003,-1920.01,81.261200000000002,-1391.02
167669.0,5965.0,5403.6400000000003,1352.71,5663.6599999999999,-2026.6800000000001,103.898,-1377.8699999999999
167670.0,6126.96,5569.8299999999999,1409.9400000000001,5785.9799999999996,-2136.7800000000002,127.06999999999999,-1359.3099999999999
167671.0,6295.9799999999996,5732.3100000000004,1452.5999999999999,5897.3500000000004,-2248.1100000000001,148.77600000000001,-1336.8699999999999
167672.0,6468.5900000000001,5909.2799999999997,1504.1099999999999,6017.5200000000004,-2361.4899999999998,168.87200000000001,-1308.0699999999999
167673.0,6642.9499999999998,6083.2700000000004,1545.3299999999999,6127.3100000000004,-2474.0700000000002,186.19800000000001,-1273.71
167674.0,6813.8299999999999,6272.3800000000001,1597.47,6245.29,-2584.1599999999999,201.17699999999999,-1230.78
167675.0,6976.5,6446.2399999999998,1635.21,6342.9300000000003,-2689.6199999999999,210.39400000000001,-1179.97
167676.0,7114.0699999999997,6618.5600000000004,1684.8199999999999,6436.0799999999999,-2783.77,212.34899999999999,-1118.29
167677.0,7218.5900000000001,6730.6999999999998,1697.8199999999999,6479.5100000000002,-2862.1399999999999,200.797,-1046.05
167678.0,5723.1300000000001,5107.8199999999997,1239.98,5647.5699999999997,-1691.9000000000001,97.268600000000006,-1505.46
167679.0,5817.0699999999997,5218.1800000000003,1288.9400000000001,5696.7299999999996,-1786.2,121.953,-1491.52
167680.0,5942.4499999999998,5334.5500000000002,1322.6199999999999,5757.9499999999998,-1888.1300000000001,148.185,-1480.79
167681.0,6087.8900000000003,5487.4700000000003,1378.0899999999999,5855.71,-1996.5999999999999,176.54400000000001,-1468.99
167682.0,6248.5299999999997,5639.79,1416.8299999999999,5947.3999999999996,-2108.8699999999999,205.161,-1454.73
167683.0,6418.25,5829.5600000000004,1482.3,6069.7700000000004,-2224.79,232.89500000000001,-1435.46
167684.0,6594.4700000000003,5993.3500000000004,1512.28,6158.3000000000002,-2342.5500000000002,257.50700000000001,-1411.75
167685.0,6773.3800000000001,6211.7299999999996,1586.8800000000001,6293.1099999999997,-2460.1599999999999,279.95800000000003,-1380.1199999999999
167686.0,6953.8100000000004,6391.4399999999996,1616.5799999999999,6381.5,-2577.4400000000001,297.815,-1342.6199999999999
167687.0,7130.4799999999996,6614.7399999999998,1687.53,6506.5,-2692.77,311.12400000000002,-1296.73
167688.0,7297.6599999999999,6787.8199999999997,1709.75,6576.2799999999997,-2802.96,316.86500000000001,-1241.97
167689.0,7439.71,6987.7299999999996,1771.9100000000001,6670.54,-2901.46,313.54000000000002,-1175.8699999999999
167690.0,7548.9099999999999,7108.2399999999998,1777.3199999999999,6696.6199999999999,-2983.6799999999998,294.99700000000001,-1099.1099999999999
167691.0,5977.8900000000003,5282.5900000000001,1298.0799999999999,5952.0699999999997,-1748.0999999999999,176.792,-1579.22
167692.0,6077.1499999999996,5399.1700000000001,1342.22,5988.9499999999998,-1847.5599999999999,208.667,-1566.45
167693.0,6208.5600000000004,5535.6599999999999,1384.5799999999999,6051.4799999999996,-1955.21,242.03800000000001,-1555.98
167694.0,6360.96,5701.7399999999998,1438.2,6141.3299999999999,-2068.4499999999998,277.41300000000001,-1543.8399999999999
167695.0,6527.9799999999996,5878.1700000000001,1488.5899999999999,6235.0299999999997,-2186.7600000000002,311.52100000000002,-1529.2
167696.0,6704.04,6065.8699999999999,1537.21,6331.0299999999997,-2307.77,343.72800000000001,-1509.1400000000001
167697.0,6886.5200000000004,6281.3999999999996,1601.6600000000001,6445.1999999999998,-2430.1500000000001,372.44,-1482.99
167698.0,7071.6400000000003,6477.6599999999999,1640.8499999999999,6531.4899999999998,-2554.0,395.92000000000002,-1450.4100000000001
167699.0,7256.8199999999997,6704.0,1702.3699999999999,6639.0100000000002,-2676.3400000000001,413.99200000000002,-1409.8800000000001
167700.0,7437.4899999999998,6915.8800000000001,1744.8099999999999,6723.71,-2795.0799999999999,425.85300000000001,-1360.3599999999999
167701.0,7607.79,7141.1700000000001,1802.52,6816.7399999999998,-2908.3099999999999,428.70100000000002,-1301.01
167702.0,7753.5299999999997,7331.8800000000001,1839.5699999999999,6873.79,-3010.3099999999999,419.82499999999999,-1230.6199999999999
167703.0,7866.9499999999998,7496.5200000000004,1873.8900000000001,6916.96,-3096.7399999999998,393.84500000000003,-1149.3599999999999
167704.0,6228.6000000000004,5447.9700000000003,1353.8199999999999,6251.6000000000004,-1800.5,260.23599999999999,-1650.1300000000001
167705.0,6332.9799999999996,5577.6499999999996,1399.3,6282.5200000000004,-1904.75,299.82299999999998,-1638.3
167706.0,6469.71,5730.7200000000003,1446.3499999999999,6342.0200000000004,-2017.55,340.60599999999999,-1627.79
167707.0,6627.4300000000003,5905.7399999999998,1497.6500000000001,6419.2600000000002,-2135.9899999999998,382.142,-1616.46
167708.0,6800.6400000000003,6100.0100000000002,1550.8399999999999,6507.8000000000002,-2259.1199999999999,422.702,-1600.5799999999999
167709.0,6982.7600000000002,6316.5799999999999,1613.26,6607.2700000000004,-2384.98,459.87400000000002,-1579.79
167710.0,7170.0900000000001,6522.7700000000004,1655.51,6686.2700000000004,-2512.9099999999999,491.53399999999999,-1552.24
167711.0,7359.3400000000001,6771.4799999999996,1728.1099999999999,6795.7799999999997,-2639.29,517.86300000000006,-1516.47
167712.0,7548.3199999999997,6997.9499999999998,1772.8599999999999,6874.1099999999997,-2765.1399999999999,536.47000000000003,-1472.6500000000001
167713.0,7731.8699999999999,7243.5100000000002,1835.03,6963.3000000000002,-2887.96,546.34500000000003,-1420.1800000000001
167714.0,7904.0900000000001,7464.0799999999999,1874.2,7022.4700000000003,-3004.77,545.37,-1356.8499999999999
167715.0,8051.8699999999999,7683.5200000000004,1925.3599999999999,7079.5299999999997,-3109.8099999999999,530.77499999999998,-1282.1099999999999
167716.0,8167.9899999999998,7855.9200000000001,1951.6199999999999,7102.3400000000001,-3199.0,497.34800000000001,-1196.3699999999999
167717.0,6472.96,5604.1499999999996,1408.74,6545.7700000000004,-1848.3099999999999,347.51900000000001,-1717.51
167718.0,6581.6700000000001,5747.6199999999999,1456.99,6571.1099999999997,-1957.21,394.82600000000002,-1706.6300000000001
167719.0,6723.3400000000001,5912.2799999999997,1504.1900000000001,6621.8299999999999,-2074.8899999999999,442.976,-1696.73
167720.0,6886.6899999999996,6108.3299999999999,1562.0,6698.1099999999997,-2197.4299999999998,492.21100000000001,-1684.77
167721.0,7064.3900000000003,6319.1800000000003,1619.45,6779.2200000000003,-2325.3899999999999,538.471,-1668.5699999999999
167722.0,7250.1700000000001,6537.21,1669.54,6854.5699999999997,-2455.0700000000002,580.64700000000005,-1646.3800000000001
167723.0,7441.9499999999998,6794.1800000000003,1745.02,6955.9200000000001,-2586.23,616.61900000000003,-1616.53
167724.0,7634.0299999999997,7017.6800000000003,1781.6400000000001,7012.5699999999997,-2717.9200000000001,643.92700000000002,-1579.45
167725.0,7824.7299999999996,7283.8500000000004,1852.3199999999999,7101.0699999999997,-2847.1700000000001,662.50400000000002,-1532.79
167726.0,8009.3100000000004,7527.4499999999998,1896.0,7157.3800000000001,-2971.79,671.11699999999996,-1476.1500000000001
167727.0,8181.6899999999996,7790.1700000000001,1961.45,7227.5500000000002,-3089.9499999999998,666.77800000000002,-1408.52
167728.0,8330.0699999999997,8010.1000000000004,1998.3199999999999,7255.1800000000003,-3197.0599999999999,646.32299999999998,-1329.21
167729.0,8447.8600000000006,8211.6700000000001,2039.6600000000001,7278.2799999999997,-3289.1599999999999,604.80999999999995,-1239.51
167730.0,6708.6700000000001,5752.1199999999999,1465.6500000000001,6835.3100000000004,-1890.76,438.42200000000003,-1780.8800000000001
167731.0,6821.8999999999996,5906.8800000000001,1513.76,6852.3599999999997,-2004.3499999999999,493.79000000000002,-1770.8199999999999
167732.0,6967.6700000000001,6088.75,1565.79,6899.1700000000001,-2125.79,549.928,-1761.1300000000001
167733.0,7134.1300000000001,6293.5299999999997,1622.1900000000001,6961.8999999999996,-2252.8200000000002,605.62300000000005,-1749.24
167734.0,7315.7200000000003,6517.9399999999996,1678.74,7031.7200000000003,-2383.9099999999999,658.71500000000003,-1732.1400000000001
167735.0,7505.29,6769.9099999999999,1749.1900000000001,7114.5799999999999,-2517.77,705.97900000000004,-1708.77
167736.0,7698.0600000000004,7003.5500000000002,1790.1900000000001,7165.0500000000002,-2652.4200000000001,745.00999999999999,-1677.49
167737.0,7892.3400000000001,7294.6499999999996,1875.0999999999999,7258.1599999999999,-2785.21,775.56600000000003,-1636.79
167738.0,8083.6099999999997,7548.9099999999999,1918.4200000000001,7303.4300000000003,-2916.3200000000002,794.64800000000002,-1586.95
167739.0,8267.25,7830.6199999999999,1988.4200000000001,7367.21,-3043.4699999999998,800.88300000000004,-1527.1300000000001
167740.0,8437.7399999999998,8076.6899999999996,2025.75,7390.1199999999999,-3163.5700000000002,792.28099999999995,-1455.6700000000001
167741.0,8584.5799999999999,8332.1599999999999,2084.9200000000001,7422.6999999999998,-3271.8899999999999,765.72900000000004,-1371.9400000000001
167742.0,8702.1299999999992,8533.3600000000006,2111.21,7415.6700000000001,-3365.1700000000001,716.20899999999995,-1278.0
167743.0,6933.4200000000001,5885.5,1520.1700000000001,7113.7200000000003,-1927.4100000000001,532.79100000000005,-1839.3599999999999
167744.0,7050.3999999999996,6055.9799999999996,1572.3499999999999,7126.0900000000001,-2044.98,596.279,-1830.26
167745.0,7199.0200000000004,6246.2799999999997,1622.51,7160.25,-2170.1900000000001,660.10000000000002,-1821.0799999999999
167746.0,7369.3699999999999,6472.5299999999997,1686.47,7221.0799999999999,-2300.27,723.73299999999995,-1808.6099999999999
167747.0,7552.3800000000001,6711.1499999999996,1746.6700000000001,7280.29,-2434.73,782.79100000000005,-1790.8
167748.0,7742.8299999999999,6962.6199999999999,1803.1900000000001,7335.3900000000003,-2570.52,835.48099999999999,-1765.6600000000001
167749.0,7937.29,7251.0,1883.1900000000001,7410.8100000000004,-2707.1799999999998,878.90700000000004,-1732.04
167750.0,8129.5,7504.2200000000003,1922.4400000000001,7437.3400000000001,-2843.1799999999998,910.20899999999995,-1689.6700000000001
167751.0,8318.3700000000008,7801.1000000000004,1996.6700000000001,7494.2200000000003,-2975.71,929.09500000000003,-1636.75
167752.0,8499.3799999999992,8076.8100000000004,2045.6900000000001,7519.5,-3102.5700000000002,934.06799999999998,-1572.74
167753.0,8666.1599999999999,8368.0200000000004,2113.9499999999998,7554.6099999999997,-3221.9899999999998,921.72500000000002,-1496.8900000000001
167754.0,8809.6100000000006,8616.6000000000004,2153.9200000000001,7549.2200000000003,-3330.52,888.95299999999997,-1408.78
167755.0,8925.3400000000001,8848.1900000000005,2198.3600000000001,7542.2700000000004,-3425.04,830.74300000000005,-1311.0999999999999
167756.0,7144.6899999999996,6010.6099999999997,1580.3299999999999,7386.7200000000003,-1957.4300000000001,630.31399999999996,-1892.3199999999999
167757.0,7265.0600000000004,6184.4399999999996,1624.4200000000001,7381.7700000000004,-2078.52,702.06100000000004,-1884.54
167758.0,7416.3500000000004,6400.3100000000004,1688.55,7419.9200000000001,-2206.79,774.21699999999998,-1875.25
167759.0,7586.7200000000003,6623.9499999999998,1740.76,7454.7200000000003,-2339.3699999999999,844.65200000000004,-1862.5799999999999
167760.0,7771.0600000000004,6885.3599999999997,1810.76,7510.9700000000003,-2475.7199999999998,910.70699999999999,-1843.53
167761.0,7961.1000000000004,7155.6199999999999,1875.6600000000001,7557.5,-2613.96,968.35000000000002,-1817.1500000000001
167762.0,8152.7299999999996,7427.6400000000003,1929.46,7587.8900000000003,-2751.8299999999999,1015.09,-1781.51
167763.0,8344.0900000000001,7740.3999999999996,2011.02,7641.3199999999997,-2887.4699999999998,1049.6400000000001,-1735.73
167764.0,8529.3299999999999,8031.6999999999998,2066.8600000000001,7660.3000000000002,-3019.8400000000001,1068.8800000000001,-1679.46
167765.0,8704.1700000000001,8329.3500000000004,2129.5599999999999,7675.8699999999999,-3147.0900000000001,1070.99,-1612.04
167766.0,8864.1200000000008,8610.1499999999996,2178.9099999999999,7669.0799999999999,-3266.0100000000002,1054.1199999999999,-1532.3499999999999
167767.0,9001.4400000000005,8881.5300000000007,2231.1799999999998,7654.79,-3373.5999999999999,1014.72,-1439.8599999999999
167768.0,9112.8600000000006,9121.3899999999994,2271.3600000000001,7625.1599999999999,-3467.0999999999999,948.20100000000002,-1338.1900000000001
167769.0,7339.8900000000003,6115.0200000000004,1635.5799999999999,7641.1800000000003,-1979.9100000000001,730.76599999999996,-1939.1400000000001
167770.0,7462.79,6302.8800000000001,1682.51,7629.5699999999997,-2103.9400000000001,810.85699999999997,-1932.47
167771.0,7614.5500000000002,6525.4899999999998,1744.0799999999999,7652.6400000000003,-2234.6500000000001,890.86300000000006,-1923.3399999999999
167772.0,7786.0299999999997,6769.2799999999997,1804.8299999999999,7683.5500000000002,-2368.9899999999998,969.18899999999996,-1910.27
167773.0,7967.9499999999998,7039.1999999999998,1874.6500000000001,7722.8900000000003,-2506.6100000000001,1041.45,-1889.8199999999999
167774.0,8155.5799999999999,7313.1599999999999,1931.3699999999999,7744.6499999999996,-2644.8200000000002,1104.7,-1861.48
167775.0,8344.1000000000004,7631.0200000000004,2019.3099999999999,7790.7299999999996,-2782.8299999999999,1155.54,-1823.25
167776.0,8527.7099999999991,7905.21,2057.2399999999998,7775.9399999999996,-2918.6399999999999,1190.77,-1775.1199999999999
167777.0,8705.5100000000002,8230.4200000000001,2138.0999999999999,7796.8699999999999,-3049.8099999999999,1209.73,-1715.46
167778.0,8873.2199999999993,8527.0599999999995,2187.8400000000001,7778.0600000000004,-3174.5100000000002,1210.3499999999999,-1643.99
167779.0,9024.5499999999993,8843.1299999999992,2261.77,7772.8800000000001,-3290.5100000000002,1189.3299999999999,-1559.99
167780.0,9153.5599999999995,9110.0499999999993,2300.8899999999999,7722.4799999999996,-3396.0700000000002,1143.27,-1463.4300000000001
167781.0,9258.4200000000001,9368.5200000000004,2350.6900000000001,7680.54,-3488.6199999999999,1067.6600000000001,-1358.1800000000001
167782.0,7515.9799999999996,6203.5299999999997,1693.4300000000001,7881.6899999999996,-1994.0899999999999,833.63300000000004,-1979.0699999999999
167783.0,7640.9399999999996,6396.8400000000001,1734.78,7854.3800000000001,-2120.52,922.08199999999999,-1973.9200000000001
167784.0,7792.75,6641.1199999999999,1808.3499999999999,7877.3800000000001,-2253.0599999999999,1010.4400000000001,-1964.4000000000001
167785.0,7961.0600000000004,6881.5900000000001,1857.6800000000001,7880.8299999999999,-2387.6100000000001,1095.8800000000001,-1950.6800000000001
167786.0,8140.46,7173.4200000000001,1939.78,7916.04,-2525.6599999999999,1174.95,-1928.6900000000001
167787.0,8322.5,7455.0799999999999,1997.21,7917.7299999999996,-2663.6700000000001,1243.0,-1898.77
167788.0,8504.0200000000004,7761.2600000000002,2065.8000000000002,7922.5500000000002,-2800.5999999999999,1297.28,-1858.0
167789.0,8681.7600000000002,8083.3100000000004,2139.2800000000002,7922.9200000000001,-2934.1599999999999,1335.3,-1806.6800000000001
167790.0,8850.3999999999996,8406.6299999999992,2209.8600000000001,7909.4200000000001,-3062.8099999999999,1354.21,-1743.5
167791.0,9005.6499999999996,8709.6800000000003,2261.9699999999998,7865.1599999999999,-3184.8800000000001,1351.6400000000001,-1668.29
167792.0,9144.0400000000009,9019.75,2325.5100000000002,7822.1599999999999,-3297.3499999999999,1325.8,-1580.3699999999999
167793.0,9261.0799999999999,9295.8799999999992,2367.3499999999999,7749.1800000000003,-3399.0799999999999,1272.6600000000001,-1479.52
167794.0,9356.2800000000007,9569.8299999999999,2423.96,7691.2700000000004,-3488.0,1188.51,-1370.5699999999999
167795.0,7670.3699999999999,6266.9200000000001,1746.4200000000001,8097.8999999999996,-1999.01,938.60900000000004,-2011.5599999999999
167796.0,7796.0900000000001,6476.8299999999999,1793.9100000000001,8066.5699999999997,-2127.0500000000002,1035.53,-2007.27
167797.0,7945.8299999999999,6722.8199999999997,1861.28,8069.0900000000001,-2260.4699999999998,1131.73,-1997.71
167798.0,8111.0100000000002,6982.1999999999998,1921.76,8067.5600000000004,-2394.9499999999998,1224.77,-1983.47
167799.0,8283.8600000000006,7273.6099999999997,1997.03,8076.4399999999996,-2531.9099999999999,1310.0,-1959.53
167800.0,8458.4699999999993,7566.1999999999998,2057.3600000000001,8060.4399999999996,-2667.5,1383.5699999999999,-1927.1800000000001
167801.0,8630.7000000000007,7900.3800000000001,2147.0799999999999,8063.3400000000001,-2801.7600000000002,1441.4200000000001,-1883.4200000000001
167802.0,8795.0699999999997,8193.3600000000006,2188.9499999999998,8004.2399999999998,-2932.0,1480.3900000000001,-1828.99
167803.0,8950.4400000000005,8532.7900000000009,2270.9899999999998,7974.9700000000003,-3056.52,1498.6900000000001,-1762.28
167804.0,9092.2999999999993,8843.9799999999996,2324.6999999999998,7905.4799999999996,-3173.3600000000001,1494.1700000000001,-1683.0699999999999
167805.0,9215.8999999999996,9169.6499999999996,2398.8699999999999,7845.2700000000004,-3280.3099999999999,1463.5799999999999,-1591.0999999999999
167806.0,9318.2399999999998,9449.2099999999991,2440.6700000000001,7744.1300000000001,-3377.1799999999998,1403.3699999999999,-1486.4200000000001
167807.0,9401.1700000000001,9720.3099999999995,2490.5100000000002,7653.3400000000001,-3462.6799999999998,1309.8,-1374.3099999999999
167808.0,7799.3599999999997,6305.7299999999996,1798.03,8289.8700000000008,-1993.47,1045.1199999999999,-2035.6300000000001
167809.0,7925.4099999999999,6530.0100000000002,1850.3800000000001,8252.4799999999996,-2123.0999999999999,1150.24,-2032.5699999999999
167810.0,8071.8400000000001,6782.96,1917.3900000000001,8239.9400000000005,-2256.25,1254.54,-2022.8199999999999
167811.0,8230.0599999999995,7049.6400000000003,1979.3699999999999,8221.9400000000005,-2388.8099999999999,1354.8199999999999,-2006.8499999999999
167812.0,8394.8899999999994,7347.5900000000001,2056.0900000000001,8211.3099999999995,-2523.5999999999999,1446.3499999999999,-1981.26
167813.0,8558.7000000000007,7648.0299999999997,2121.3099999999999,8175.7399999999998,-2656.4499999999998,1524.47,-1946.75
167814.0,8718.5499999999993,7962.9799999999996,2188.6300000000001,8129.9200000000001,-2787.0799999999999,1585.51,-1900.26
167815.0,8869.8799999999992,8298.0599999999995,2267.5100000000002,8081.3699999999999,-2912.4400000000001,1626.4200000000001,-1842.5
167816.0,9008.9200000000001,8625.9699999999993,2335.8200000000002,8008.79,-3031.3299999999999,1644.0899999999999,-1772.0
167817.0,9131.4300000000003,8940.0200000000004,2393.2600000000002,7910.79,-3141.8600000000001,1636.26,-1688.78
167818.0,9235.2600000000002,9251.0200000000004,2453.6799999999998,7804.8500000000004,-3241.9299999999998,1600.4400000000001,-1592.73
167819.0,9318.4500000000007,9537.7299999999996,2501.73,7679.6199999999999,-3331.27,1533.0,-1484.03
167820.0,9385.1900000000005,9816.2299999999996,2555.7199999999998,7566.0,-3410.0500000000002,1430.46,-1368.3399999999999
167821.0,7900.5299999999997,6317.2399999999998,1848.01,8454.0900000000001,-1976.8399999999999,1152.5599999999999,-2050.96
167822.0,8025.3999999999996,6561.0799999999999,1910.6600000000001,8416.4500000000007,-2107.0300000000002,1266.1099999999999,-2047.9400000000001
167823.0,8166.1999999999998,6809.1599999999999,1967.3099999999999,8376.8199999999997,-2238.5599999999999,1377.99,-2038.4100000000001
167824.0,8316.5799999999999,7091.8999999999996,2042.3599999999999,8352.0200000000004,-2369.4499999999998,1485.26,-2021.2
167825.0,8469.5300000000007,7379.6999999999998,2106.3699999999999,8305.2299999999996,-2500.04,1582.6800000000001,-1993.53
167826.0,8619.4599999999991,7696.9300000000003,2185.5799999999999,8258.9500000000007,-2627.4699999999998,1665.8299999999999,-1955.4200000000001
167827.0,8762.6399999999994,8019.25,2259.3699999999999,8191.0299999999997,-2751.77,1729.8900000000001,-1905.6400000000001
167828.0,8894.7999999999993,8336.8799999999992,2322.0599999999999,8095.1599999999999,-2870.3299999999999,1771.6600000000001,-1844.0999999999999
167829.0,9013.4300000000003,8660.6900000000005,2388.0599999999999,7987.5299999999997,-2981.7600000000002,1788.3599999999999,-1769.9300000000001
167830.0,9114.8099999999995,8988.4500000000007,2460.0599999999999,7871.6099999999997,-3083.6700000000001,1777.77,-1682.78
167831.0,9195.8899999999994,9293.6599999999999,2517.79,7728.8500000000004,-3175.0799999999999,1736.6300000000001,-1582.75
167832.0,9257.1200000000008,9587.3700000000008,2576.4200000000001,7580.8599999999997,-3256.23,1661.6700000000001,-1470.8
167833.0,9304.3400000000001,9842.5699999999997,2610.1300000000001,7415.4099999999999,-3328.6199999999999,1549.52,-1351.99
167834.0,7969.8900000000003,6300.4300000000003,1898.02,8588.7399999999998,-1947.6900000000001,1260.47,-2055.9299999999998
167835.0,8092.8100000000004,6557.4399999999996,1966.8099999999999,8544.9899999999998,-2078.5900000000001,1381.7,-2053.96
167836.0,8226.3600000000006,6804.54,2018.1500000000001,8482.7299999999996,-2207.1799999999998,1501.22,-2044.4000000000001
167837.0,8364.8799999999992,7098.1000000000004,2101.96,8446.0300000000007,-2333.77,1615.53,-2023.96
167838.0,8503.5100000000002,7380.75,2161.0999999999999,8368.5699999999997,-2458.77,1718.48,-1994.74
167839.0,8636.7000000000007,7699.5600000000004,2244.9499999999998,8297.9500000000007,-2581.1700000000001,1805.5999999999999,-1953.6199999999999
167840.0,8760.3799999999992,7997.1499999999996,2297.5500000000002,8176.9499999999998,-2698.3699999999999,1872.1700000000001,-1901.1500000000001
167841.0,8870.9400000000005,8343.3299999999999,2392.2199999999998,8080.4200000000001,-2808.71,1914.8800000000001,-1835.45
167842.0,8965.0900000000001,8648.2700000000004,2444.9499999999998,7923.79,-2910.6799999999998,1930.3,-1757.52
167843.0,9039.6700000000001,8971.1200000000008,2519.3899999999999,7773.4099999999999,-3002.4499999999998,1916.0699999999999,-1665.9000000000001
167844.0,9093.2700000000004,9255.2399999999998,2564.3899999999999,7580.4200000000001,-3083.0999999999999,1869.4300000000001,-1562.0599999999999
167845.0,9127.2399999999998,9548.6000000000004,2628.98,7402.9399999999996,-3152.6100000000001,1786.8499999999999,-1446.0699999999999
167846.0,9150.8600000000006,9806.4500000000007,2669.6599999999999,7212.21,-3214.6799999999998,1665.8800000000001,-1324.27
167847.0,8004.8599999999997,6254.7700000000004,1951.29,8692.6599999999999,-1905.79,1367.74,-2050.5999999999999
167848.0,8124.1999999999998,6520.4399999999996,2021.0999999999999,8638.7199999999993,-2035.4300000000001,1497.05,-2048.4299999999998
167849.0,8248.0699999999997,6769.0299999999997,2071.9299999999998,8556.8899999999994,-2159.96,1623.6900000000001,-2038.6400000000001
167850.0,8373.0100000000002,7059.7399999999998,2156.0,8495.6800000000003,-2282.71,1743.95,-2016.6700000000001
167851.0,8493.5499999999993,7334.9899999999998,2210.6399999999999,8386.2099999999991,-2400.0500000000002,1852.0999999999999,-1984.77
167852.0,8605.2900000000009,7662.0600000000004,2306.5300000000002,8297.8600000000006,-2513.2800000000002,1943.6300000000001,-1938.8399999999999
167853.0,8704.7000000000007,7958.4300000000003,2363.7600000000002,8147.8100000000004,-2620.0100000000002,2012.3499999999999,-1882.73
167854.0,8788.8700000000008,8285.7399999999998,2447.8699999999999,8004.3500000000004,-2719.9400000000001,2055.5799999999999,-1812.5999999999999
167855.0,8854.4699999999993,8574.5,2494.2600000000002,7803.1499999999996,-2810.3200000000002,2069.1799999999998,-1731.0
167856.0,8898.8600000000006,8904.6499999999996,2586.8099999999999,7631.2799999999997,-2889.6500000000001,2051.5700000000002,-1635.1199999999999
167857.0,8921.2000000000007,9166.5200000000004,2621.8499999999999,7388.5900000000001,-2957.6399999999999,1998.74,-1527.75
167858.0,8924.5100000000002,9462.3700000000008,2702.54,7186.54,-3015.3099999999999,1908.53,-1408.6300000000001
167859.0,8920.7999999999993,9676.0100000000002,2710.5300000000002,6927.46,-3067.4099999999999,1777.46,-1284.29
167860.0,8001.9399999999996,6177.3999999999996,2006.72,8761.9599999999991,-1849.4300000000001,1474.2,-2032.75
167861.0,8116.3100000000004,6439.3199999999997,2068.79,8686.0300000000007,-1977.6800000000001,1610.1900000000001,-2032.5699999999999
167862.0,8228.2399999999998,6693.3900000000003,2125.4699999999998,8590.0,-2097.27,1743.8299999999999,-2021.47
167863.0,8335.8899999999994,6981.0,2208.52,8503.8299999999999,-2211.8299999999999,1870.4200000000001,-1995.98
167864.0,8435.25,7256.2700000000004,2270.75,8371.2099999999991,-2320.6999999999998,1983.24,-1961.28
167865.0,8522.8999999999996,7555.71,2350.3299999999999,8231.3199999999997,-2425.5999999999999,2077.3099999999999,-1912.6300000000001
167866.0,8594.6100000000006,7839.7799999999997,2407.71,8043.5299999999997,-2521.6799999999998,2147.6999999999998,-1852.6700000000001
167867.0,8648.3600000000006,8158.4899999999998,2496.4699999999998,7865.4700000000003,-2609.2399999999998,2190.6199999999999,-1778.3900000000001
167868.0,8680.7000000000007,8441.9300000000003,2552.3800000000001,7631.79,-2685.9200000000001,2202.2800000000002,-1692.1600000000001
167869.0,8690.4500000000007,8734.3600000000006,2624.0900000000001,7396.54,-2751.0300000000002,2180.4000000000001,-1592.3099999999999
167870.0,8676.7299999999996,8990.4200000000001,2670.71,7121.7200000000003,-2803.7800000000002,2121.7199999999998,-1480.53
167871.0,8645.2099999999991,9253.5799999999999,2734.8800000000001,6862.4499999999998,-2845.5900000000001,2023.76,-1358.54
167872.0,8608.9799999999996,9486.6200000000008,2775.6599999999999,6597.3400000000001,-2882.8499999999999,1883.78,-1230.3299999999999
167873.0,7957.9499999999998,6055.8000000000002,2057.54,8783.1200000000008,-1778.3699999999999,1577.9000000000001,-2003.5699999999999
167874.0,8066.3400000000001,6325.6899999999996,2121.1999999999998,8697.7000000000007,-1902.6800000000001,1721.55,-2003.0699999999999
167875.0,8163.7700000000004,6578.3999999999996,2180.1100000000001,8581.7700000000004,-2016.1700000000001,1861.3800000000001,-1990.6600000000001
167876.0,8251.2700000000004,6847.5600000000004,2254.8800000000001,8456.9799999999996,-2123.5900000000001,1992.3199999999999,-1964.02
167877.0,8325.4899999999998,7113.1599999999999,2318.4099999999999,8293.3099999999995,-2221.6399999999999,2109.4000000000001,-1925.03
167878.0,8383.9300000000003,7412.71,2408.6500000000001,8129.1700000000001,-2312.21,2206.7600000000002,-1871.0799999999999
167879.0,8423.5699999999997,7688.0799999999999,2472.4000000000001,7908.4300000000003,-2393.9200000000001,2278.5300000000002,-1806.26
167880.0,8442.7299999999996,7978.6499999999996,2550.46,7677.1300000000001,-2466.4699999999998,2320.6500000000001,-1727.5999999999999
167881.0,8438.2900000000009,8239.8899999999994,2604.9099999999999,7397.1999999999998,-2527.4200000000001,2330.0,-1637.0699999999999
167882.0,8409.0400000000009,8519.25,2685.1700000000001,7124.4399999999996,-2575.4699999999998,2303.3400000000001,-1533.21
167883.0,8355.9099999999999,8750.6499999999996,2731.5599999999999,6802.3500000000004,-2611.3899999999999,2238.5799999999999,-1417.8599999999999
167884.0,8285.5499999999993,8987.7299999999996,2794.3299999999999,6495.2799999999997,-2637.23,2131.7399999999998,-1293.4200000000001
167885.0,8214.2399999999998,9180.9099999999999,2819.21,6170.4899999999998,-2660.6700000000001,1982.8,-1163.2
167886.0,7871.1199999999999,5892.9799999999996,2106.77,8758.25,-1690.6900000000001,1679.1400000000001,-1960.2
167887.0,7970.5500000000002,6165.3599999999997,2172.6100000000001,8658.9400000000005,-1811.1099999999999,1828.4000000000001,-1961.6199999999999
167888.0,8051.3100000000004,6403.79,2223.5,8511.6900000000005,-1917.4100000000001,1973.75,-1947.4400000000001
167889.0,8115.8100000000004,6680.7700000000004,2313.8600000000001,8375.0599999999995,-2012.3699999999999,2110.5799999999999,-1916.1199999999999
167890.0,8162.1000000000004,6922.9499999999998,2369.6199999999999,8167.5799999999999,-2098.7399999999998,2230.4200000000001,-1873.7
167891.0,8187.9499999999998,7190.79,2451.21,7951.7700000000004,-2177.3299999999999,2328.98,-1816.45
167892.0,8192.0100000000002,7433.1300000000001,2504.5900000000001,7676.8299999999999,-2244.3299999999999,2400.52,-1747.3299999999999
167893.0,8172.1000000000004,7709.6499999999996,2593.79,7409.7399999999998,-2299.9099999999999,2441.5799999999999,-1663.6099999999999
167894.0,8126.8999999999996,7941.4200000000001,2644.6599999999999,7078.6400000000003,-2342.6900000000001,2447.4299999999998,-1568.6700000000001
167895.0,8055.2399999999998,8187.1999999999998,2720.5300000000002,6751.0600000000004,-2371.9499999999998,2416.3699999999999,-1460.1099999999999
167896.0,7959.5799999999999,8382.1399999999994,2759.3299999999999,6372.8999999999996,-2388.1199999999999,2344.6300000000001,-1341.4100000000001
167897.0,7847.6199999999999,8601.1900000000005,2832.23,6026.9700000000003,-2393.27,2230.6599999999999,-1213.45
167898.0,7738.3100000000004,8774.1000000000004,2860.9899999999998,5663.9499999999998,-2397.4299999999998,2072.3699999999999,-1081.21
167899.0,7737.6700000000001,5685.4799999999996,2158.1900000000001,8682.2399999999998,-1586.0,1775.4200000000001,-1904.0599999999999
167900.0,7828.3400000000001,5958.0,2221.0799999999999,8568.7399999999998,-1700.1800000000001,1931.22,-1904.8599999999999
167901.0,7890.0200000000004,6195.6000000000004,2280.0799999999999,8404.3299999999999,-1797.3699999999999,2081.71,-1888.75
167902.0,7927.04,6433.5799999999999,2351.9299999999998,8212.4699999999993,-1882.29,2220.6999999999998,-1855.5599999999999
167903.0,7941.4200000000001,6664.2700000000004,2415.46,7975.1199999999999,-1953.1800000000001,2343.3600000000001,-1808.05
167904.0,7931.9200000000001,6923.4499999999998,2508.0500000000002,7730.3100000000004,-2013.0599999999999,2444.0700000000002,-1744.3499999999999
167905.0,7896.96,7146.3900000000003,2567.3200000000002,7415.5,-2060.9099999999999,2515.3499999999999,-1669.98
167906.0,7835.6099999999997,7386.6400000000003,2650.4200000000001,7092.8900000000003,-2097.0900000000001,2554.4899999999998,-1581.1800000000001
167907.0,7747.1099999999997,7581.0200000000004,2696.54,6705.4099999999999,-2119.2800000000002,2556.4400000000001,-1482.0599999999999
167908.0,7630.5900000000001,7801.4300000000003,2782.9099999999999,6334.9399999999996,-2126.9400000000001,2520.23,-1369.0799999999999
167909.0,7490.7600000000002,7953.6599999999999,2815.7199999999998,5897.4899999999998,-2121.5999999999999,2441.1300000000001,-1247.52
167910.0,7335.7700000000004,8134.0799999999999,2890.0500000000002,5498.5100000000002,-2106.46,2318.98,-1117.1300000000001
167911.0,7187.1400000000003,8244.2900000000009,2892.4699999999998,5060.0100000000002,-2092.4400000000001,2150.8800000000001,-983.41499999999996
167912.0,7558.7399999999998,5434.8800000000001,2212.48,8556.5100000000002,-1462.5999999999999,1867.1300000000001,-1832.2
167913.0,7636.5500000000002,5693.4700000000003,2265.8800000000001,8415.75,-1570.73,2026.8399999999999,-1834.9400000000001
167914.0,7676.3599999999997,5916.6099999999997,2324.1900000000001,8223.5300000000007,-1657.4400000000001,2181.5500000000002,-1815.95
167915.0,7686.6499999999996,6151.7700000000004,2406.98,8011.7700000000004,-1726.26,2324.8499999999999,-1777.78
167916.0,7666.4300000000003,6353.0100000000002,2468.4499999999998,7729.3299999999999,-1781.9100000000001,2448.4299999999998,-1725.6700000000001
167917.0,7617.0100000000002,6553.4300000000003,2538.0300000000002,7410.9200000000001,-1825.3900000000001,2547.7399999999998,-1658.1099999999999
167918.0,7540.2799999999997,6742.3599999999997,2599.1399999999999,7046.8100000000004,-1853.9000000000001,2617.3099999999999,-1578.3699999999999
167919.0,7435.0500000000002,6937.0500000000002,2674.8299999999999,6663.04,-1868.4100000000001,2653.5300000000002,-1484.3399999999999
167920.0,7301.8999999999996,7104.75,2734.0599999999999,6233.8900000000003,-1867.46,2651.1599999999999,-1380.1500000000001
167921.0,7141.3699999999999,7259.5500000000002,2797.8000000000002,5784.0,-1851.8299999999999,2609.3099999999999,-1262.9400000000001
167922.0,6958.9899999999998,7382.96,2844.5599999999999,5304.8900000000003,-1821.9200000000001,2523.25,-1137.9200000000001
167923.0,6765.1400000000003,7510.9899999999998,2908.5300000000002,4840.8199999999997,-1781.8599999999999,2393.5599999999999,-1005.27
167924.0,6581.3000000000002,7614.8400000000001,2942.1799999999998,4384.1300000000001,-1744.1099999999999,2217.04,-869.22799999999995
167925.0,7331.1899999999996,5126.8599999999997,2264.1599999999999,8364.9500000000007,-1320.4400000000001,1951.05,-1746.04
167926.0,7397.6400000000003,5377.7799999999997,2310.3699999999999,8205.0400000000009,-1419.3299999999999,2116.1399999999999,-1748.5699999999999
167927.0,7414.3900000000003,5599.6199999999999,2384.5500000000002,7999.8900000000003,-1494.8199999999999,2274.0599999999999,-1726.3299999999999
167928.0,7390.8100000000004,5772.0200000000004,2435.4699999999998,7712.8699999999999,-1548.55,2417.27,-1685.73
167929.0,7335.2700000000004,5964.1599999999999,2516.98,7408.0799999999999,-1584.99,2541.8200000000002,-1627.03
167930.0,7247.9200000000001,6137.2600000000002,2589.8699999999999,7046.3299999999999,-1605.1300000000001,2641.4099999999999,-1553.1300000000001
167931.0,7129.8400000000001,6303.4799999999996,2666.7800000000002,6645.8999999999996,-1610.24,2708.7199999999998,-1467.01
167932.0,6982.4700000000003,6440.79,2729.4499999999998,6192.04,-1600.46,2741.27,-1367.97
167933.0,6807.8800000000001,6564.75,2792.0999999999999,5708.0900000000001,-1574.3900000000001,2733.77,-1259.0699999999999
167934.0,6607.5299999999997,6669.75,2856.9899999999998,5198.71,-1532.4400000000001,2685.6300000000001,-1137.8599999999999
167935.0,6389.5500000000002,6742.5,2905.3000000000002,4661.1300000000001,-1476.52,2592.0300000000002,-1010.0599999999999
167936.0,6165.1700000000001,6805.21,2959.0500000000002,4125.71,-1411.6600000000001,2453.79,-875.74800000000005
167937.0,5955.6599999999999,6837.2799999999997,2973.29,3592.9899999999998,-1350.98,2268.5,-738.50099999999998
167938.0,7060.3900000000003,4764.3800000000001,2313.9899999999998,8109.46,-1157.5699999999999,2027.75,-1643.49
167939.0,7110.4899999999998,5003.4300000000003,2358.6500000000001,7929.25,-1247.6400000000001,2195.1599999999999,-1647.1800000000001
167940.0,7103.0,5192.8699999999999,2421.1900000000001,7681.9799999999996,-1309.49,2355.3800000000001,-1621.53
167941.0,7051.2200000000003,5364.6099999999997,2495.5999999999999,7382.1000000000004,-1344.1400000000001,2500.73,-1575.74
167942.0,6958.3800000000001,5501.4700000000003,2562.02,7012.25,-1360.99,2623.4899999999998,-1511.1199999999999
167943.0,6830.3400000000001,5609.5799999999999,2619.3000000000002,6577.1099999999997,-1359.4300000000001,2719.3600000000001,-1432.2
167944.0,6673.5500000000002,5716.6199999999999,2686.75,6109.5500000000002,-1340.52,2782.9099999999999,-1339.96
167945.0,6488.8299999999999,5800.3900000000003,2749.02,5594.2299999999996,-1304.1400000000001,2810.73,-1235.25
167946.0,6281.0100000000002,5873.3900000000003,2816.23,5053.4300000000003,-1250.21,2797.54,-1121.23
167947.0,6054.8999999999996,5906.54,2867.6599999999999,4466.8599999999997,-1180.51,2743.0,-996.05899999999997
167948.0,5819.1300000000001,5925.6400000000003,2921.1900000000001,3872.6399999999999,-1095.8800000000001,2641.9499999999998,-865.31500000000005
167949.0,5589.5900000000001,5933.6599999999999,2977.8699999999999,3278.5100000000002,-1001.91,2496.4299999999998,-729.62400000000002
167950.0,5382.8000000000002,5933.3900000000003,3013.0700000000002,2711.23,-914.30899999999997,2303.4400000000001,-591.11900000000003
167951.0,6747.9099999999999,4340.3500000000004,2363.6199999999999,7781.8800000000001,-973.37400000000002,2093.9400000000001,-1525.75
167952.0,6784.1400000000003,4569.5699999999997,2405.8299999999999,7585.7399999999998,-1052.97,2264.7600000000002,-1528.1500000000001
167953.0,6752.04,4742.0,2477.4099999999999,7314.0100000000002,-1099.1600000000001,2425.8699999999999,-1499.21
167954.0,6667.5299999999997,4847.7200000000003,2526.5500000000002,6941.6400000000003,-1114.78,2568.98,-1448.6900000000001
167955.0,6543.75,4955.5100000000002,2604.9299999999998,6534.4300000000003,-1108.24,2690.1700000000001,-1377.8499999999999
167956.0,6385.79,5033.8000000000002,2677.4299999999998,6061.3100000000004,-1080.0699999999999,2783.4400000000001,-1291.8299999999999
167957.0,6199.5299999999997,5092.0600000000004,2750.9699999999998,5539.4099999999999,-1032.9200000000001,2842.2800000000002,-1192.98
167958.0,5993.1000000000004,5117.1999999999998,2814.21,4962.0100000000002,-967.84699999999998,2864.6100000000001,-1083.0
167959.0,5772.5900000000001,5115.1599999999999,2869.9099999999999,4344.21,-884.81200000000001,2844.8899999999999,-964.25900000000001
167960.0,5547.1300000000001,5097.3000000000002,2937.54,3707.0999999999999,-784.10799999999995,2783.1399999999999,-835.41899999999998
167961.0,5329.3900000000003,5034.1199999999999,2977.1900000000001,3032.9200000000001,-669.78300000000002,2674.4099999999999,-702.29200000000003
167962.0,5137.8500000000004,4973.1899999999996,3035.71,2373.21,-546.56100000000004,2520.8800000000001,-565.83000000000004
167963.0,4980.9300000000003,4870.5100000000002,3036.5700000000002,1709.98,-432.017,2320.0900000000001,-426.29899999999998
167964.0,6405.3800000000001,3854.3099999999999,2411.8499999999999,7380.6199999999999,-766.80700000000002,2149.48,-1390.6800000000001
167965.0,6424.8800000000001,4069.3899999999999,2456.5700000000002,7168.1000000000004,-835.91200000000003,2320.98,-1392.97
167966.0,6372.0500000000002,4195.6800000000003,2511.04,6844.9499999999998,-864.83699999999999,2482.0700000000002,-1361.0599999999999
167967.0,6265.4499999999998,4291.6199999999999,2588.2199999999998,6457.6199999999999,-859.10000000000002,2624.0599999999999,-1304.0899999999999
167968.0,6115.6599999999999,4324.3199999999997,2644.9299999999998,5971.8900000000003,-827.28499999999997,2740.5500000000002,-1226.7
167969.0,5937.3599999999997,4330.0900000000001,2707.0599999999999,5426.1099999999997,-772.69799999999998,2827.7800000000002,-1133.97
167970.0,5742.6000000000004,4305.0,2761.9400000000001,4821.0500000000002,-697.34299999999996,2880.8200000000002,-1029.1600000000001
167971.0,5540.3999999999996,4265.6499999999996,2829.6199999999999,4181.1000000000004,-601.13199999999995,2896.1900000000001,-912.94200000000001
167972.0,5343.9899999999998,4192.9099999999999,2888.25,3497.4299999999998,-485.64400000000001,2869.5900000000001,-789.22500000000002
167973.0,5170.0100000000002,4089.21,2943.8899999999999,2779.4499999999998,-353.48399999999998,2800.6500000000001,-657.28300000000002
167974.0,5030.2299999999996,3954.3099999999999,2988.1999999999998,2041.6099999999999,-207.12,2684.1999999999998,-521.46100000000001
167975.0,4949.9499999999998,3827.5500000000002,3055.29,1323.0799999999999,-51.265799999999999,2524.1399999999999,-385.38200000000001
167976.0,4916.8500000000004,3671.9200000000001,3073.54,615.274,92.264700000000005,2316.46,-244.82900000000001
167977.0,6047.5100000000002,3301.1100000000001,2460.8600000000001,6900.2600000000002,-537.77300000000002,2191.5700000000002,-1239.8599999999999
167978.0,6053.3400000000001,3502.8499999999999,2507.3899999999999,6674.3199999999997,-594.47000000000003,2364.0900000000001,-1239.5899999999999
167979.0,5984.46,3595.9400000000001,2564.02,6315.6800000000003,-603.17499999999995,2523.52,-1204.0799999999999
167980.0,5862.71,3626.25,2626.4299999999998,5863.0100000000002,-574.97199999999998,2660.71,-1140.52
167981.0,5708.7600000000002,3605.3200000000002,2685.04,5322.6700000000001,-516.07100000000003,2772.4299999999998,-1057.55
167982.0,5538.3000000000002,3573.0500000000002,2771.4899999999998,4740.7200000000003,-431.73899999999998,2853.3699999999999,-956.82000000000005
167983.0,5368.7600000000002,3476.25,2828.04,4068.8699999999999,-322.74099999999999,2899.0100000000002,-845.16499999999996
167984.0,5221.1199999999999,3372.71,2907.02,3372.4000000000001,-194.30699999999999,2907.3299999999999,-723.98900000000003
167985.0,5109.8999999999996,3193.1999999999998,2938.5700000000002,2589.9000000000001,-47.214100000000002,2873.0799999999999,-595.94399999999996
167986.0,5056.8299999999999,3038.29,3027.21,1833.3499999999999,120.124,2795.98,-460.839
167987.0,5074.21,2791.5500000000002,3044.3699999999999,997.08100000000002,298.70499999999998,2672.5900000000001,-323.529
167988.0,5178.2600000000002,2588.9400000000001,3121.29,216.851,486.75700000000001,2504.9699999999998,-187.88
167989.0,5333.1800000000003,2311.5799999999999,3101.29,-595.476,660.22000000000003,2291.8800000000001,-46.9377
167990.0,5699.6499999999996,2684.1799999999998,2514.48,6342.5900000000001,-284.55399999999997,2219.25,-1069.9400000000001
167991.0,5694.9799999999996,2858.5599999999999,2556.8200000000002,6093.5100000000002,-328.71199999999999,2390.5,-1069.75
167992.0,5623.8900000000003,2900.9499999999998,2602.0100000000002,5685.2799999999997,-317.71199999999999,2546.98,-1031.1500000000001
167993.0,5510.1700000000001,2896.2800000000002,2681.3899999999999,5200.0299999999997,-265.226,2679.29,-960.31899999999996
167994.0,5378.1999999999998,2796.5799999999999,2728.25,4585.7399999999998,-175.87299999999999,2782.9000000000001,-869.96600000000001
167995.0,5257.0799999999999,2673.4899999999998,2799.8400000000001,3923.0900000000001,-61.186399999999999,2855.6900000000001,-761.81500000000005
167996.0,5170.8000000000002,2477.6799999999998,2835.8499999999999,3161.4400000000001,78.025099999999995,2893.6199999999999,-645.21199999999999
167997.0,5139.6300000000001,2287.4299999999998,2914.8099999999999,2391.6500000000001,241.41900000000001,2892.54,-516.88499999999999
167998.0,5187.1300000000001,2036.02,2967.1799999999998,1555.3699999999999,426.13900000000001,2850.27,-384.57799999999997
167999.0,5328.8199999999997,1763.04,3026.5900000000001,696.39300000000003,626.49099999999999,2766.0599999999999,-247.346
168000.0,5561.04,1443.04,3063.3099999999999,-192.59,839.80600000000004,2634.6100000000001,-108.28
168001.0,5893.1000000000004,1153.1600000000001,3144.25,-1041.1300000000001,1062.72,2462.3899999999999,25.583200000000001
168002.0,6253.8500000000004,808.36599999999999,3142.5100000000002,-1901.3399999999999,1266.27,2243.6300000000001,166.41999999999999
168003.0,5403.9700000000003,1990.8699999999999,2566.79,5696.9300000000003,-9.2539599999999993,2230.25,-884.75699999999995
168004.0,5394.75,2142.0900000000001,2607.1999999999998,5428.71,-36.831699999999998,2399.8000000000002,-881.76199999999994
168005.0,5339.2299999999996,2146.2800000000002,2661.02,4987.9300000000003,-2.48773,2551.2800000000002,-837.27200000000005
168006.0,5263.6400000000003,2065.1999999999998,2726.7600000000002,4434.1499999999996,77.204099999999997,2675.3800000000001,-759.97900000000004
168007.0,5203.9399999999996,1897.3,2775.7800000000002,3761.7199999999998,195.309,2770.9000000000001,-664.04899999999998
168008.0,5188.8299999999999,1708.4000000000001,2862.46,3045.5999999999999,343.16000000000003,2833.96,-547.68399999999997
168009.0,5250.1300000000001,1443.5599999999999,2922.9099999999999,2233.9200000000001,522.69399999999996,2861.3800000000001,-423.41800000000001
168010.0,5408.5699999999997,1163.73,3003.9099999999999,1394.23,720.01499999999999,2853.4699999999998,-291.71699999999998
168011.0,5667.0900000000001,783.12300000000005,3017.2600000000002,444.93799999999999,935.76199999999994,2802.0300000000002,-156.55000000000001
168012.0,6040.3699999999999,454.637,3125.1900000000001,-441.613,1174.4400000000001,2709.1700000000001,-15.9374
168013.0,6504.46,3.0159699999999998,3128.8299999999999,-1437.8099999999999,1421.6700000000001,2572.25,121.848
168014.0,7052.9499999999998,-379.62799999999999,3216.9499999999998,-2352.8699999999999,1676.5999999999999,2393.75,255.023
168015.0,7608.6400000000003,-846.82299999999998,3190.4699999999998,-3307.9200000000001,1912.3099999999999,2172.7399999999998,393.83499999999998
168016.0,5211.04,1238.8499999999999,2634.8600000000001,4976.6199999999999,293.14400000000001,2222.6500000000001,-676.95600000000002
168017.0,5211.3900000000003,1335.4100000000001,2650.6199999999999,4664.4700000000003,281.99099999999999,2388.21,-677.09199999999998
168018.0,5201.6599999999999,1294.3499999999999,2709.77,4189.1300000000001,334.87400000000002,2533.1599999999999,-628.322
168019.0,5208.0699999999997,1135.0799999999999,2763.6300000000001,3567.48,442.52100000000002,2648.1199999999999,-545.10500000000002
168020.0,5270.2799999999997,905.16999999999996,2835.0999999999999,2851.3499999999999,595.40099999999995,2731.2199999999998,-438.697
168021.0,5425.4200000000001,591.71900000000005,2890.0100000000002,2033.0699999999999,777.99900000000002,2785.1300000000001,-317.04300000000001
168022.0,5683.8699999999999,218.52000000000001,2928.0900000000001,1130.4100000000001,984.05200000000002,2804.23,-189.44999999999999
168023.0,6062.21,-184.77799999999999,2992.1500000000001,191.83500000000001,1220.05,2783.25,-48.9041
168024.0,6560.8800000000001,-600.08900000000006,3086.2800000000002,-754.76199999999994,1481.6500000000001,2723.4699999999998,89.570999999999998
168025.0,7158.9399999999996,-1114.6400000000001,3108.25,-1803.22,1751.22,2625.27,230.30699999999999
168026.0,7831.71,-1608.5999999999999,3175.1799999999998,-2808.0700000000002,2034.51,2479.8899999999999,368.42399999999998
168027.0,8578.5900000000001,-2115.73,3245.5300000000002,-3816.1199999999999,2325.0,2300.6999999999998,498.27800000000002
168028.0,9297.1499999999996,-2650.98,3245.5999999999999,-4810.7399999999998,2589.6399999999999,2077.0599999999999,634.06200000000001
168029.0,5197.9899999999998,384.49900000000002,2675.1399999999999,4145.6000000000004,615.66600000000005,2196.6799999999998,-457.57400000000001
168030.0,5215.5699999999997,463.71300000000002,2701.6300000000001,3823.3499999999999,625.75599999999997,2354.5599999999999,-454.178
168031.0,5284.5500000000002,369.16899999999998,2777.3299999999999,3314.6999999999998,707.64200000000005,2488.25,-394.947
168032.0,5420.6199999999999,131.59700000000001,2833.8099999999999,2636.0799999999999,849.07799999999997,2590.48,-306.52999999999997
168033.0,5657.2600000000002,-199.52500000000001,2889.8000000000002,1843.53,1029.26,2664.9099999999999,-195.69300000000001
168034.0,6014.8999999999996,-603.19500000000005,2951.5,954.68399999999997,1247.6300000000001,2706.2399999999998,-65.762200000000007
168035.0,6508.4499999999998,-1026.3,3062.25,41.524799999999999,1506.3499999999999,2710.8499999999999,72.934100000000001
168036.0,7117.6700000000001,-1539.95,3120.2800000000002,-975.37599999999998,1775.9000000000001,2687.0799999999999,210.56800000000001
168037.0,7810.6599999999999,-2143.8499999999999,3114.02,-2093.5900000000001,2058.3299999999999,2616.9299999999998,350.13400000000001
168038.0,8619.3700000000008,-2674.3800000000001,3245.27,-3110.79,2370.5700000000002,2508.96,494.64999999999998
168039.0,9481.5400000000009,-3343.5799999999999,3247.7199999999998,-4255.5900000000001,2688.2600000000002,2362.9499999999998,627.303
168040.0,10389.299999999999,-3943.02,3332.9400000000001,-5320.5299999999997,3006.5799999999999,2179.2800000000002,755.44299999999998
168041.0,11264.200000000001,-4597.9899999999998,3325.1599999999999,-6396.6899999999996,3305.0799999999999,1956.98,886.78700000000003
168042.0,5405.1899999999996,-475.11900000000003,2765.54,3284.3200000000002,969.024,2145.6999999999998,-211.98599999999999
168043.0,5472.1899999999996,-508.041,2749.71,2891.75,998.46900000000005,2289.1900000000001,-213.745
168044.0,5645.1800000000003,-669.72299999999996,2826.9200000000001,2339.5700000000002,1094.26,2411.5100000000002,-152.42599999999999
168045.0,5943.96,-1032.0,2851.4099999999999,1564.53,1267.73,2500.6900000000001,-55.6648
168046.0,6387.0200000000004,-1423.8599999999999,2961.2399999999998,743.46299999999997,1495.1800000000001,2559.2800000000002,71.165400000000005
168047.0,6970.4899999999998,-1953.8099999999999,3011.1399999999999,-231.18600000000001,1755.1500000000001,2592.1100000000001,202.923
168048.0,7651.3100000000004,-2560.9299999999998,3018.8200000000002,-1313.72,2024.75,2592.8699999999999,339.00799999999998
168049.0,8466.9400000000005,-3200.3200000000002,3075.02,-2421.9200000000001,2337.8800000000001,2547.3299999999999,491.37599999999998
168050.0,9401.0300000000007,-3769.21,3260.7800000000002,-3434.9200000000001,2685.9400000000001,2473.0900000000001,633.96900000000005
168051.0,10375.5,-4577.79,3210.2399999999998,-4707.0100000000002,3022.2800000000002,2365.71,770.60000000000002
168052.0,11392.200000000001,-5243.3100000000004,3326.9899999999998,-5804.3999999999996,3370.9499999999998,2211.04,904.36800000000005
168053.0,12456.4,-5983.4799999999996,3385.2399999999998,-6966.8699999999999,3725.9400000000001,2034.45,1023.54
168054.0,13446.700000000001,-6714.3299999999999,3386.4499999999998,-8098.1999999999998,4043.29,1816.55,1147.5699999999999
168055.0,5839.29,-1501.95,2700.9400000000001,2265.4699999999998,1310.45,2075.3299999999999,17.1677
168056.0,5974.3500000000004,-1498.77,2823.3899999999999,1944.8599999999999,1364.98,2194.1900000000001,37.050800000000002
168057.0,6313.8800000000001,-1798.95,2896.6799999999998,1304.8099999999999,1527.1600000000001,2288.5999999999999,125.495
168058.0,6822.3400000000001,-2223.6599999999999,2988.8899999999999,513.673,1751.26,2365.5100000000002,232.00899999999999
168059.0,7460.25,-2809.9000000000001,3005.77,-471.27300000000002,2002.8499999999999,2418.6300000000001,356.41300000000001
168060.0,8244.9400000000005,-3452.4200000000001,3057.7199999999998,-1537.29,2299.71,2433.9299999999998,503.00700000000001
168061.0,9196.0699999999997,-4057.0100000000002,3250.8400000000001,-2539.75,2656.0599999999999,2414.2800000000002,657.98699999999997
168062.0,10203.4,-4806.54,3310.2600000000002,-3713.1100000000001,3000.3000000000002,2382.3499999999999,790.47699999999998
168063.0,11229.4,-5734.9799999999996,3190.9099999999999,-5091.8800000000001,3333.25,2297.0,929.78499999999997
168064.0,12387.4,-6408.2200000000003,3423.9099999999999,-6155.7600000000002,3720.1700000000001,2177.5900000000001,1072.5799999999999
168065.0,13560.4,-7337.2799999999997,3393.9200000000001,-7473.0200000000004,4104.3400000000001,2037.1700000000001,1192.01
168066.0,14735.1,-8134.2299999999996,3490.02,-8664.1499999999996,4475.9700000000003,1857.0,1305.4200000000001
168067.0,15857.700000000001,-8957.9099999999999,3517.0300000000002,-9829.2700000000004,4829.29,1651.76,1421.6400000000001
168068.0,6501.0799999999999,-2213.2199999999998,2999.46,1598.1700000000001,1692.72,1966.5599999999999,279.84899999999999
168069.0,6745.8000000000002,-2595.6999999999998,2894.4099999999999,951.10599999999999,1770.79,2045.49,315.09800000000001
168070.0,7254.9399999999996,-3075.0300000000002,2914.9400000000001,168.535,1965.3399999999999,2126.9299999999998,409.63200000000001
168071.0,7953.46,-3705.77,2932.5500000000002,-804.72699999999998,2228.1999999999998,2181.1300000000001,537.14099999999996
168072.0,8855.4400000000005,-4351.1999999999998,3075.4899999999998,-1793.01,2563.27,2204.3800000000001,690.077
168073.0,9871.5400000000009,-5095.1899999999996,3187.5500000000002,-2879.6700000000001,2913.48,2218.21,828.48400000000004
168074.0,10904.799999999999,-6078.5900000000001,3047.5300000000002,-4273.7600000000002,3235.77,2209.4200000000001,964.04100000000005
168075.0,12096.5,-6936.9399999999996,3142.8099999999999,-5510.1999999999998,3630.6900000000001,2137.6199999999999,1127.9300000000001
168076.0,13428.5,-7620.25,3506.9099999999999,-6510.3100000000004,4083.5,2063.4200000000001,1268.95
168077.0,14686.5,-8758.3799999999992,3342.6799999999998,-8035.0600000000004,4478.2200000000003,1964.98,1383.22
168078.0,15958.1,-9594.4500000000007,3502.79,-9214.7199999999993,4875.4700000000003,1812.04,1504.52
168079.0,17257.400000000001,-10498.1,3600.0500000000002,-10455.5,5282.7200000000003,1663.76,1594.98
168080.0,18434.200000000001,-11455.6,3533.2199999999998,-11779.0,5629.9799999999996,1465.73,1699.8800000000001
168081.0,1703.0999999999999,1581.48,316.28699999999998,206.827,-380.79199999999997,484.947,-54.221200000000003
168082.0,1702.04,1636.24,311.95299999999997,164.185,-384.75099999999998,398.72699999999998,-39.311500000000002
168083.0,1702.1900000000001,1688.0,315.49599999999998,136.36600000000001,-386.86700000000002,308.50999999999999,-19.871400000000001
168084.0,1704.4400000000001,1718.3599999999999,308.13299999999998,104.169,-386.70299999999997,214.85300000000001,1.99238
168085.0,1706.48,1749.27,311.55599999999998,95.502600000000001,-384.19999999999999,119.32599999999999,27.208600000000001
168086.0,1709.3900000000001,1772.3399999999999,317.35300000000001,99.816699999999997,-379.072,22.410900000000002,53.569000000000003
168087.0,1712.3,1766.5,307.29199999999997,94.4298,-370.42000000000002,-75.612700000000004,77.4148
168088.0,1715.8599999999999,1755.4200000000001,302.92200000000003,104.524,-358.83699999999999,-173.36799999999999,100.699
168089.0,1719.5899999999999,1723.3599999999999,290.339,114.19499999999999,-344.58199999999999,-270.34100000000001,121.845
168090.0,1723.95,1675.01,272.12200000000001,128.553,-327.596,-364.99299999999999,141.75399999999999
168091.0,1728.45,1638.6600000000001,271.76499999999999,179.036,-307.75400000000002,-454.29599999999999,163.81299999999999
168092.0,1733.52,1590.6600000000001,269.13799999999998,238.124,-285.42700000000002,-538.61599999999999,184.38999999999999
168093.0,1738.8099999999999,1519.4100000000001,255.995,292.14400000000001,-260.93700000000001,-618.05899999999997,201.143
168094.0,1740.95,1639.5,255.47999999999999,258.13299999999998,-367.70299999999997,447.19999999999999,-194.489
168095.0,1747.52,1708.0799999999999,265.26900000000001,231.72200000000001,-379.71300000000002,360.209,-183.31
168096.0,1752.0699999999999,1749.48,263.16399999999999,197.91499999999999,-389.95299999999997,271.12700000000001,-165.97399999999999
168097.0,1754.7,1787.6700000000001,271.64299999999997,179.18799999999999,-397.52100000000002,178.39400000000001,-144.18799999999999
168098.0,1757.47,1799.47,265.95800000000003,152.84999999999999,-402.27300000000002,84.111699999999999,-121.223
168099.0,1759.78,1796.3,256.88099999999997,131.512,-404.03300000000002,-11.9628,-96.872900000000001
168100.0,1762.26,1796.97,260.964,135.90600000000001,-403.375,-108.203,-71.275199999999998
168101.0,1764.73,1781.3299999999999,258.82499999999999,145.065,-399.57499999999999,-204.05199999999999,-45.5518
168102.0,1767.5699999999999,1761.6400000000001,261.96699999999998,171.86199999999999,-393.291,-298.22300000000001,-19.849599999999999
168103.0,1770.5599999999999,1738.0899999999999,270.73599999999999,215.53,-383.87599999999998,-389.67500000000001,5.1433400000000002
168104.0,1774.46,1680.1900000000001,256.60899999999998,243.56200000000001,-371.62700000000001,-478.42000000000002,28.433599999999998
168105.0,1778.6199999999999,1617.3299999999999,246.273,286.774,-356.70999999999998,-562.22500000000002,50.252299999999998
168106.0,1782.3499999999999,1551.77,242.17699999999999,347.64400000000001,-339.00700000000001,-639.98699999999997,71.197199999999995
168107.0,1788.0699999999999,1766.5799999999999,277.97699999999998,405.35700000000003,-384.029,431.92599999999999,-225.471
168108.0,1797.45,1852.78,301.31900000000002,405.37900000000002,-399.58600000000001,343.91800000000001,-216.45699999999999
168109.0,1805.8099999999999,1901.77,304.017,383.94099999999997,-412.12599999999998,256.72000000000003,-201.80699999999999
168110.0,1808.71,1936.77,311.16699999999997,366.62,-421.584,165.934,-182.67099999999999
168111.0,1812.02,1958.74,315.71300000000002,353.92700000000002,-428.77499999999998,74.074299999999994,-160.422
168112.0,1813.49,1979.5899999999999,331.19,360.01299999999998,-432.64100000000002,-18.9055,-136.12700000000001
168113.0,1815.6199999999999,1966.05,322.99799999999999,349.43799999999999,-433.75900000000001,-112.51300000000001,-111.33499999999999
168114.0,1817.02,1952.02,324.81299999999999,358.50099999999998,-431.565,-205.47800000000001,-85.729699999999994
168115.0,1819.1700000000001,1915.8699999999999,314.48599999999999,364.71899999999999,-426.65100000000001,-297.69999999999999,-60.283200000000001
168116.0,1821.23,1866.3399999999999,300.416,377.79399999999998,-418.65300000000002,-387.46600000000001,-35.4358
168117.0,1824.71,1827.9000000000001,304.46300000000002,423.56900000000002,-408.85500000000002,-474.01499999999999,-11.6302
168118.0,1828.26,1778.0599999999999,305.524,477.15300000000002,-396.07799999999997,-555.72400000000005,10.290800000000001
168119.0,1831.1500000000001,1705.52,295.88200000000001,526.35199999999998,-380.09899999999999,-632.76999999999998,32.513100000000001
168120.0,1857.8900000000001,1939.8,318.33600000000001,614.846,-396.44,401.48099999999999,-294.625
168121.0,1870.73,2006.46,327.03500000000003,601.85000000000002,-415.16800000000001,314.98700000000002,-288.916
168122.0,1881.5799999999999,2051.98,329.67599999999999,581.17200000000003,-431.00099999999998,230.31899999999999,-275.37700000000001
168123.0,1884.8199999999999,2081.5799999999999,336.34100000000001,563.06299999999999,-444.33300000000003,143.35300000000001,-256.26600000000002
168124.0,1887.5599999999999,2093.4200000000001,336.54300000000001,541.64599999999996,-454.62599999999998,55.102600000000002,-234.80699999999999
168125.0,1888.1199999999999,2081.96,325.70800000000003,514.80499999999995,-461.69099999999997,-34.263100000000001,-211.27500000000001
168126.0,1888.76,2082.54,335.71199999999999,518.81299999999999,-466.38400000000001,-124.206,-185.755
168127.0,1888.8199999999999,2058.6900000000001,331.14100000000002,516.98000000000002,-467.68799999999999,-213.762,-159.65899999999999
168128.0,1889.46,2038.9200000000001,339.137,538.91399999999999,-466.57999999999998,-302.42099999999999,-132.91499999999999
168129.0,1890.1600000000001,2008.3800000000001,344.84100000000001,569.37800000000004,-462.24700000000001,-388.68200000000002,-106.777
168130.0,1892.5999999999999,1954.71,335.976,595.55100000000004,-455.91800000000001,-472.79399999999998,-82.125900000000001
168131.0,1895.3900000000001,1893.8499999999999,327.34399999999999,633.72500000000002,-446.755,-552.35000000000002,-59.438400000000001
168132.0,1897.25,1829.6900000000001,326.56400000000002,687.67399999999998,-434.74000000000001,-627.60000000000002,-36.077500000000001
168133.0,1939.6500000000001,2063.7800000000002,312.38299999999998,778.03599999999994,-411.38400000000001,372.53399999999999,-350.95800000000003
168134.0,1955.51,2134.5599999999999,329.779,776.81700000000001,-433.09500000000003,288.44900000000001,-347.11000000000001
168135.0,1967.8699999999999,2189.73,346.85399999999998,770.34100000000001,-451.29599999999999,206.739,-335.75099999999998
168136.0,1971.6700000000001,2207.2600000000002,346.726,742.34900000000005,-467.04700000000003,123.17400000000001,-319.13900000000001
168137.0,1973.72,2232.4000000000001,364.34100000000001,737.28899999999999,-480.41500000000002,38.6584,-298.12900000000002
168138.0,1973.3199999999999,2236.1399999999999,371.70299999999997,727.52499999999998,-490.61900000000003,-46.6676,-274.45699999999999
168139.0,1972.3699999999999,2226.73,375.87400000000002,720.76199999999994,-498.214,-132.79400000000001,-249.25299999999999
168140.0,1970.8599999999999,2200.3600000000001,371.702,714.53399999999999,-502.36900000000003,-218.68100000000001,-222.941
168141.0,1969.6199999999999,2170.8800000000001,373.54399999999998,723.34100000000001,-504.14299999999997,-304.19900000000001,-196.01599999999999
168142.0,1968.73,2114.1599999999999,355.90699999999998,723.23299999999995,-502.50799999999998,-387.923,-169.67699999999999
168143.0,1970.0599999999999,2082.1799999999998,369.12599999999998,768.33600000000001,-499.553,-469.18299999999999,-143.792
168144.0,1972.26,2024.73,363.08100000000002,806.20000000000005,-493.52300000000002,-546.07100000000003,-120.259
168145.0,1973.1500000000001,1963.73,365.29599999999999,858.76499999999999,-484.87,-619.37400000000002,-95.605000000000004
168146.0,2042.5599999999999,2252.3499999999999,362.76900000000001,1014.14,-426.00700000000001,338.64299999999997,-416.178
168147.0,2060.7800000000002,2305.29,369.05599999999998,1001.98,-450.53800000000001,257.851,-414.04000000000002
168148.0,2073.7600000000002,2349.46,380.44999999999999,990.41999999999996,-471.71499999999997,179.78200000000001,-403.29700000000003
168149.0,2077.27,2366.6799999999998,384.56599999999997,967.17200000000003,-490.93599999999998,100.663,-386.51999999999998
168150.0,2077.98,2378.6900000000001,394.63499999999999,950.81200000000001,-507.26499999999999,20.787099999999999,-366.25799999999998
168151.0,2075.8400000000001,2356.3800000000001,381.14999999999998,914.61599999999999,-520.31700000000001,-60.147500000000001,-343.35500000000002
168152.0,2072.9899999999998,2358.8800000000001,400.834,919.51499999999999,-531.19600000000003,-141.798,-317.85500000000002
168153.0,2069.4200000000001,2322.7399999999998,390.15600000000001,901.43499999999995,-538.447,-223.607,-291.25799999999998
168154.0,2066.1199999999999,2307.0599999999999,407.77699999999999,921.67700000000002,-543.553,-305.041,-263.32499999999999
168155.0,2063.4000000000001,2262.9200000000001,403.666,930.89499999999998,-545.13699999999994,-384.98899999999998,-235.864
168156.0,2063.1799999999998,2220.6300000000001,408.07499999999999,960.57299999999998,-545.47299999999996,-463.166,-209.22200000000001
168157.0,2064.4400000000001,2154.2800000000002,393.68299999999999,984.36300000000006,-542.68600000000004,-537.55899999999997,-185.14500000000001
168158.0,2064.5100000000002,2101.96,404.05900000000003,1040.45,-537.71799999999996,-608.63499999999999,-159.29300000000001
168159.0,2161.0,2386.4000000000001,354.68299999999999,1203.55,-442.22800000000001,302.86500000000001,-477.57999999999998
168160.0,2181.6700000000001,2445.1700000000001,373.22000000000003,1205.1900000000001,-469.55399999999997,225.81200000000001,-477.46699999999998
168161.0,2194.9099999999999,2493.7600000000002,395.88799999999998,1203.22,-493.142,152.04900000000001,-468.88299999999998
168162.0,2197.4000000000001,2499.4699999999998,395.548,1170.6900000000001,-514.88699999999994,77.550799999999995,-454.12400000000002
168163.0,2196.6799999999998,2518.1999999999998,417.435,1163.1900000000001,-534.13900000000001,2.6155300000000001,-434.64999999999998
168164.0,2192.7199999999998,2511.5799999999999,423.952,1143.8,-550.57000000000005,-73.406400000000005,-411.858
168165.0,2187.5100000000002,2498.6199999999999,432.38400000000001,1131.6400000000001,-564.40700000000004,-150.196,-386.596
168166.0,2181.6100000000001,2467.5300000000002,429.94,1116.4000000000001,-574.95699999999999,-227.53200000000001,-359.66899999999998
168167.0,2175.9000000000001,2437.1199999999999,435.59899999999999,1117.8399999999999,-583.11199999999997,-304.87,-331.471
168168.0,2170.8400000000001,2381.7399999999998,422.63799999999998,1111.1500000000001,-587.88199999999995,-381.39699999999999,-303.358
168169.0,2169.0999999999999,2347.96,436.048,1144.6199999999999,-591.52200000000005,-456.22699999999998,-275.74700000000001
168170.0,2169.4000000000001,2291.5900000000001,431.31799999999998,1173.5699999999999,-592.19899999999996,-527.60799999999995,-250.54499999999999
168171.0,2168.8699999999999,2235.1900000000001,436.61099999999999,1219.5699999999999,-590.86199999999997,-596.25800000000004,-223.905
168172.0,2298.73,2577.48,400.13299999999998,1455.5699999999999,-457.69,263.55799999999999,-544.85699999999997
168173.0,2320.5799999999999,2627.5300000000002,417.71300000000002,1456.3699999999999,-487.92700000000002,190.88399999999999,-546.10299999999995
168174.0,2333.6599999999999,2653.96,424.61000000000001,1438.8599999999999,-514.45699999999999,122.023,-538.42600000000004
168175.0,2335.2399999999998,2670.6300000000001,440.64299999999997,1422.77,-539.67100000000005,52.8399,-524.077
168176.0,2332.73,2667.5700000000002,446.226,1395.48,-561.98699999999997,-16.451899999999998,-505.46600000000001
168177.0,2326.23,2648.4699999999998,445.51900000000001,1363.6600000000001,-581.61500000000001,-86.986500000000007,-483.19600000000003
168178.0,2318.7399999999998,2637.0700000000002,459.077,1351.8299999999999,-598.70500000000004,-158.429,-458.13099999999997
168179.0,2309.9499999999998,2604.5799999999999,458.76400000000001,1332.4000000000001,-612.64300000000003,-230.82400000000001,-430.84899999999999
168180.0,2301.6700000000001,2577.27,469.536,1332.8599999999999,-624.04399999999998,-303.45400000000001,-402.05799999999999
168181.0,2294.0799999999999,2536.8400000000001,473.101,1336.5699999999999,-632.31600000000003,-375.76100000000002,-372.87599999999998
168182.0,2290.5700000000002,2489.1999999999998,473.22199999999998,1349.98,-639.24000000000001,-446.892,-344.63400000000001
168183.0,2289.6100000000001,2434.73,470.661,1375.1099999999999,-643.57399999999996,-515.18799999999999,-318.49200000000002
168184.0,2288.52,2378.0100000000002,474.149,1413.98,-645.86500000000001,-581.15899999999999,-290.97500000000002
168185.0,2453.3600000000001,2723.9400000000001,395.06299999999999,1673.5999999999999,-475.00999999999999,221.28,-609.47500000000002
168186.0,2476.6700000000001,2783.0599999999999,429.452,1692.4000000000001,-507.85599999999999,153.47300000000001,-613.04499999999996
168187.0,2489.2800000000002,2808.04,442.625,1679.3,-536.97500000000002,90.190700000000007,-607.66800000000001
168188.0,2488.52,2814.98,456.762,1656.6900000000001,-564.92100000000005,27.026700000000002,-594.91700000000003
168189.0,2483.8400000000001,2812.5700000000002,468.70600000000002,1631.6900000000001,-590.21400000000006,-36.141399999999997,-577.38199999999995
168190.0,2474.6700000000001,2808.5700000000002,488.17500000000001,1615.4100000000001,-613.31200000000001,-100.62,-555.54600000000005
168191.0,2464.3400000000001,2779.1999999999998,487.68700000000001,1583.3900000000001,-633.52099999999996,-166.16399999999999,-530.82000000000005
168192.0,2452.54,2756.0700000000002,500.13600000000002,1570.3599999999999,-651.08399999999995,-233.10499999999999,-503.30399999999997
168193.0,2441.5500000000002,2711.9400000000001,496.16399999999999,1548.9100000000001,-665.66099999999994,-300.77999999999997,-474.39699999999999
168194.0,2431.0700000000002,2670.6500000000001,500.90199999999999,1546.3599999999999,-677.58799999999997,-368.73599999999999,-444.38
168195.0,2425.71,2622.9299999999998,501.06200000000001,1553.1900000000001,-687.80200000000002,-435.99400000000003,-415.44099999999997
168196.0,2423.4200000000001,2582.1599999999999,512.07899999999995,1585.8599999999999,-696.04399999999998,-500.74900000000002,-388.10199999999998
168197.0,2422.0599999999999,2517.6700000000001,505.92599999999999,1609.4300000000001,-702.02599999999995,-563.87300000000005,-360.16800000000001
168198.0,2624.8699999999999,2921.8800000000001,439.80000000000001,1948.6600000000001,-491.41000000000003,175.768,-678.36500000000001
168199.0,2648.21,2968.4099999999999,470.375,1964.2,-527.22000000000003,113.542,-683.22500000000002
168200.0,2659.8099999999999,2973.9400000000001,471.404,1938.8199999999999,-559.27700000000004,56.500399999999999,-678.94299999999998
168201.0,2657.5300000000002,2989.8200000000002,501.012,1930.55,-590.596,-0.13965900000000001,-667.375
168202.0,2650.6599999999999,2968.5300000000002,499.65600000000001,1888.78,-619.04200000000003,-56.552100000000003,-650.98299999999995
168203.0,2638.5,2954.9699999999998,514.87099999999998,1862.9400000000001,-645.64099999999996,-114.346,-629.79399999999998
168204.0,2625.3800000000001,2925.8800000000001,518.25099999999998,1829.03,-669.13999999999999,-173.535,-605.55799999999999
168205.0,2610.1599999999999,2901.6799999999998,533.14700000000005,1811.26,-690.40899999999999,-234.517,-577.83100000000002
168206.0,2596.1199999999999,2858.6799999999998,532.05100000000004,1785.5,-708.28300000000002,-296.73000000000002,-548.53700000000003
168207.0,2582.5999999999999,2828.7399999999998,549.82000000000005,1788.3,-724.04499999999996,-359.78199999999998,-517.64099999999996
168208.0,2575.2600000000002,2769.9899999999998,538.82000000000005,1776.72,-737.63199999999995,-422.755,-488.16899999999998
168209.0,2571.6700000000001,2734.8000000000002,555.16099999999994,1808.0899999999999,-749.97699999999998,-483.75099999999998,-459.82999999999998
168210.0,2569.9499999999998,2667.7800000000002,544.18100000000004,1821.0,-759.66399999999999,-543.72199999999998,-431.26999999999998
168211.0,2812.6300000000001,3085.9499999999998,445.375,2201.5599999999999,-509.49000000000001,126.89,-744.83500000000004
168212.0,2836.4099999999999,3132.1399999999999,484.66699999999997,2226.4400000000001,-547.74199999999996,70.808700000000002,-752.44600000000003
168213.0,2846.5999999999999,3141.2600000000002,497.94999999999999,2211.3600000000001,-582.42499999999995,20.652000000000001,-750.65300000000002
168214.0,2841.5700000000002,3139.6900000000001,518.00999999999999,2189.6700000000001,-616.68600000000004,-28.6264,-740.73500000000001
168215.0,2831.6900000000001,3124.1999999999998,528.71699999999998,2155.4099999999999,-648.29200000000003,-77.593999999999994,-725.48299999999995
168216.0,2816.3699999999999,3114.5999999999999,553.17600000000004,2133.1300000000001,-678.36599999999999,-128.12200000000001,-705.20299999999997
168217.0,2799.98,3076.8099999999999,551.68399999999997,2087.9000000000001,-705.29899999999998,-180.30099999999999,-681.40099999999995
168218.0,2781.4499999999998,3054.6199999999999,571.72500000000002,2067.9699999999998,-730.32100000000003,-234.81999999999999,-653.81200000000001
168219.0,2764.25,3003.73,564.53300000000002,2028.28,-751.70399999999995,-291.18599999999998,-624.40300000000002
168220.0,2747.6900000000001,2970.7600000000002,580.54700000000003,2021.25,-771.30600000000004,-349.00999999999999,-592.87199999999996
168221.0,2738.1100000000001,2915.6999999999998,573.125,2005.5899999999999,-788.50199999999995,-407.47899999999998,-562.71600000000001
168222.0,2733.1900000000001,2887.48,595.69200000000001,2035.98,-804.93299999999999,-464.35199999999998,-533.47699999999998
168223.0,2731.25,2819.9699999999998,581.91999999999996,2039.8399999999999,-818.64700000000005,-520.96799999999996,-504.47000000000003
168224.0,3014.8000000000002,3288.0599999999999,488.61399999999998,2498.8499999999999,-526.64700000000005,74.742800000000003,-814.40200000000004
168225.0,3037.8099999999999,3319.4899999999998,522.55399999999997,2519.6199999999999,-567.72199999999998,25.6342,-823.39999999999998
168226.0,3046.1300000000001,3312.4899999999998,528.17100000000005,2496.5599999999999,-605.51199999999994,-16.950700000000001,-822.95899999999995
168227.0,3038.9400000000001,3315.7199999999998,560.19500000000005,2484.71,-642.86900000000003,-58.259,-814.75199999999995
168228.0,3026.3600000000001,3285.8899999999999,562.74699999999996,2438.27,-677.87599999999998,-99.219999999999999,-801.03800000000001
168229.0,3007.96,3266.5700000000002,582.29899999999998,2405.79,-711.41300000000001,-141.80199999999999,-781.77599999999995
168230.0,2988.1799999999998,3231.2399999999998,587.255,2360.1900000000001,-742.04700000000003,-186.53,-758.63800000000003
168231.0,2966.1199999999999,3204.2399999999998,605.19200000000001,2330.46,-770.69600000000003,-233.982,-731.24300000000005
168232.0,2945.4299999999998,3158.9899999999998,605.49800000000005,2290.02,-795.92899999999997,-284.07100000000003,-701.53300000000002
168233.0,2925.73,3127.96,624.26099999999997,2277.0100000000002,-819.23800000000006,-336.20499999999998,-669.63599999999997
168234.0,2913.8299999999999,3072.6599999999999,616.39999999999998,2252.8400000000001,-840.43200000000002,-389.76999999999998,-638.75300000000004
168235.0,2907.8099999999999,3043.1300000000001,636.15899999999999,2273.1300000000001,-860.85699999999997,-442.19600000000003,-608.94799999999998
168236.0,2905.6300000000001,2982.9699999999998,627.197,2275.4099999999999,-878.952,-495.12900000000002,-579.11800000000005
168237.0,3231.46,3461.5599999999999,499.46800000000002,2779.6700000000001,-545.25400000000002,19.105699999999999,-881.31600000000003
168238.0,3253.6100000000001,3493.1300000000001,543.78700000000003,2811.0799999999999,-588.38499999999999,-22.341899999999999,-893.245
168239.0,3259.7199999999998,3484.5500000000002,557.51999999999998,2793.9699999999998,-628.95399999999995,-56.697099999999999,-895.60799999999995
168240.0,3249.6300000000001,3472.77,582.24300000000005,2771.7399999999998,-669.15599999999995,-89.187299999999993,-889.32799999999997
168241.0,3233.6399999999999,3446.3099999999999,594.86199999999997,2730.5300000000002,-707.697,-121.45,-877.04100000000005
168242.0,3211.75,3427.96,620.33299999999997,2697.8899999999999,-744.55100000000004,-155.34899999999999,-859.048
168243.0,3188.46,3386.9899999999998,623.54499999999996,2643.4899999999998,-779.10199999999998,-192.017,-836.63699999999994
168244.0,3162.9699999999998,3360.0300000000002,643.85500000000002,2608.25,-811.38900000000001,-231.86500000000001,-809.78499999999997
168245.0,3138.8400000000001,3310.9699999999998,642.077,2556.98,-840.71500000000003,-275.25400000000002,-780.04999999999995
168246.0,3116.0599999999999,3277.54,658.56299999999999,2533.1100000000001,-867.74599999999998,-321.23200000000003,-747.82000000000005
168247.0,3101.79,3227.6999999999998,655.89700000000005,2505.4099999999999,-893.20399999999995,-369.67700000000002,-716.32600000000002
168248.0,3094.48,3201.0599999999999,676.72400000000005,2518.8200000000002,-917.57500000000005,-417.322,-686.04200000000003
168249.0,3092.3400000000001,3146.3099999999999,670.50300000000004,2516.8499999999999,-940.38300000000004,-466.392,-655.64300000000003
168250.0,3459.6799999999998,3665.0599999999999,541.39700000000005,3097.6300000000001,-562.86000000000001,-39.740699999999997,-949.98500000000001
168251.0,3480.4000000000001,3680.98,580.29499999999996,3125.4499999999998,-608.50999999999999,-72.789100000000005,-963.68700000000001
168252.0,3484.0799999999999,3658.8200000000002,589.66099999999994,3103.6500000000001,-652.23900000000003,-98.154700000000005,-967.745
168253.0,3471.1399999999999,3648.9699999999998,624.01400000000001,3088.4000000000001,-695.36300000000006,-121.13,-963.55600000000004
168254.0,3452.1100000000001,3609.9899999999998,630.55899999999997,3036.5799999999999,-737.41099999999994,-144.03700000000001,-953.26800000000003
168255.0,3427.0999999999999,3584.1900000000001,653.11800000000005,2995.52,-777.75599999999997,-168.685,-936.77099999999996
168256.0,3400.3000000000002,3544.52,661.34299999999996,2938.73,-816.28099999999995,-196.72399999999999,-915.39700000000005
168257.0,3371.1500000000001,3513.9200000000001,680.11199999999997,2893.7399999999998,-852.29700000000003,-228.40000000000001,-889.06100000000004
168258.0,3343.54,3470.1399999999999,684.928,2840.04,-885.81700000000001,-264.601,-859.404
168259.0,3317.4699999999998,3436.6199999999999,701.48199999999997,2806.5799999999999,-916.69200000000001,-304.125,-827.14800000000002
168260.0,3300.9400000000001,3389.7800000000002,700.827,2772.1700000000001,-946.50599999999997,-346.928,-795.05700000000002
168261.0,3292.54,3362.6599999999999,718.95399999999995,2774.8200000000002,-975.01199999999994,-389.53100000000001,-764.41399999999999
168262.0,3290.5599999999999,3316.3000000000002,717.66399999999999,2770.8299999999999,-1002.58,-434.29599999999999,-733.36000000000001
168263.0,3699.9000000000001,3851.96,565.05499999999995,3411.3400000000001,-581.34699999999998,-102.03,-1015.64
168264.0,3718.6399999999999,3853.2199999999998,600.66200000000003,3436.0100000000002,-628.98400000000004,-125.947,-1032.4200000000001
168265.0,3719.2800000000002,3838.0300000000002,627.39700000000005,3429.5,-675.26900000000001,-141.494,-1039.49
168266.0,3703.52,3803.4400000000001,644.80200000000002,3394.4499999999998,-721.32600000000002,-154.31200000000001,-1037.8299999999999
168267.0,3681.0100000000002,3777.3600000000001,670.71600000000001,3357.5700000000002,-766.923,-167.02699999999999,-1029.29
168268.0,3652.3800000000001,3740.4499999999998,686.90300000000002,3303.5799999999999,-810.75900000000001,-181.756,-1014.53
168269.0,3622.0300000000002,3706.9000000000001,704.57899999999995,3249.0,-853.30799999999999,-200.41499999999999,-994.20799999999997
168270.0,3589.5799999999999,3667.0799999999999,715.92600000000004,3187.9699999999998,-893.21000000000004,-223.55199999999999,-968.98199999999997
168271.0,3558.48,3629.5100000000002,727.83199999999999,3132.1999999999998,-931.01599999999996,-251.96000000000001,-939.49099999999999
168272.0,3529.5300000000002,3589.1700000000001,736.87800000000004,3081.9299999999998,-965.91999999999996,-284.61000000000001,-907.28399999999999
168273.0,3510.5900000000001,3553.1199999999999,745.92999999999995,3047.7600000000002,-1000.21,-321.47500000000002,-874.80700000000002
168274.0,3501.1900000000001,3524.0,759.40499999999997,3037.0900000000001,-1032.96,-358.79000000000002,-844.03399999999999
168275.0,3499.3400000000001,3488.6900000000001,765.63800000000003,3033.0300000000002,-1065.45,-399.00200000000001,-812.48400000000004
168276.0,3948.4099999999999,4051.1199999999999,604.01400000000001,3745.1799999999998,-598.66800000000001,-167.43000000000001,-1081.53
168277.0,3965.1399999999999,4040.8000000000002,639.16499999999996,3771.3499999999999,-648.697,-181.47,-1100.5999999999999
168278.0,3962.9299999999998,4009.7600000000002,659.84500000000003,3758.7800000000002,-697.85900000000004,-186.49199999999999,-1109.8499999999999
168279.0,3944.1700000000001,3979.3099999999999,689.15800000000002,3733.02,-746.93399999999997,-188.35300000000001,-1110.6900000000001
168280.0,3918.1399999999999,3937.98,706.39300000000003,3682.5900000000001,-795.899,-190.14099999999999,-1104.53
168281.0,3886.79,3899.2800000000002,724.673,3625.1500000000001,-843.38499999999999,-194.399,-1091.9100000000001
168282.0,3852.8499999999999,3862.8600000000001,742.82000000000005,3563.25,-890.024,-203.15600000000001,-1073.0999999999999
168283.0,3817.1599999999999,3823.8499999999999,755.95500000000004,3495.6300000000001,-933.86500000000001,-217.06399999999999,-1048.8499999999999
168284.0,3782.48,3789.3800000000001,771.82500000000005,3433.9899999999998,-976.13,-237.309,-1019.83
168285.0,3750.71,3749.1300000000001,779.82600000000002,3372.5999999999999,-1015.0599999999999,-262.75,-988.11900000000003
168286.0,3729.4400000000001,3718.8699999999999,793.11599999999999,3333.1999999999998,-1054.0899999999999,-293.21300000000002,-955.17600000000004
168287.0,3719.3600000000001,3688.9499999999998,802.20100000000002,3309.6599999999999,-1091.04,-324.87,-924.41899999999998
168288.0,3717.9000000000001,3665.8099999999999,816.59299999999996,3306.1199999999999,-1128.77,-360.16000000000003,-892.31100000000004
168289.0,4205.8199999999997,4238.0100000000002,631.88800000000003,4078.9200000000001,-616.45399999999995,-236.18000000000001,-1143.9400000000001
168290.0,4219.6099999999997,4214.3400000000001,665.87900000000002,4104.4799999999996,-668.23099999999999,-239.44499999999999,-1166.1500000000001
168291.0,4213.8699999999999,4184.2799999999997,698.32000000000005,4101.8599999999997,-719.75400000000002,-233.13999999999999,-1178.71
168292.0,4192.2399999999998,4133.5500000000002,715.15499999999997,4061.0799999999999,-771.71100000000001,-223.29900000000001,-1182.6099999999999
168293.0,4163.1599999999999,4101.2600000000002,747.41399999999999,4021.5100000000002,-824.16800000000001,-213.578,-1179.0
168294.0,4128.3599999999997,4053.8099999999999,761.04399999999998,3953.21,-875.351,-206.506,-1168.4100000000001
168295.0,4091.0999999999999,4022.8299999999999,787.19500000000005,3891.7800000000002,-926.08000000000004,-204.68199999999999,-1151.25
168296.0,4052.4099999999999,3976.9899999999998,794.36699999999996,3809.3699999999999,-974.03800000000001,-208.96600000000001,-1128.5699999999999
168297.0,4014.6199999999999,3948.29,815.84799999999996,3743.7800000000002,-1020.8099999999999,-220.46799999999999,-1100.28
168298.0,3980.1500000000001,3906.0300000000002,820.072,3668.9699999999998,-1064.02,-238.19900000000001,-1068.8299999999999
168299.0,3956.8499999999999,3883.8099999999999,839.32299999999998,3625.3400000000001,-1107.8,-262.04199999999997,-1036.05
168300.0,3946.0,3854.98,845.88999999999999,3590.1700000000001,-1149.21,-287.78199999999998,-1005.4
168301.0,3945.1500000000001,3841.8299999999999,865.63999999999999,3583.8400000000001,-1192.1700000000001,-317.94299999999998,-973.09199999999998
168302.0,4467.8299999999999,4430.96,671.36400000000003,4427.1199999999999,-632.83699999999999,-307.75299999999999,-1204.96
168303.0,4478.9899999999998,4394.9700000000003,704.92899999999997,4454.4799999999996,-686.61800000000005,-299.63600000000002,-1229.9300000000001
168304.0,4470.3599999999997,4351.0100000000002,733.495,4448.3400000000001,-740.73500000000001,-281.25400000000002,-1245.3599999999999
168305.0,4445.6499999999996,4303.1300000000001,760.92100000000005,4415.9099999999999,-795.66800000000001,-258.96800000000002,-1252.1800000000001
168306.0,4413.2700000000004,4256.7700000000004,784.94200000000001,4363.75,-851.46400000000006,-236.79900000000001,-1251.3099999999999
168307.0,4375.8800000000001,4209.8699999999999,802.63,4293.6700000000001,-906.375,-217.97,-1243.5699999999999
168308.0,4335.8100000000004,4173.7200000000003,825.61500000000001,4221.6000000000004,-961.21900000000005,-205.02699999999999,-1228.6700000000001
168309.0,4294.0799999999999,4133.6700000000001,838.81899999999996,4136.6400000000003,-1013.48,-199.005,-1207.3399999999999
168310.0,4253.3900000000003,4104.5200000000004,859.12300000000005,4059.96,-1064.75,-201.375,-1180.1900000000001
168311.0,4216.4200000000001,4067.0799999999999,866.29600000000005,3977.5,-1112.48,-211.15100000000001,-1149.6700000000001
168312.0,4191.3500000000004,4047.23,884.71100000000001,3923.3899999999999,-1161.02,-227.845,-1116.9300000000001
168313.0,4180.0100000000002,4025.9099999999999,894.51599999999996,3882.4499999999998,-1207.0999999999999,-247.31100000000001,-1086.3800000000001
168314.0,4180.1300000000001,4017.5999999999999,913.63199999999995,3867.4099999999999,-1255.26,-271.96800000000002,-1054.1199999999999
168315.0,4734.8800000000001,4610.0799999999999,701.58199999999999,4773.1899999999996,-649.05499999999995,-382.38499999999999,-1261.77
168316.0,4742.3400000000001,4565.0699999999997,738.947,4805.4700000000003,-704.226,-361.95999999999998,-1289.98
168317.0,4730.1000000000004,4514.3599999999997,771.51499999999999,4802.3100000000004,-760.54499999999996,-330.65899999999999,-1309.0699999999999
168318.0,4702.6899999999996,4453.0900000000001,793.03899999999999,4762.0100000000002,-818.19399999999996,-295.19499999999999,-1319.53
168319.0,4667.8199999999997,4409.6400000000003,825.28999999999996,4714.1999999999998,-877.37800000000004,-260.14299999999997,-1322.1400000000001
168320.0,4627.6800000000003,4359.4899999999998,842.71100000000001,4638.4300000000003,-936.11300000000006,-228.66200000000001,-1316.96
168321.0,4584.75,4326.9300000000003,870.69000000000005,4564.0500000000002,-995.178,-203.893,-1304.1800000000001
168322.0,4540.7299999999996,4283.5600000000004,880.19299999999998,4466.6499999999996,-1051.75,-187.20500000000001,-1285.1700000000001
168323.0,4497.6099999999997,4259.3699999999999,903.90999999999997,4383.8100000000004,-1107.75,-179.93600000000001,-1259.3499999999999
168324.0,4458.4899999999998,4224.7600000000002,910.779,4291.3199999999997,-1160.05,-181.137,-1229.51
168325.0,4431.9200000000001,4211.1499999999996,932.10299999999995,4229.54,-1213.55,-190.59,-1197.5
168326.0,4420.3000000000002,4193.1599999999999,940.47199999999998,4177.71,-1264.3900000000001,-203.48599999999999,-1167.45
168327.0,4421.5100000000002,4195.79,964.678,4159.3100000000004,-1317.8900000000001,-222.46100000000001,-1135.3699999999999
168328.0,5002.3199999999997,4791.6599999999999,742.995,5130.3299999999999,-663.63499999999999,-459.53500000000003,-1315.4000000000001
168329.0,5006.5600000000004,4732.2399999999998,778.42700000000002,5163.3500000000004,-720.12400000000002,-426.09699999999998,-1346.8699999999999
168330.0,4991.4499999999998,4671.0600000000004,810.59199999999998,5160.4300000000003,-778.82600000000002,-381.27100000000002,-1369.53
168331.0,4961.3599999999997,4609.5299999999997,838.97400000000005,5125.7299999999996,-839.173,-331.822,-1383.5
168332.0,4923.9399999999996,4557.1999999999998,867.12300000000005,5070.4799999999996,-901.83299999999997,-282.99200000000002,-1389.3399999999999
168333.0,4881.6800000000003,4505.7200000000003,885.68600000000004,4990.3699999999999,-964.18899999999996,-238.37299999999999,-1387.73
168334.0,4837.0200000000004,4470.3599999999997,911.48400000000004,4906.7399999999998,-1027.55,-201.441,-1378.21
168335.0,4790.75,4433.3900000000003,926.10900000000004,4806.3999999999996,-1088.5899999999999,-173.31999999999999,-1361.0799999999999
168336.0,4745.5900000000001,4411.5600000000004,949.875,4713.8400000000001,-1149.3699999999999,-156.03800000000001,-1337.0899999999999
168337.0,4704.6999999999998,4379.9399999999996,956.45600000000002,4610.4300000000003,-1206.4200000000001,-148.51499999999999,-1308.8399999999999
168338.0,4677.1099999999997,4373.3800000000001,980.08500000000004,4541.3400000000001,-1264.96,-150.148,-1277.3399999999999
168339.0,4665.4499999999998,4362.3900000000003,989.995,4481.7799999999997,-1320.6800000000001,-156.13399999999999,-1247.77
168340.0,4668.25,4372.3699999999999,1014.73,4455.5900000000001,-1379.5799999999999,-169.035,-1216.1400000000001
168341.0,5269.96,4957.9399999999996,777.90700000000004,5483.0500000000002,-677.15599999999995,-539.28899999999999,-1363.9400000000001
168342.0,5270.1999999999998,4889.3500000000004,817.12699999999995,5521.9899999999998,-734.58500000000004,-491.94499999999999,-1398.8800000000001
168343.0,5251.79,4819.3400000000001,850.80999999999995,5520.8500000000004,-795.29999999999995,-432.75599999999997,-1425.5599999999999
168344.0,5219.54,4747.0200000000004,875.07100000000003,5481.0100000000002,-858.10599999999999,-368.68599999999998,-1443.8499999999999
168345.0,5180.3299999999999,4695.3400000000001,908.19000000000005,5427.4399999999996,-924.04899999999998,-305.62299999999999,-1454.0599999999999
168346.0,5136.4099999999999,4643.3500000000004,927.75599999999997,5343.9700000000003,-990.25400000000002,-247.12100000000001,-1455.79
168347.0,5089.9399999999996,4613.8199999999997,959.005,5259.5500000000002,-1058.02,-197.17099999999999,-1448.9100000000001
168348.0,5042.3500000000004,4574.1899999999996,969.13400000000001,5146.2200000000003,-1123.52,-157.42099999999999,-1435.0599999999999
168349.0,4995.9499999999998,4558.6499999999996,995.71699999999998,5047.54,-1189.27,-129.61799999999999,-1413.1099999999999
168350.0,4953.8299999999999,4534.2700000000004,1004.8099999999999,4937.2399999999998,-1251.24,-112.732,-1386.0899999999999
168351.0,4925.6300000000001,4532.1800000000003,1027.8299999999999,4857.04,-1314.8900000000001,-106.482,-1356.04
168352.0,4914.1999999999998,4528.1499999999996,1038.8599999999999,4788.8599999999997,-1375.6800000000001,-105.34099999999999,-1327.3699999999999
168353.0,4918.7399999999998,4547.7700000000004,1065.8,4756.4300000000003,-1439.95,-111.976,-1296.3800000000001
168354.0,5533.0799999999999,5122.3900000000003,823.67399999999998,5842.5600000000004,-688.54100000000005,-620.99800000000005,-1407.4100000000001
168355.0,5529.8900000000003,5034.8599999999997,856.46900000000005,5878.3500000000004,-746.79499999999996,-559.15099999999995,-1446.1199999999999
168356.0,5508.8000000000002,4959.54,894.57799999999997,5883.1700000000001,-809.37400000000002,-484.95999999999998,-1477.0
168357.0,5474.75,4883.3199999999997,920.95699999999999,5845.3900000000003,-874.75,-405.56200000000001,-1499.55
168358.0,5434.1199999999999,4829.3999999999996,955.029,5791.1000000000004,-944.02499999999998,-327.36200000000002,-1513.6099999999999
168359.0,5389.2799999999997,4774.1099999999997,972.19200000000001,5700.75,-1013.97,-254.59800000000001,-1519.79
168360.0,5342.3199999999997,4744.0,1001.6799999999999,5608.29,-1085.96,-191.369,-1517.26
168361.0,5293.8400000000001,4712.0699999999997,1016.28,5492.4899999999998,-1156.3,-139.25299999999999,-1505.9100000000001
168362.0,5246.6300000000001,4702.6400000000003,1044.6099999999999,5386.54,-1226.9300000000001,-100.514,-1486.6099999999999
168363.0,5203.9300000000003,4678.9200000000001,1049.4100000000001,5261.6499999999996,-1294.0799999999999,-74.309700000000007,-1462.02
168364.0,5175.6700000000001,4690.1199999999999,1079.02,5178.8800000000001,-1362.8599999999999,-59.486600000000003,-1433.04
168365.0,5165.0799999999999,4691.1000000000004,1088.2,5099.7600000000002,-1428.9100000000001,-50.902200000000001,-1405.3099999999999
168366.0,5171.8599999999997,4722.8100000000004,1118.9000000000001,5062.7200000000003,-1498.5899999999999,-50.8613,-1375.29
168367.0,5790.5900000000001,5267.75,864.03899999999999,6192.5,-697.88499999999999,-704.57500000000005,-1444.5699999999999
168368.0,5783.5299999999997,5169.6499999999996,899.01800000000003,6233.8000000000002,-756.76700000000005,-627.50900000000001,-1487.1199999999999
168369.0,5759.9099999999999,5086.1999999999998,938.25699999999995,6241.7399999999998,-820.75400000000002,-537.52200000000005,-1522.6099999999999
168370.0,5724.7399999999998,5000.0299999999997,960.22500000000002,6199.8900000000003,-888.577,-442.315,-1550.28
168371.0,5683.5100000000002,4946.5500000000002,997.22199999999998,6146.7600000000002,-960.75099999999998,-348.54500000000002,-1569.5999999999999
168372.0,5638.5,4892.5900000000001,1015.5,6054.6000000000004,-1034.8099999999999,-260.86099999999999,-1579.95
168373.0,5591.2600000000002,4872.6499999999996,1052.3,5965.0100000000002,-1111.1300000000001,-183.43199999999999,-1580.7
168374.0,5543.0100000000002,4838.3999999999996,1060.8800000000001,5835.6099999999997,-1186.3499999999999,-118.899,-1573.6700000000001
168375.0,5496.1400000000003,4836.5500000000002,1090.8499999999999,5723.5299999999997,-1261.9400000000001,-68.787000000000006,-1557.4000000000001
168376.0,5453.6899999999996,4825.75,1101.95,5596.4399999999996,-1334.5699999999999,-32.5471,-1534.6800000000001
168377.0,5425.9499999999998,4838.3000000000002,1125.8199999999999,5497.8500000000004,-1408.5,-9.2310400000000001,-1508.0899999999999
168378.0,5416.46,4852.2799999999997,1140.76,5415.0100000000002,-1480.03,6.9988700000000001,-1481.6400000000001
168379.0,5425.71,4890.1800000000003,1168.55,5366.8000000000002,-1554.98,13.872299999999999,-1452.8599999999999
168380.0,6038.1199999999999,5402.6000000000004,911.19000000000005,6539.8000000000002,-704.47699999999998,-789.47500000000002,-1474.97
168381.0,6027.6199999999999,5288.8199999999997,942.83000000000004,6582.0,-763.60900000000004,-696.58199999999999,-1521.75
168382.0,6001.9799999999996,5197.2799999999997,982.53399999999999,6593.4399999999996,-828.88900000000001,-590.21100000000001,-1562.03
168383.0,5966.1899999999996,5112.6099999999997,1010.5700000000001,6559.3900000000003,-899.17200000000003,-478.49099999999999,-1594.6099999999999
168384.0,5925.2299999999996,5055.6899999999996,1045.0799999999999,6504.1999999999998,-974.423,-368.42099999999999,-1618.6500000000001
168385.0,5881.0100000000002,5005.6000000000004,1066.03,6412.0100000000002,-1052.3499999999999,-265.464,-1634.3900000000001
168386.0,5835.1800000000003,4978.3800000000001,1091.9400000000001,6306.7700000000004,-1132.8,-173.857,-1640.8499999999999
168387.0,5788.0200000000004,4962.7399999999998,1113.4400000000001,6185.29,-1213.26,-96.081400000000002,-1637.05
168388.0,5742.0600000000004,4963.0100000000002,1138.6199999999999,6060.7600000000002,-1293.8499999999999,-34.261099999999999,-1624.4300000000001
168389.0,5700.5699999999997,4958.8400000000001,1149.27,5923.9499999999998,-1372.0599999999999,11.9283,-1604.9400000000001
168390.0,5674.29,4983.5799999999999,1176.3299999999999,5820.4799999999996,-1451.27,44.414099999999998,-1580.22
168391.0,5666.75,5008.1599999999999,1193.3900000000001,5731.1599999999999,-1528.3900000000001,68.645300000000006,-1555.28
168392.0,5679.0799999999999,5055.5299999999997,1220.8499999999999,5674.3400000000001,-1608.76,82.616100000000003,-1528.23
168393.0,6273.0900000000001,5512.4899999999998,953.03800000000001,6869.9700000000003,-708.15999999999997,-875.37,-1497.51
168394.0,6259.04,5394.7600000000002,992.62199999999996,6925.1499999999996,-767.07299999999998,-765.88699999999994,-1548.4100000000001
168395.0,6232.1199999999999,5290.5200000000004,1027.45,6935.5600000000004,-833.5,-642.67700000000002,-1594.0699999999999
168396.0,6196.7200000000003,5201.8299999999999,1054.9200000000001,6903.6300000000001,-905.72000000000003,-513.97799999999995,-1632.55
168397.0,6157.1099999999997,5142.0100000000002,1086.77,6846.0600000000004,-983.86800000000005,-387.45299999999997,-1662.99
168398.0,6114.7600000000002,5098.1199999999999,1111.01,6756.7799999999997,-1065.79,-268.51499999999999,-1683.72
168399.0,6070.9700000000003,5085.2600000000002,1145.6199999999999,6658.3000000000002,-1150.8900000000001,-161.905,-1694.3
168400.0,6025.9799999999996,5068.4499999999998,1159.6300000000001,6523.4899999999998,-1236.24,-70.861000000000004,-1695.97
168401.0,5982.71,5077.5299999999997,1184.97,6393.1999999999998,-1322.1900000000001,2.86639,-1687.5799999999999
168402.0,5943.4099999999999,5092.3500000000004,1205.3900000000001,6259.3599999999997,-1406.1500000000001,59.8446,-1670.8499999999999
168403.0,5919.1599999999999,5116.1800000000003,1222.3499999999999,6136.5699999999997,-1490.8199999999999,101.20699999999999,-1649.4200000000001
168404.0,5913.7600000000002,5159.0600000000004,1248.5699999999999,6047.7299999999996,-1573.49,133.71000000000001,-1626.3
168405.0,5929.6599999999999,5210.79,1269.6500000000001,5976.8299999999999,-1659.28,154.90199999999999,-1601.1199999999999
168406.0,6491.4700000000003,5608.0900000000001,1003.7,7192.3999999999996,-708.18499999999995,-961.70399999999995,-1511.5899999999999
168407.0,6474.6300000000001,5475.9099999999999,1039.74,7250.1700000000001,-766.33900000000006,-835.12400000000002,-1567.1900000000001
168408.0,6447.0200000000004,5364.2700000000004,1074.1700000000001,7265.29,-833.88099999999997,-694.61099999999999,-1618.25
168409.0,6412.8100000000004,5280.1599999999999,1108.21,7244.46,-907.97799999999995,-548.30899999999997,-1662.3699999999999
168410.0,6375.7299999999996,5219.8699999999999,1137.97,7187.9899999999998,-989.38900000000001,-404.68299999999999,-1698.3199999999999
168411.0,6336.3400000000001,5183.6800000000003,1165.78,7102.1499999999996,-1074.8099999999999,-269.53699999999998,-1725.6099999999999
168412.0,6296.3999999999996,5161.1300000000001,1184.26,6984.9399999999996,-1164.3099999999999,-148.172,-1743.29
168413.0,6255.1599999999999,5169.3699999999999,1214.46,6864.1800000000003,-1254.95,-43.119900000000001,-1749.3
168414.0,6215.2200000000003,5183.4099999999999,1234.8199999999999,6723.5799999999999,-1346.4200000000001,42.924799999999998,-1745.46
168415.0,6178.8500000000004,5204.6499999999996,1251.9300000000001,6578.8999999999996,-1436.03,110.446,-1733.0599999999999
168416.0,6158.3199999999997,5246.9099999999999,1275.6400000000001,6456.71,-1526.48,161.44399999999999,-1714.3800000000001
168417.0,6156.0799999999999,5298.9099999999999,1300.74,6358.8299999999999,-1614.79,202.40299999999999,-1693.6500000000001
168418.0,6175.96,5364.4899999999998,1324.0999999999999,6282.5900000000001,-1706.05,231.15000000000001,-1670.6500000000001
168419.0,6689.5100000000002,5679.6999999999998,1056.55,7496.6199999999999,-703.96100000000001,-1047.71,-1516.05
168420.0,6670.0799999999999,5533.4300000000003,1088.6500000000001,7557.4300000000003,-761.32899999999995,-903.64599999999996,-1576.1199999999999
168421.0,6642.6899999999996,5422.0100000000002,1129.1400000000001,7585.04,-829.36900000000003,-745.35799999999995,-1633.1900000000001
168422.0,6611.1700000000001,5323.9399999999996,1149.77,7556.3000000000002,-905.11000000000001,-581.40099999999995,-1684.28
168423.0,6577.7700000000004,5273.8400000000001,1187.05,7510.7299999999996,-989.125,-420.52300000000002,-1727.6400000000001
168424.0,6543.3599999999997,5234.04,1204.8,7417.8599999999997,-1078.5899999999999,-268.887,-1761.21
168425.0,6508.4700000000003,5245.6700000000001,1248.3299999999999,7327.6499999999996,-1172.98,-131.72800000000001,-1783.7
168426.0,6471.9499999999998,5240.6099999999997,1255.6300000000001,7180.5900000000001,-1268.6500000000001,-12.895300000000001,-1796.5599999999999
168427.0,6437.4700000000003,5277.7299999999996,1287.3099999999999,7048.1599999999999,-1365.77,85.590699999999998,-1798.1900000000001
168428.0,6406.1000000000004,5311.9700000000003,1305.05,6899.71,-1461.5,164.30600000000001,-1789.8699999999999
168429.0,6389.3199999999997,5363.5600000000004,1326.45,6767.8299999999999,-1557.6700000000001,224.71700000000001,-1775.1400000000001
168430.0,6391.0500000000002,5428.0900000000001,1352.55,6663.6599999999999,-1651.6600000000001,274.33199999999999,-1757.23
168431.0,6415.5600000000004,5507.6700000000001,1377.5899999999999,6582.4399999999996,-1748.47,310.846,-1736.52
168432.0,6863.2700000000004,5720.6899999999996,1108.21,7774.1999999999998,-694.76999999999998,-1132.79,-1510.3199999999999
168433.0,6842.1400000000003,5567.5799999999999,1142.9200000000001,7845.5100000000002,-750.93600000000004,-971.16600000000005,-1575.6500000000001
168434.0,6816.2299999999996,5442.9399999999996,1174.1500000000001,7872.4200000000001,-819.19200000000001,-794.74300000000005,-1638.8099999999999
168435.0,6788.6499999999996,5362.1899999999996,1210.98,7867.8999999999996,-896.88400000000001,-612.79700000000003,-1696.3800000000001
168436.0,6760.5900000000001,5305.54,1236.54,7817.6700000000001,-983.68799999999999,-434.13299999999998,-1746.21
168437.0,6732.1999999999998,5288.5200000000004,1269.24,7743.3800000000001,-1076.97,-265.82100000000003,-1787.29
168438.0,6703.5200000000004,5277.5,1280.5699999999999,7621.1000000000004,-1175.45,-113.34099999999999,-1818.29
168439.0,6674.8199999999997,5315.3599999999997,1317.55,7505.8800000000001,-1276.8499999999999,19.800799999999999,-1836.9300000000001
168440.0,6646.3400000000001,5350.1300000000001,1333.95,7356.04,-1379.8,131.20400000000001,-1844.02
168441.0,6621.0200000000004,5402.3100000000004,1355.8800000000001,7207.4700000000003,-1481.4300000000001,220.84899999999999,-1841.28
168442.0,6610.2600000000002,5468.1400000000003,1377.79,7071.9099999999999,-1583.8800000000001,291.25400000000002,-1830.48
168443.0,6616.9899999999998,5549.3800000000001,1407.51,6965.1499999999996,-1683.3900000000001,349.66500000000002,-1815.95
168444.0,6646.4300000000003,5639.9300000000003,1430.9100000000001,6875.4899999999998,-1786.0,394.11099999999999,-1797.8399999999999
168445.0,7008.3999999999996,5734.1700000000001,1165.6500000000001,8027.0600000000004,-680.26099999999997,-1216.26,-1493.0699999999999
168446.0,6986.0799999999999,5570.21,1197.8800000000001,8105.5,-734.90200000000004,-1036.6300000000001,-1563.25
168447.0,6962.5500000000002,5448.2399999999998,1234.1700000000001,8147.04,-803.06700000000001,-841.99000000000001,-1633.0699999999999
168448.0,6940.0799999999999,5354.4899999999998,1255.4100000000001,8136.0299999999997,-881.99300000000005,-641.91999999999996,-1698.4000000000001
168449.0,6918.8100000000004,5311.8000000000002,1288.1900000000001,8100.3500000000004,-971.13499999999999,-445.78100000000001,-1756.78
168450.0,6899.0299999999997,5291.7399999999998,1307.4200000000001,8020.0699999999997,-1068.4000000000001,-260.68400000000003,-1805.46
168451.0,6879.9399999999996,5325.5100000000002,1349.8099999999999,7935.9799999999996,-1172.01,-92.283100000000005,-1842.8299999999999
168452.0,6859.0500000000002,5348.8199999999997,1358.8,7793.5500000000002,-1278.74,55.185699999999997,-1869.0699999999999
168453.0,6839.5200000000004,5411.9200000000001,1387.96,7656.7200000000003,-1387.52,179.23099999999999,-1883.5
168454.0,6822.5799999999999,5479.3500000000004,1409.25,7506.8199999999997,-1495.74,280.36900000000003,-1886.0599999999999
168455.0,6818.04,5558.3400000000001,1429.5899999999999,7364.9399999999996,-1604.1700000000001,360.59899999999999,-1880.26
168456.0,6830.7299999999996,5653.6000000000004,1459.3499999999999,7253.1700000000001,-1709.45,428.01900000000001,-1869.3299999999999
168457.0,6866.2299999999996,5760.6899999999996,1485.2,7160.3900000000003,-1817.6900000000001,480.529,-1854.45
168458.0,7120.4099999999999,5710.8400000000001,1223.8199999999999,8243.9300000000003,-659.28099999999995,-1297.3900000000001,-1464.0899999999999
168459.0,7098.21,5538.9499999999998,1254.76,8331.9899999999998,-711.91300000000001,-1099.71,-1540.0
168460.0,7078.9200000000001,5408.6800000000003,1282.9300000000001,8377.7299999999996,-779.68700000000001,-886.93899999999996,-1616.6600000000001
168461.0,7063.8100000000004,5334.6999999999998,1318.71,8393.9200000000001,-860.23099999999999,-668.822,-1689.4400000000001
168462.0,7051.8699999999999,5292.0900000000001,1341.74,8360.7800000000007,-952.03099999999995,-454.91699999999997,-1755.4000000000001
168463.0,7041.7200000000003,5298.1999999999998,1375.1099999999999,8303.2000000000007,-1053.21,-253.012,-1812.5999999999999
168464.0,7032.1000000000004,5310.8400000000001,1382.28,8188.6999999999998,-1160.8900000000001,-68.987700000000004,-1859.3599999999999
168465.0,7023.0900000000001,5381.5699999999997,1421.5599999999999,8083.0600000000004,-1273.6099999999999,92.819599999999994,-1893.3199999999999
168466.0,7014.0699999999997,5448.0,1436.1400000000001,7935.0900000000001,-1388.5699999999999,230.01300000000001,-1914.47
168467.0,7006.2200000000003,5536.4799999999996,1461.53,7788.5900000000001,-1503.24,342.47000000000003,-1923.6800000000001
168468.0,7010.9200000000001,5631.3800000000001,1480.3299999999999,7644.3000000000002,-1617.97,432.83600000000001,-1923.4200000000001
168469.0,7030.4700000000003,5747.6999999999998,1516.22,7534.4700000000003,-1729.24,509.33100000000002,-1916.5899999999999
168470.0,7072.3400000000001,5864.0299999999997,1536.1300000000001,7430.8599999999997,-1842.77,570.154,-1905.1400000000001
168471.0,7195.1899999999996,5650.25,1286.3599999999999,8423.3400000000001,-631.53800000000001,-1375.25,-1421.9000000000001
168472.0,7173.9399999999996,5474.6300000000001,1317.9400000000001,8524.9500000000007,-681.91499999999996,-1159.28,-1502.97
168473.0,7159.79,5346.1599999999999,1346.5,8584.8899999999994,-749.01599999999996,-928.58000000000004,-1586.6400000000001
168474.0,7153.1300000000001,5267.5500000000002,1370.3,8603.1800000000003,-830.54600000000005,-692.41200000000003,-1667.8099999999999
168475.0,7151.4899999999998,5236.0299999999997,1393.04,8582.3199999999997,-924.34199999999998,-461.25900000000001,-1743.21
168476.0,7154.1499999999996,5248.9300000000003,1417.8699999999999,8529.0499999999993,-1029.46,-242.75899999999999,-1809.51
168477.0,7159.0299999999997,5306.1199999999999,1451.03,8453.3799999999992,-1142.24,-43.157299999999999,-1864.76
168478.0,7162.5,5373.6400000000003,1468.5699999999999,8333.1599999999999,-1260.8299999999999,133.05199999999999,-1907.3299999999999
168479.0,7166.04,5463.4300000000003,1486.8499999999999,8193.6299999999992,-1381.75,283.02499999999998,-1937.3499999999999
168480.0,7170.7399999999998,5577.9200000000001,1518.21,8057.0100000000002,-1503.51,407.017,-1953.5699999999999
168481.0,7184.8299999999999,5684.0299999999997,1529.9100000000001,7905.1400000000003,-1624.46,507.553,-1959.22
168482.0,7212.8199999999997,5821.9700000000003,1570.6199999999999,7797.8999999999996,-1741.71,593.28999999999996,-1957.01
168483.0,7262.1199999999999,5952.0200000000004,1588.6500000000001,7688.3900000000003,-1860.6900000000001,662.31600000000003,-1949.8299999999999
168484.0,7227.3299999999999,5548.5699999999997,1354.23,8558.2999999999993,-595.87699999999995,-1448.4400000000001,-1366.3
168485.0,7208.7799999999997,5360.6199999999999,1375.1300000000001,8663.8899999999994,-643.07399999999996,-1214.98,-1453.3199999999999
168486.0,7202.3599999999997,5235.0600000000004,1402.5699999999999,8739.7000000000007,-709.48900000000003,-966.69799999999998,-1544.72
168487.0,7206.9399999999996,5172.3500000000004,1431.52,8781.2800000000007,-791.85400000000004,-713.16200000000003,-1634.48
168488.0,7219.2299999999996,5156.04,1454.5599999999999,8779.0599999999995,-888.423,-464.95699999999999,-1718.8199999999999
168489.0,7236.0100000000002,5190.04,1482.9300000000001,8744.6800000000003,-997.25999999999999,-230.03899999999999,-1794.6199999999999
168490.0,7254.8299999999999,5240.6899999999996,1490.0999999999999,8654.7999999999993,-1114.6600000000001,-15.016500000000001,-1859.79
168491.0,7274.1800000000003,5348.1099999999997,1525.8599999999999,8564.5699999999997,-1239.1500000000001,175.40799999999999,-1911.8599999999999
168492.0,7293.3199999999997,5458.4200000000001,1541.6600000000001,8432.4300000000003,-1366.8,338.351,-1950.24
168493.0,7311.3100000000004,5588.5,1567.21,8295.0200000000004,-1495.4000000000001,473.88499999999999,-1974.27
168494.0,7338.1000000000004,5721.1899999999996,1584.53,8151.8100000000004,-1622.98,584.55100000000004,-1987.1199999999999
168495.0,7375.5799999999999,5875.5,1623.95,8042.3999999999996,-1746.3299999999999,679.52999999999997,-1990.0599999999999
168496.0,7432.9200000000001,6023.1599999999999,1642.1700000000001,7930.6599999999999,-1870.4200000000001,757.20299999999997,-1986.99
168497.0,7214.29,5398.3000000000002,1422.4400000000001,8639.2600000000002,-551.58199999999999,-1516.1800000000001,-1296.1500000000001
168498.0,7199.29,5212.96,1446.55,8764.3700000000008,-595.58100000000002,-1265.8199999999999,-1388.5599999999999
168499.0,7201.6499999999996,5093.0600000000004,1472.55,8858.2000000000007,-661.18299999999999,-1000.08,-1487.25
168500.0,7218.4200000000001,5031.2799999999997,1489.47,8907.9799999999996,-743.88400000000001,-729.67100000000005,-1585.8199999999999
168501.0,7245.3699999999999,5029.2799999999997,1509.6800000000001,8922.5200000000004,-842.72199999999998,-464.92700000000002,-1680.1700000000001
168502.0,7279.2600000000002,5075.3100000000004,1529.1099999999999,8898.7199999999993,-954.96900000000005,-214.25299999999999,-1766.5
168503.0,7317.4499999999998,5174.0,1560.55,8852.3799999999992,-1077.79,15.6244,-1842.1300000000001
168504.0,7354.8900000000003,5285.3100000000004,1575.75,8756.7199999999993,-1208.1199999999999,220.00200000000001,-1904.52
168505.0,7391.5699999999997,5421.8599999999997,1593.0599999999999,8637.8500000000004,-1342.55,395.56200000000001,-1953.02
168506.0,7426.3199999999997,5579.8699999999999,1622.1400000000001,8513.2099999999991,-1478.26,542.553,-1986.1099999999999
168507.0,7466.75,5731.8900000000003,1636.26,8372.1700000000001,-1612.72,663.51199999999994,-2005.8399999999999
168508.0,7515.0500000000002,5907.0900000000001,1677.0699999999999,8265.1000000000004,-1741.9300000000001,767.81399999999996,-2014.6800000000001
168509.0,7581.4200000000001,6072.5500000000002,1695.6300000000001,8152.1300000000001,-1871.3199999999999,853.774,-2016.7
168510.0,7149.7399999999998,5199.5200000000004,1497.0599999999999,8662.2700000000004,-497.34699999999998,-1577.0799999999999,-1210.45
168511.0,7140.7799999999997,5002.6499999999996,1508.0699999999999,8793.1299999999992,-537.63499999999999,-1310.7,-1309.4300000000001
168512.0,7154.6099999999997,4893.6499999999996,1533.6900000000001,8909.3099999999995,-602.04300000000001,-1028.6500000000001,-1416.5
168513.0,7186.4700000000003,4847.7299999999996,1550.26,8983.1299999999992,-684.90099999999995,-742.399,-1524.6199999999999
168514.0,7231.5900000000001,4872.5900000000001,1576.25,9028.5799999999999,-786.47199999999998,-462.03199999999998,-1629.1199999999999
168515.0,7285.04,4938.5299999999997,1591.55,9024.6399999999994,-902.20399999999995,-196.172,-1726.23
168516.0,7342.8400000000001,5046.2600000000002,1606.3900000000001,8982.7399999999998,-1030.3900000000001,48.2881,-1812.51
168517.0,7400.8599999999997,5191.4499999999998,1628.0,8912.7900000000009,-1166.51,266.35300000000001,-1885.9300000000001
168518.0,7457.9899999999998,5364.2700000000004,1653.8,8819.3999999999996,-1308.4100000000001,454.54899999999998,-1944.24
168519.0,7511.3299999999999,5535.2299999999996,1668.75,8693.2399999999998,-1451.04,612.96100000000001,-1986.8900000000001
168520.0,7568.0299999999997,5723.3599999999997,1694.8199999999999,8572.1100000000006,-1592.8900000000001,743.93100000000004,-2015.1199999999999
168521.0,7628.9200000000001,5908.8599999999997,1724.74,8457.5300000000007,-1727.8099999999999,857.52200000000005,-2030.76
168522.0,7705.1400000000003,6104.3800000000001,1754.24,8356.3500000000004,-1862.5699999999999,952.27599999999995,-2037.1400000000001
168523.0,7033.2299999999996,4941.4399999999996,1572.1900000000001,8615.5900000000001,-432.47000000000003,-1631.0799999999999,-1109.5899999999999
168524.0,7031.5699999999997,4755.6599999999999,1588.3900000000001,8774.0400000000009,-469.23899999999998,-1348.27,-1214.1700000000001
168525.0,7057.29,4657.4700000000003,1611.23,8912.3799999999992,-532.28399999999999,-1051.2,-1328.53
168526.0,7105.8599999999997,4620.9300000000003,1617.04,9003.8299999999999,-615.37900000000002,-749.798,-1445.8699999999999
168527.0,7170.3500000000004,4663.1599999999999,1636.5599999999999,9071.2600000000002,-719.07799999999997,-454.87200000000001,-1560.8499999999999
168528.0,7245.46,4749.3299999999999,1644.46,9087.8899999999994,-838.20899999999995,-174.70500000000001,-1669.6700000000001
168529.0,7326.71,4904.0200000000004,1677.21,9090.6000000000004,-971.70000000000005,83.376599999999996,-1768.0699999999999
168530.0,7408.8500000000004,5063.7600000000002,1682.1400000000001,9028.6299999999992,-1113.8299999999999,314.447,-1853.76
168531.0,7488.9899999999998,5264.0699999999997,1705.49,8953.1100000000006,-1263.1900000000001,514.69799999999998,-1923.8
168532.0,7564.04,5466.04,1721.52,8844.75,-1413.04,684.226,-1977.49
168533.0,7638.6400000000003,5681.54,1748.52,8736.5300000000007,-1562.51,825.59900000000005,-2013.52
168534.0,7713.3500000000004,5888.1999999999998,1776.53,8625.8299999999999,-1702.8699999999999,948.39499999999998,-2036.45
168535.0,7800.3400000000001,6104.9300000000003,1808.3900000000001,8528.3600000000006,-1843.2,1051.48,-2048.6500000000001
168536.0,6860.8400000000001,4630.3900000000003,1660.0599999999999,8503.0300000000007,-355.76100000000002,-1675.4200000000001,-991.14700000000005
168537.0,6868.25,4433.6999999999998,1654.1800000000001,8663.1800000000003,-388.738,-1377.9400000000001,-1103.53
168538.0,6909.0299999999997,4353.6899999999996,1677.4400000000001,8831.7000000000007,-449.57100000000003,-1067.3800000000001,-1226.28
168539.0,6975.8199999999997,4336.5,1678.8699999999999,8950.3199999999997,-532.98000000000002,-752.66099999999994,-1353.78
168540.0,7061.96,4412.7399999999998,1704.9300000000001,9057.7199999999993,-638.53099999999995,-444.39499999999998,-1479.8499999999999
168541.0,7161.4499999999998,4523.9099999999999,1706.51,9101.75,-761.65300000000002,-151.20400000000001,-1600.5699999999999
168542.0,7267.8299999999999,4697.54,1725.9300000000001,9122.9799999999996,-900.37599999999998,119.955,-1710.8
168543.0,7375.8500000000004,4894.6999999999998,1734.24,9093.7099999999991,-1049.0599999999999,363.50700000000001,-1808.7
168544.0,7481.1999999999998,5137.4200000000001,1766.9100000000001,9053.3299999999999,-1206.0,575.971,-1890.02
168545.0,7580.3000000000002,5361.1599999999999,1771.71,8955.4099999999999,-1363.4200000000001,756.42600000000004,-1954.78
168546.0,7675.2200000000003,5611.1700000000001,1805.3099999999999,8868.1599999999999,-1520.54,907.66600000000005,-2001.0899999999999
168547.0,7765.8999999999996,5832.8900000000003,1823.5999999999999,8756.6200000000008,-1666.5999999999999,1039.53,-2032.24
168548.0,7864.3999999999996,6081.8100000000004,1866.9100000000001,8675.0400000000009,-1812.1700000000001,1151.47,-2049.29
168549.0,6638.1300000000001,4240.8400000000001,1735.4000000000001,8296.4699999999993,-265.46800000000002,-1708.75,-857.77300000000002
168550.0,6651.3699999999999,4074.54,1748.3699999999999,8497.0300000000007,-296.25099999999998,-1398.4200000000001,-975.32799999999997
168551.0,6706.8999999999996,4007.0300000000002,1761.4100000000001,8688.4599999999991,-354.36200000000002,-1075.3499999999999,-1105.3299999999999
168552.0,6793.5500000000002,4014.25,1760.05,8841.2199999999993,-438.48099999999999,-749.34699999999998,-1242.1800000000001
168553.0,6902.7700000000004,4105.5699999999997,1768.77,8970.3299999999999,-545.44500000000005,-429.161,-1379.45
168554.0,7027.5,4252.8500000000004,1772.3499999999999,9054.5599999999995,-672.58199999999999,-124.339,-1512.4300000000001
168555.0,7161.25,4464.7399999999998,1794.0,9115.0499999999993,-815.98099999999999,158.62299999999999,-1636.3099999999999
168556.0,7298.3199999999997,4694.5200000000004,1797.5899999999999,9116.2999999999993,-971.46100000000001,413.72000000000003,-1748.03
168557.0,7432.0699999999997,4957.5100000000002,1814.22,9090.5499999999993,-1135.6800000000001,637.25900000000001,-1843.4200000000001
168558.0,7557.9300000000003,5224.6700000000001,1827.21,9026.8600000000006,-1301.3399999999999,828.29499999999996,-1920.6199999999999
168559.0,7675.1499999999996,5500.3500000000004,1855.3399999999999,8954.0900000000001,-1466.02,989.79600000000005,-1976.3599999999999
168560.0,7782.9399999999996,5755.5,1880.6099999999999,8861.5699999999997,-1617.8599999999999,1130.72,-2015.6099999999999
168561.0,7893.6099999999997,6015.6199999999999,1914.8,8775.3700000000008,-1768.46,1250.76,-2039.9000000000001
168562.0,6357.3699999999999,3796.46,1831.3,8009.1999999999998,-160.67099999999999,-1726.73,-708.55899999999997
168563.0,6382.8699999999999,3629.4400000000001,1825.9200000000001,8220.25,-189.00299999999999,-1408.8,-831.04700000000003
168564.0,6456.1099999999997,3580.6199999999999,1828.3,8440.6599999999999,-244.43199999999999,-1075.97,-969.87400000000002
168565.0,6561.5900000000001,3617.27,1826.48,8632.7099999999991,-328.721,-740.27999999999997,-1116.99
168566.0,6693.3000000000002,3745.9400000000001,1836.24,8806.1200000000008,-437.214,-410.50700000000001,-1265.6199999999999
168567.0,6845.1300000000001,3927.02,1835.79,8931.4799999999996,-568.34000000000003,-95.675899999999999,-1411.3900000000001
168568.0,7007.9899999999998,4164.6000000000004,1842.96,9021.7600000000002,-717.072,197.76300000000001,-1548.5
168569.0,7174.9799999999996,4440.1499999999996,1852.3800000000001,9069.9500000000007,-879.66800000000001,463.85199999999998,-1673.4200000000001
168570.0,7338.8199999999997,4747.8000000000002,1873.6500000000001,9086.4300000000003,-1051.74,698.53099999999995,-1781.54
168571.0,7493.2399999999998,5051.7399999999998,1885.3699999999999,9053.25,-1225.76,900.11400000000003,-1871.04
168572.0,7634.8900000000003,5352.8199999999997,1906.05,8995.5400000000009,-1397.97,1070.8599999999999,-1939.3299999999999
168573.0,7761.3699999999999,5635.9099999999999,1931.78,8918.4300000000003,-1555.9000000000001,1220.6900000000001,-1987.5999999999999
168574.0,7885.5799999999999,5920.4700000000003,1967.1600000000001,8842.8999999999996,-1710.8,1349.4400000000001,-2017.9400000000001
168575.0,6037.8299999999999,3259.2800000000002,1905.72,7605.0,-45.325299999999999,-1729.8399999999999,-539.29700000000003
168576.0,6071.8100000000004,3137.8600000000001,1928.5799999999999,7870.6599999999999,-66.685699999999997,-1406.47,-666.83199999999999
168577.0,6157.3500000000004,3116.1599999999999,1928.55,8126.9099999999999,-121.09999999999999,-1066.47,-814.06799999999998
168578.0,6281.6099999999997,3183.04,1918.28,8359.1200000000008,-204.96100000000001,-723.47900000000004,-970.29600000000005
168579.0,6436.1599999999999,3335.04,1911.5799999999999,8566.5400000000009,-315.44799999999998,-387.16399999999999,-1130.53
168580.0,6613.3400000000001,3557.3000000000002,1910.21,8741.7600000000002,-449.87,-63.889899999999997,-1289.21
168581.0,6804.96,3837.3499999999999,1917.0699999999999,8881.3400000000001,-603.87400000000002,238.28200000000001,-1440.8399999999999
168582.0,7003.4700000000003,4148.6000000000004,1918.4300000000001,8969.1499999999996,-772.91499999999996,514.14599999999996,-1581.27
168583.0,7199.4700000000003,4483.8199999999997,1924.45,9013.1000000000004,-952.94100000000003,758.40800000000002,-1705.45
168584.0,7384.5799999999999,4827.6400000000003,1935.5999999999999,9016.2299999999996,-1135.4200000000001,969.92399999999998,-1809.27
168585.0,7552.75,5168.9899999999998,1959.9400000000001,8992.2700000000004,-1315.6600000000001,1150.5899999999999,-1888.1300000000001
168586.0,7699.0299999999997,5482.7299999999996,1987.1600000000001,8935.4400000000005,-1479.47,1309.27,-1945.6400000000001
168587.0,7836.5900000000001,5782.1700000000001,2015.1500000000001,8861.4200000000001,-1638.5999999999999,1445.71,-1984.53
168588.0,5699.2600000000002,2645.5300000000002,1976.47,7095.8599999999997,83.713800000000006,-1717.3699999999999,-356.73000000000002
168589.0,5737.1800000000003,2543.3099999999999,1999.45,7386.1700000000001,73.991399999999999,-1390.76,-487.59199999999998
168590.0,5828.3699999999999,2559.1799999999998,2007.0899999999999,7686.7700000000004,18.524100000000001,-1047.9000000000001,-644.64599999999996
168591.0,5964.0900000000001,2653.9499999999998,1980.1600000000001,7954.2399999999998,-63.652500000000003,-700.16700000000003,-810.17200000000003
168592.0,6135.3199999999997,2862.1300000000001,1988.5799999999999,8230.4099999999999,-176.209,-360.0,-981.36900000000003
168593.0,6336.46,3110.9699999999998,1966.3499999999999,8444.2700000000004,-313.899,-31.217600000000001,-1153.73
168594.0,6556.2299999999996,3438.8000000000002,1974.73,8643.7399999999998,-473.84500000000003,278.13999999999999,-1319.48
168595.0,6785.3599999999997,3788.1500000000001,1967.1500000000001,8778.0499999999993,-649.93399999999997,562.63099999999997,-1474.5
168596.0,7014.0100000000002,4188.4899999999998,1991.8099999999999,8892.3700000000008,-838.73599999999999,816.82299999999998,-1612.3900000000001
168597.0,7230.3900000000003,4565.5900000000001,1992.8399999999999,8928.8700000000008,-1029.9000000000001,1038.1400000000001,-1730.1500000000001
168598.0,7425.6800000000003,4942.8800000000001,2015.25,8935.1900000000005,-1217.9200000000001,1227.6600000000001,-1823.1600000000001
168599.0,7592.5799999999999,5275.9200000000001,2031.8900000000001,8889.7199999999993,-1387.79,1394.72,-1890.97
168600.0,7745.4399999999996,5614.1800000000003,2072.6900000000001,8844.2199999999993,-1550.5,1539.8399999999999,-1936.6600000000001
168601.0,5355.25,1939.3399999999999,2045.28,6452.0799999999999,233.77000000000001,-1686.4100000000001,-168.124
168602.0,5395.2399999999998,1904.8199999999999,2110.7600000000002,6818.4099999999999,230.298,-1356.0599999999999,-293.815
168603.0,5481.4300000000003,1968.2,2129.25,7170.8100000000004,173.87,-1014.89,-450.99700000000001
168604.0,5622.79,2100.2399999999998,2087.5900000000001,7485.5600000000004,92.430099999999996,-668.97299999999996,-626.553
168605.0,5806.7200000000003,2333.6199999999999,2072.9299999999998,7804.6199999999999,-21.698899999999998,-328.048,-809.88
168606.0,6022.6300000000001,2636.0700000000002,2054.8800000000001,8087.25,-162.89699999999999,3.4466399999999999,-995.17499999999995
168607.0,6265.1599999999999,3003.9000000000001,2053.5799999999999,8342.3500000000004,-327.62400000000002,318.09100000000001,-1176.3199999999999
168608.0,6522.5,3398.4400000000001,2041.1099999999999,8534.4599999999991,-510.827,609.59000000000003,-1348.22
168609.0,6781.6499999999996,3824.5799999999999,2042.9400000000001,8682.0200000000004,-707.27999999999997,872.16099999999994,-1503.8699999999999
168610.0,7029.6400000000003,4245.7200000000003,2041.97,8766.0900000000001,-907.70600000000002,1102.28,-1637.78
168611.0,7254.0299999999997,4669.6999999999998,2069.2199999999998,8819.2600000000002,-1103.8599999999999,1301.4000000000001,-1742.8199999999999
168612.0,7442.29,5038.2600000000002,2089.5100000000002,8804.0,-1279.97,1476.9300000000001,-1821.05
168613.0,7608.1800000000003,5387.2799999999997,2117.4299999999998,8759.7000000000007,-1445.8699999999999,1629.1700000000001,-1875.96
168614.0,5045.2200000000003,1207.8499999999999,2198.27,5741.5299999999997,396.88999999999999,-1625.78,49.158900000000003
168615.0,5086.4200000000001,1158.8499999999999,2197.1900000000001,6090.5699999999997,401.02999999999997,-1302.6199999999999,-80.431100000000001
168616.0,5166.7399999999998,1251.5,2193.7199999999998,6482.0900000000001,349.20499999999998,-971.07799999999997,-246.268
168617.0,5288.04,1437.1900000000001,2159.5500000000002,6859.5500000000002,267.38999999999999,-629.73099999999999,-429.09699999999998
168618.0,5462.5699999999997,1730.8699999999999,2151.96,7253.6199999999999,152.69999999999999,-291.84300000000002,-622.29899999999998
168619.0,5685.0799999999999,2068.0,2115.25,7594.9200000000001,8.0273900000000005,37.822600000000001,-822.12199999999996
168620.0,5942.0100000000002,2485.04,2108.8499999999999,7920.8699999999999,-162.232,355.39800000000002,-1018.98
168621.0,6221.0200000000004,2931.6700000000001,2096.2600000000002,8184.8599999999997,-353.20999999999998,652.71100000000001,-1206.4000000000001
168622.0,6508.6800000000003,3419.98,2106.6700000000001,8409.5,-558.56899999999996,923.53300000000002,-1377.8399999999999
168623.0,6786.04,3895.3000000000002,2111.2600000000002,8556.8700000000008,-768.87800000000004,1162.8099999999999,-1526.54
168624.0,7035.8100000000004,4340.4399999999996,2117.7399999999998,8631.5100000000002,-972.43499999999995,1370.3699999999999,-1647.29
168625.0,7245.1000000000004,4744.8000000000002,2140.4499999999998,8649.8199999999997,-1154.6500000000001,1553.9200000000001,-1736.47
168626.0,7426.3000000000002,5121.3599999999997,2169.0100000000002,8627.6700000000001,-1323.5,1714.25,-1799.6900000000001
168627.0,4876.2200000000003,315.85399999999998,2271.6399999999999,4830.6400000000003,576.43799999999999,-1546.53,275.04500000000002
168628.0,4883.0200000000004,363.82299999999998,2321.73,5262.54,586.59199999999998,-1225.3699999999999,149.93100000000001
168629.0,4914.9700000000003,531.84799999999996,2347.54,5723.0500000000002,542.01300000000003,-904.69299999999998,-13.0351
168630.0,5000.8199999999997,755.21799999999996,2288.8899999999999,6155.79,459.58100000000002,-580.85400000000004,-205.524
168631.0,5148.6599999999999,1073.99,2242.27,6600.6199999999999,343.58699999999999,-252.94999999999999,-412.584
168632.0,5350.96,1478.3499999999999,2219.77,7037.2700000000004,196.09399999999999,72.489900000000006,-624.97699999999998
168633.0,5605.0799999999999,1935.8900000000001,2196.4899999999998,7432.9300000000003,20.6129,389.76900000000001,-838.06399999999996
168634.0,5894.3199999999997,2429.8000000000002,2176.1999999999998,7770.5299999999997,-177.512,691.78399999999999,-1044.1300000000001
168635.0,6199.04,2949.5900000000001,2163.1599999999999,8044.1300000000001,-391.22800000000001,969.428,-1234.25
168636.0,6500.0699999999997,3464.4499999999998,2157.0100000000002,8243.9699999999993,-610.82399999999996,1217.1600000000001,-1400.5999999999999
168637.0,6776.21,3968.71,2175.0500000000002,8385.4699999999993,-822.97500000000002,1433.4000000000001,-1535.5899999999999
168638.0,7004.9200000000001,4406.6599999999999,2197.8099999999999,8439.0599999999995,-1011.58,1625.1300000000001,-1636.02
168639.0,7197.3900000000003,4795.2600000000002,2212.75,8423.9099999999999,-1182.3699999999999,1792.24,-1709.25
168640.0,4905.46,-561.35000000000002,2490.4299999999998,3864.0100000000002,774.149,-1419.27,526.20600000000002
168641.0,4864.3500000000004,-563.52999999999997,2401.3600000000001,4224.1899999999996,790.66099999999994,-1123.74,400.13
168642.0,4837.9200000000001,-368.29199999999997,2380.8200000000002,4723.7600000000002,753.10799999999995,-828.06799999999998,230.12899999999999
168643.0,4835.7799999999997,-63.980699999999999,2359.9000000000001,5248.2600000000002,671.36500000000001,-519.61300000000006,35.150399999999998
168644.0,4901.3299999999999,347.35000000000002,2340.9899999999998,5804.1499999999996,555.37,-208.23099999999999,-178.23099999999999
168645.0,5058.2600000000002,767.86500000000001,2270.29,6300.5699999999997,406.971,103.941,-408.69499999999999
168646.0,5282.9200000000001,1297.28,2261.8099999999999,6809.6000000000004,225.048,418.608,-640.93200000000002
168647.0,5559.6199999999999,1836.5,2228.4699999999998,7226.4700000000003,18.981400000000001,724.01700000000005,-864.65999999999997
168648.0,5869.5200000000004,2434.4499999999998,2234.8200000000002,7606.4499999999998,-204.50999999999999,1008.4,-1072.8900000000001
168649.0,6185.46,3002.23,2227.4299999999998,7879.1800000000003,-434.45499999999998,1264.4100000000001,-1256.1800000000001
168650.0,6477.8999999999996,3536.9099999999999,2229.5599999999999,8060.4899999999998,-654.63499999999999,1489.4100000000001,-1406.73
168651.0,6722.1899999999996,4004.0,2245.73,8147.3800000000001,-848.87099999999998,1688.74,-1519.45
168652.0,6926.3500000000004,4428.71,2269.23,8168.9300000000003,-1021.88,1863.3299999999999,-1601.6700000000001
168653.0,5254.7700000000004,-1702.97,2511.1700000000001,2575.6399999999999,989.58600000000001,-1267.5799999999999,778.80999999999995
168654.0,5135.5299999999997,-1537.98,2545.0700000000002,3071.1999999999998,1007.6799999999999,-982.84500000000003,666.60900000000004
168655.0,4993.1599999999999,-1224.7,2575.1700000000001,3658.5700000000002,979.06700000000001,-713.30399999999997,516.37900000000002
168656.0,4876.3800000000001,-905.66200000000003,2473.5500000000002,4231.0600000000004,899.41899999999998,-452.226,311.86200000000002
168657.0,4828.5200000000004,-492.733,2378.1300000000001,4840.5900000000001,782.27800000000002,-168.97300000000001,77.605699999999999
168658.0,4877.5799999999999,51.039900000000003,2377.6300000000001,5501.4099999999999,636.62900000000002,132.01400000000001,-167.137
168659.0,5024.5500000000002,616.52200000000005,2353.52,6096.7399999999998,450.262,440.084,-418.72699999999998
168660.0,5254.1199999999999,1218.9100000000001,2320.9400000000001,6620.3500000000004,235.18799999999999,747.63199999999995,-664.72299999999996
168661.0,5539.9799999999996,1841.27,2292.8000000000002,7058.6000000000004,2.6856300000000002,1038.3399999999999,-892.24699999999996
168662.0,5851.75,2456.98,2277.1700000000001,7403.3500000000004,-237.136,1302.8199999999999,-1094.52
168663.0,6152.7399999999998,3048.9299999999998,2286.9200000000001,7659.2799999999997,-466.41399999999999,1536.3099999999999,-1261.4400000000001
168664.0,6407.4399999999996,3554.8600000000001,2304.2800000000002,7793.71,-666.43799999999999,1743.3299999999999,-1387.1300000000001
168665.0,6616.21,3990.54,2313.9099999999999,7828.75,-841.42899999999997,1924.47,-1478.8699999999999
168666.0,5991.6700000000001,-2688.4099999999999,2894.8299999999999,1319.3099999999999,1221.02,-1008.04,1083.3
168667.0,5747.0799999999999,-2647.4400000000001,2636.75,1626.51,1252.0699999999999,-805.11800000000005,961.99800000000005
168668.0,5468.1800000000003,-2393.8000000000002,2479.1999999999998,2192.3899999999999,1226.3499999999999,-604.89700000000005,787.55499999999995
168669.0,5202.0799999999999,-1920.72,2487.4699999999998,2937.5,1151.1800000000001,-372.18599999999998,592.14599999999996
168670.0,4978.5699999999997,-1354.0699999999999,2485.0700000000002,3735.4299999999998,1040.5999999999999,-125.10299999999999,359.56700000000001
168671.0,4879.8699999999999,-831.29499999999996,2390.1599999999999,4459.6700000000001,893.226,149.33699999999999,91.732200000000006
168672.0,4898.0900000000001,-151.946,2425.4099999999999,5239.71,699.17399999999998,451.72399999999999,-179.012
168673.0,5023.2600000000002,491.42700000000002,2374.2199999999998,5857.4799999999996,474.57799999999997,759.54999999999995,-443.63499999999999
168674.0,5247.7200000000003,1204.0899999999999,2372.8499999999999,6431.6700000000001,231.55099999999999,1057.1099999999999,-693.16499999999996
168675.0,5528.29,1870.22,2348.6199999999999,6860.29,-19.221299999999999,1329.99,-915.02099999999996
168676.0,5817.0299999999997,2503.0900000000001,2349.1300000000001,7178.1199999999999,-257.79500000000002,1572.98,-1097.9300000000001
168677.0,6069.8500000000004,3033.6199999999999,2352.2600000000002,7348.96,-462.64400000000001,1787.5999999999999,-1236.6199999999999
168678.0,6279.1000000000004,3508.8600000000001,2374.9699999999998,7431.3299999999999,-639.74000000000001,1975.76,-1337.8099999999999
168679.0,7077.3699999999999,-4250.2799999999997,2730.3099999999999,-606.00400000000002,1467.3,-716.12,1356.6600000000001
168680.0,6800.3800000000001,-3806.0100000000002,2863.0100000000002,22.005700000000001,1502.47,-529.601,1294.99
168681.0,6386.29,-3239.6300000000001,2937.54,792.16800000000001,1500.45,-392.80000000000001,1163.3299999999999
168682.0,5876.5799999999999,-2885.4899999999998,2643.1599999999999,1488.5899999999999,1436.95,-281.762,928.40300000000002
168683.0,5450.6199999999999,-2369.8200000000002,2496.6500000000001,2374.98,1327.98,-94.172700000000006,654.93100000000004
168684.0,5148.1899999999996,-1640.8299999999999,2568.96,3391.1399999999999,1174.6099999999999,160.221,377.83800000000002
168685.0,4975.3299999999999,-979.41700000000003,2519.3200000000002,4248.8000000000002,973.59699999999998,448.39600000000002,89.111699999999999
168686.0,4940.5,-249.98099999999999,2482.2199999999998,5032.79,737.49599999999998,756.18200000000002,-201.941
168687.0,5044.8299999999999,474.17000000000002,2430.8400000000001,5675.1800000000003,483.21800000000002,1060.6199999999999,-473.553
168688.0,5250.3199999999997,1204.9000000000001,2408.5999999999999,6207.7700000000004,221.048,1344.5799999999999,-716.46699999999998
168689.0,5498.5600000000004,1884.73,2404.7600000000002,6600.8199999999997,-27.408200000000001,1596.5599999999999,-917.51999999999998
168690.0,5733.6099999999997,2461.4499999999998,2413.52,6834.4399999999996,-237.61699999999999,1819.27,-1070.9400000000001
168691.0,5930.3900000000003,2945.46,2420.8699999999999,6936.6000000000004,-416.57499999999999,2013.5,-1181.5799999999999
168692.0,8858.9799999999996,-5291.1599999999999,3524.7800000000002,-2217.2399999999998,1734.2,-105.211,1765.95
168693.0,8262.9599999999991,-5111.0900000000001,2979.0100000000002,-2149.8099999999999,1811.0599999999999,-173.34800000000001,1641.5999999999999
168694.0,7592.0699999999997,-4835.6999999999998,2552.7199999999998,-1506.3,1799.4200000000001,-236.88999999999999,1492.52
168695.0,6974.8100000000004,-4026.5599999999999,2731.5100000000002,-288.53300000000002,1738.29,-154.392,1307.54
168696.0,6330.1400000000003,-3235.23,2800.9299999999998,931.45399999999995,1648.1700000000001,-46.180700000000002,1043.9000000000001
168697.0,5760.6400000000003,-2683.0500000000002,2591.6999999999998,1976.6400000000001,1488.78,141.84700000000001,711.37599999999998
168698.0,5338.5200000000004,-1874.5599999999999,2616.04,3118.79,1271.99,421.37400000000002,381.84199999999998
168699.0,5079.6300000000001,-1128.8900000000001,2530.4400000000001,4013.0100000000002,1027.6700000000001,731.96100000000001,65.9495
168700.0,5001.75,-293.66199999999998,2524.6500000000001,4840.6499999999996,759.40499999999997,1047.25,-233.27500000000001
168701.0,5072.6700000000001,479.20600000000002,2479.3000000000002,5463.6499999999996,484.43299999999999,1342.22,-499.20499999999998
168702.0,5239.8800000000001,1213.72,2476.3899999999999,5946.1800000000003,225.42400000000001,1606.3900000000001,-718.18700000000001
168703.0,5428.4899999999998,1814.1400000000001,2467.2600000000002,6224.1700000000001,9.9453700000000005,1837.05,-884.93700000000001
168704.0,5599.0200000000004,2333.2399999999998,2484.04,6376.8400000000001,-170.01499999999999,2038.3299999999999,-1005.6900000000001
168705.0,11118.700000000001,-8203.4300000000003,2478.77,-5887.7200000000003,1795.3199999999999,513.64099999999996,2478.5999999999999
168706.0,10529.1,-6948.46,2934.9499999999998,-4741.1099999999997,1962.72,475.40699999999998,2441.8800000000001
168707.0,9752.7399999999998,-5402.3699999999999,3640.7800000000002,-3385.23,2154.6999999999998,262.73899999999998,2111.4400000000001
168708.0,8586.1200000000008,-5131.6000000000004,2925.6999999999998,-2561.8400000000001,2119.0100000000002,-68.044799999999995,1771.8599999999999
168709.0,7569.54,-4603.8500000000004,2608.02,-1117.8900000000001,2000.54,-73.408299999999997,1443.6800000000001
168710.0,6751.5900000000001,-3565.4899999999998,2865.98,561.61500000000001,1833.8399999999999,105.747,1096.6700000000001
168711.0,6050.9200000000001,-2872.98,2717.23,1777.8199999999999,1609.3699999999999,356.78699999999998,725.74199999999996
168712.0,5509.0600000000004,-2006.9300000000001,2657.0700000000002,2935.2600000000002,1346.9300000000001,681.44100000000003,358.81
168713.0,5189.54,-1177.9400000000001,2580.4299999999998,3846.1999999999998,1062.52,1009.46,29.764199999999999
168714.0,5066.0500000000002,-316.06900000000002,2554.3800000000001,4618.9700000000003,772.38099999999997,1321.78,-261.74400000000003
168715.0,5096.7299999999996,452.15100000000001,2528.79,5174.29,502.18099999999998,1597.75,-502.28300000000002
168716.0,5205.6599999999999,1106.9000000000001,2533.0700000000002,5533.7200000000003,279.78699999999998,1838.53,-684.65800000000002
168717.0,5324.6999999999998,1630.6300000000001,2529.1399999999999,5708.6800000000003,99.511099999999999,2045.4100000000001,-816.10199999999998
168718.0,17129.200000000001,-9184.9899999999998,5489.5100000000002,-9318.6200000000008,2637.21,3099.2199999999998,2967.0700000000002
168719.0,15127.5,-8355.3099999999995,4053.6100000000001,-9860.3999999999996,2547.73,1445.47,3064.7399999999998
168720.0,12350.6,-8755.5400000000009,1590.0,-8417.3700000000008,2357.3400000000001,451.90600000000001,3245.8499999999999
168721.0,10811.299999999999,-6739.0299999999997,2697.4299999999998,-5310.5,2460.52,172.994,2647.3299999999999
168722.0,9503.5900000000001,-5308.8999999999996,3310.0300000000002,-3128.6500000000001,2440.48,-52.616500000000002,2016.1099999999999
168723.0,8169.6099999999997,-4991.6899999999996,2691.0900000000001,-1574.4000000000001,2237.8400000000001,-61.027299999999997,1555.52
168724.0,7102.6499999999996,-3920.1399999999999,2818.46,327.90899999999999,1986.9300000000001,250.256,1093.53
168725.0,6270.1400000000003,-3077.5599999999999,2696.9400000000001,1596.1099999999999,1699.25,585.875,688.64599999999996
168726.0,5669.0,-2084.3000000000002,2694.2600000000002,2787.3899999999999,1396.4000000000001,948.01700000000005,317.87400000000002
168727.0,5293.5500000000002,-1200.99,2621.2600000000002,3649.2199999999998,1086.1700000000001,1276.3099999999999,-2.6284800000000001
168728.0,5140.3100000000004,-351.75200000000001,2613.1300000000001,4334.8299999999999,804.01400000000001,1571.9100000000001,-265.45699999999999
168729.0,5124.2799999999997,324.87900000000002,2596.8800000000001,4746.7200000000003,573.32399999999996,1822.53,-461.54000000000002
168730.0,5167.2700000000004,875.56600000000003,2591.1900000000001,4970.7299999999996,394.41500000000002,2037.1400000000001,-604.49000000000001
168731.0,22793.5,-30105.200000000001,-12528.799999999999,-22713.599999999999,-1607.03,6080.1599999999999,7466.46
168732.0,23176.200000000001,-15008.4,-640.39700000000005,-18764.5,2180.3699999999999,5609.1800000000003,7164.04
168733.0,21398.299999999999,-7216.1499999999996,6853.6999999999998,-13668.6,4334.5200000000004,1939.05,4467.0600000000004
168734.0,15614.1,-8144.9399999999996,3666.9699999999998,-10590.200000000001,3224.6799999999998,99.464699999999993,3567.8899999999999
168735.0,11866.0,-7770.3900000000003,1867.5899999999999,-6998.3400000000001,2983.8099999999999,-333.827,3039.3099999999999
168736.0,10149.799999999999,-5905.5699999999997,3298.9699999999998,-3340.7199999999998,2696.3600000000001,-224.93600000000001,2110.5
168737.0,8600.8999999999996,-5184.3299999999999,2867.5599999999999,-1580.77,2430.8299999999999,43.251199999999997,1574.8
168738.0,7398.8699999999999,-4139.0299999999997,2862.1900000000001,257.62799999999999,2099.96,454.53199999999998,1053.28
168739.0,6442.8500000000004,-3147.6300000000001,2731.4000000000001,1504.46,1760.4400000000001,845.89599999999996,635.36199999999997
168740.0,5817.7299999999996,-2146.23,2717.8699999999999,2598.96,1430.8199999999999,1207.97,277.77699999999999
168741.0,5419.7299999999996,-1263.1199999999999,2657.3299999999999,3354.8000000000002,1130.5599999999999,1521.8,-13.6778
168742.0,5258.0900000000001,-532.42999999999995,2661.6900000000001,3867.6799999999998,890.505,1789.3099999999999,-227.11500000000001
168743.0,5187.3199999999997,32.634,2632.3600000000001,4124.0299999999997,709.89599999999996,2008.23,-381.17000000000002
168744.0,20532.900000000001,-63509.0,-47555.0,-45815.199999999997,-4859.2600000000002,2425.6700000000001,3991.5799999999999
168745.0,27510.299999999999,-57825.300000000003,-49055.199999999997,-49488.599999999999,-5442.8000000000002,7918.6099999999997,11640.9
168746.0,29020.799999999999,-26250.200000000001,-17889.5,-32275.200000000001,815.64400000000001,5427.6000000000004,14086.200000000001
168747.0,24801.799999999999,-11782.5,1785.8299999999999,-19215.0,4971.8900000000003,452.89800000000002,8168.3800000000001
168748.0,17587.299999999999,-8247.3799999999992,4704.1099999999997,-10906.6,3994.54,-781.39599999999996,4097.0699999999997
168749.0,12712.700000000001,-8013.3999999999996,2234.9000000000001,-7076.1300000000001,3490.4499999999998,-716.45399999999995,3012.3899999999999
168750.0,10568.4,-6683.5600000000004,3054.5999999999999,-3384.3099999999999,2910.5599999999999,-345.78800000000001,2027.3699999999999
168751.0,8801.2600000000002,-5396.7799999999997,2844.8699999999999,-1480.27,2559.52,302.85899999999998,1477.4100000000001
168752.0,7590.2299999999996,-4282.9499999999998,2872.77,178.98599999999999,2167.3400000000001,683.68100000000004,988.66800000000001
168753.0,6611.3199999999997,-3175.5700000000002,2778.3499999999999,1399.73,1803.96,1125.3699999999999,579.02200000000005
168754.0,5992.3000000000002,-2219.6700000000001,2753.9899999999998,2319.5900000000001,1485.76,1450.26,264.59100000000001
168755.0,5631.6999999999998,-1418.29,2738.54,2924.0300000000002,1226.77,1743.01,27.1419
168756.0,5446.8900000000003,-862.14400000000001,2684.7199999999998,3215.3099999999999,1048.3299999999999,1964.3399999999999,-131.71199999999999
168757.0,19470.0,-65065.0,-43836.300000000003,-50870.599999999999,-1392.8800000000001,-1798.55,-2061.0799999999999
168758.0,23123.299999999999,-101793.0,-93717.5,-83340.899999999994,-8703.1700000000001,4015.2399999999998,894.74599999999998
168759.0,27605.799999999999,-85398.5,-93571.0,-83215.699999999997,-4513.4499999999998,7847.7299999999996,11927.700000000001
168760.0,30986.200000000001,-31450.400000000001,-29329.900000000001,-41021.0,5913.5500000000002,2369.5,15513.5
168761.0,26772.200000000001,-14794.4,411.94099999999997,-20443.400000000001,5442.7600000000002,-2570.8499999999999,9291.6499999999996
168762.0,17111.099999999999,-10421.799999999999,2434.3499999999999,-10413.799999999999,4306.6899999999996,-1875.24,4524.8100000000004
168763.0,12967.0,-7927.9799999999996,3477.3299999999999,-5159.8500000000004,3634.96,-416.90699999999998,2696.27
168764.0,10636.1,-7069.1999999999998,2689.8000000000002,-3676.3299999999999,3046.3600000000001,-128.22900000000001,1966.23
168765.0,9054.4200000000001,-5398.8100000000004,3128.0300000000002,-1108.4300000000001,2642.2199999999998,558.971,1362.6300000000001
168766.0,7675.1499999999996,-4419.3000000000002,2723.79,-47.762700000000002,2213.04,979.11900000000003,900.26700000000005
168767.0,6838.8900000000003,-3179.7600000000002,2904.2199999999998,1257.24,1865.3299999999999,1385.96,536.10500000000002
168768.0,6226.1599999999999,-2437.75,2713.2600000000002,1811.97,1579.7,1667.8099999999999,277.68900000000002
168769.0,5940.6700000000001,-1731.75,2789.0599999999999,2325.77,1383.97,1910.98,103.145
168770.0,23278.099999999999,-58594.099999999999,-33751.800000000003,-52852.0,-1120.7,-2515.02,1971.75
168771.0,20971.200000000001,-99755.5,-79111.800000000003,-83186.300000000003,-3797.4400000000001,-427.29899999999998,-3527.48
168772.0,33520.099999999999,-137263.0,-140440.0,-122561.0,-14888.0,7822.1199999999999,845.86699999999996
168773.0,39853.099999999999,-93856.699999999997,-119699.0,-101767.0,896.30200000000002,8046.1700000000001,16986.799999999999
168774.0,39387.599999999999,-26108.700000000001,-18517.900000000001,-34734.900000000001,14612.799999999999,-3315.7399999999998,15058.700000000001
168775.0,27138.099999999999,-13429.700000000001,9126.6700000000001,-13372.1,4815.3299999999999,-4876.6099999999997,5418.3699999999999
168776.0,14772.799999999999,-11065.9,-435.66800000000001,-9964.7399999999998,4878.3599999999997,-299.18200000000002,3832.4699999999998
168777.0,13591.200000000001,-8226.3799999999992,4272.8199999999997,-4708.3299999999999,3608.6700000000001,-814.68200000000002,2518.4400000000001
168778.0,10506.5,-7178.1300000000001,2490.1599999999999,-3286.23,3156.6500000000001,413.93900000000002,1730.6600000000001
168779.0,9203.8199999999997,-5413.7200000000003,3228.1599999999999,-1079.78,2705.2199999999998,817.43100000000004,1256.8900000000001
168780.0,7787.6899999999996,-4374.7799999999997,2755.8899999999999,-163.155,2230.23,1322.46,801.45799999999997
168781.0,7085.4399999999996,-3219.9400000000001,2998.6300000000001,981.51700000000005,1960.4200000000001,1593.0799999999999,536.77099999999996
168782.0,6481.8599999999997,-2639.46,2702.25,1320.6900000000001,1677.5799999999999,1845.01,314.54500000000002
168783.0,21293.299999999999,-13933.799999999999,3854.1199999999999,-13532.4,6513.9300000000003,1270.77,1986.22
168784.0,24264.5,-17068.700000000001,3625.1300000000001,-15914.4,7401.9899999999998,1066.0799999999999,2258.96
168785.0,27790.599999999999,-19851.099999999999,4299.7299999999996,-17603.099999999999,8486.9899999999998,845.93600000000004,2585.6100000000001
168786.0,31421.799999999999,-24126.400000000001,3552.4299999999998,-20894.400000000001,9565.4699999999993,731.09400000000005,2835.7199999999998
168787.0,36318.099999999999,-27385.200000000001,4956.1999999999998,-22446.5,11195.200000000001,550.16999999999996,3238.79
168788.0,41543.900000000001,-34550.5,3073.5700000000002,-28366.099999999999,12471.6,1049.99,3407.6399999999999
168789.0,48877.800000000003,-36887.099999999999,4944.3999999999996,-32053.099999999999,15898.799999999999,1348.3099999999999,4252.4899999999998
168790.0,61695.199999999997,-53124.5,1090.3299999999999,-44388.900000000001,19545.099999999999,701.25699999999995,6240.3500000000004
168791.0,91907.600000000006,-75333.899999999994,-8127.4700000000003,-65411.300000000003,37311.0,-7215.7600000000002,7442.7399999999998
168792.0,118680.0,-178108.0,-241678.0,-231649.0,59089.5,-1435.2,5767.6000000000004
168793.0,109761.0,-338167.0,-458740.0,-413027.0,-13785.5,7090.4899999999998,-8384.3700000000008
168794.0,80519.800000000003,-312942.0,-305852.0,-326753.0,-44522.5,5761.5100000000002,-5720.1000000000004
168795.0,55680.5,-226188.0,-172006.0,-215181.0,-4141.6000000000004,9149.3600000000006,10603.4
168796.0,19980.799999999999,-13123.799999999999,3638.1300000000001,-12431.799999999999,6123.3100000000004,1424.0799999999999,1899.1900000000001
168797.0,23048.0,-15831.0,3946.1900000000001,-14269.5,7060.6899999999996,1199.48,2209.02
168798.0,26365.200000000001,-19268.900000000001,3724.1100000000001,-16782.0,8075.5799999999999,915.35799999999995,2535.3000000000002
168799.0,30419.5,-22628.299999999999,4398.7799999999997,-18588.299999999999,9339.1100000000006,691.52700000000004,2866.9400000000001
168800.0,34922.800000000003,-27874.900000000001,3383.6999999999998,-22487.599999999999,10801.200000000001,533.82399999999996,3216.1700000000001
168801.0,41387.5,-32608.099999999999,5371.0299999999997,-23712.799999999999,12829.1,400.84100000000001,3414.8899999999999
168802.0,49581.900000000001,-44127.599999999999,-227.03299999999999,-33141.699999999997,16635.900000000001,2918.3000000000002,3507.0300000000002
168803.0,67667.800000000003,-50177.0,11233.799999999999,-37999.099999999999,20718.400000000001,5146.4200000000001,3650.2399999999998
168804.0,84376.5,-77075.800000000003,-26929.799999999999,-81226.899999999994,36266.699999999997,1532.4100000000001,11923.5
168805.0,91164.600000000006,-177007.0,-213096.0,-224115.0,29674.099999999999,11568.9,33893.400000000001
168806.0,104563.0,-263129.0,-313324.0,-317912.0,-23931.5,26982.400000000001,37684.0
168807.0,87469.5,-238977.0,-211614.0,-269369.0,-32422.700000000001,19079.200000000001,17330.900000000001
168808.0,69504.199999999997,-177422.0,-120742.0,-195073.0,-2639.1599999999999,3202.98,9209.1299999999992
168809.0,18648.299999999999,-12123.4,3600.02,-11091.700000000001,5722.5799999999999,1579.96,1822.05
168810.0,21590.400000000001,-14904.1,3707.8200000000002,-13077.299999999999,6620.8500000000004,1262.98,2168.8899999999999
168811.0,25011.599999999999,-18106.700000000001,3847.75,-15212.6,7672.9200000000001,1002.65,2523.71
168812.0,28874.599999999999,-21815.700000000001,3816.1199999999999,-17715.299999999999,8916.7399999999998,540.17499999999995,2923.48
168813.0,33944.300000000003,-26582.0,4170.5299999999997,-20080.0,10509.200000000001,350.52499999999998,3290.25
168814.0,39929.099999999999,-32893.400000000001,3444.9400000000001,-24431.799999999999,12466.9,-150.20599999999999,3803.4000000000001
168815.0,49816.699999999997,-41944.300000000003,2511.7800000000002,-26253.799999999999,17411.299999999999,-700.66099999999994,3906.0700000000002
168816.0,77497.100000000006,-70738.199999999997,-1362.0599999999999,-39963.199999999997,27566.200000000001,5676.5200000000004,1203.8499999999999
168817.0,120045.0,-95144.0,-8455.1700000000001,-85188.199999999997,42414.900000000001,27104.200000000001,4423.2600000000002
168818.0,155423.0,-101345.0,-72612.100000000006,-183023.0,47026.599999999999,50484.5,3264.2600000000002
168819.0,159096.0,-152492.0,-168760.0,-297420.0,12302.799999999999,41364.400000000001,-16464.5
168820.0,125388.0,-199496.0,-171731.0,-302531.0,-12819.1,5745.8999999999996,-17148.700000000001
168821.0,88550.199999999997,-169423.0,-108335.0,-206464.0,-1206.3599999999999,-12496.799999999999,747.72299999999996
168822.0,17233.0,-10957.299999999999,3659.8600000000001,-9623.8600000000006,5279.1099999999997,1671.79,1735.5999999999999
168823.0,20162.0,-13938.9,3502.0700000000002,-11865.9,6200.46,1385.1800000000001,2088.1700000000001
168824.0,23425.700000000001,-16705.900000000001,3970.4400000000001,-13582.1,7178.9399999999996,931.45500000000004,2507.8000000000002
168825.0,27492.299999999999,-20969.0,3518.9899999999998,-16577.400000000001,8515.1399999999994,670.92100000000005,2918.1799999999998
168826.0,32192.700000000001,-24768.200000000001,4097.0,-18641.0,10111.1,-239.02500000000001,3445.4299999999998
168827.0,39807.699999999997,-33051.800000000003,4225.9700000000003,-22628.700000000001,11988.200000000001,-15.8866,3819.9099999999999
168828.0,46574.0,-38977.900000000001,-1302.47,-29586.900000000001,17437.200000000001,-2107.9000000000001,5471.8900000000003
168829.0,86783.600000000006,-68402.699999999997,15996.5,-24962.400000000001,25378.299999999999,-4052.0100000000002,8286.75
168830.0,166792.0,-150640.0,-64162.0,-85603.5,81272.300000000003,17025.5,-18710.599999999999
168831.0,281000.0,-334138.0,-475448.0,-396439.0,108223.0,35518.599999999999,-91274.600000000006
168832.0,286846.0,-497854.0,-697734.0,-639219.0,-11066.799999999999,-1049.71,-129396.0
168833.0,180281.0,-376685.0,-379134.0,-449761.0,-50798.699999999997,-43041.5,-68397.5
168834.0,100946.0,-198282.0,-130276.0,-222182.0,1377.72,-32649.700000000001,-7418.9300000000003
168835.0,15792.9,-10246.4,3211.3299999999999,-8656.3400000000001,4823.9499999999998,1789.1400000000001,1608.4300000000001
168836.0,18702.799999999999,-12354.200000000001,3944.6599999999999,-9953.0200000000004,5747.6199999999999,1420.24,2029.3399999999999
168837.0,21696.0,-16146.0,2996.9899999999998,-13043.0,6667.8400000000001,996.524,2427.3899999999999
168838.0,26053.599999999999,-18641.200000000001,4810.5299999999997,-13713.1,8025.1499999999996,403.77999999999997,2966.2600000000002
168839.0,30397.5,-25359.599999999999,1383.9000000000001,-19770.599999999999,9865.9400000000005,141.935,3413.5700000000002
168840.0,39690.5,-29106.400000000001,8684.3400000000001,-17781.099999999999,11389.700000000001,-1480.97,4129.8999999999996
168841.0,44575.699999999997,-43696.699999999997,-12464.799999999999,-37208.400000000001,19344.200000000001,220.221,4056.52
168842.0,83318.699999999997,-58295.199999999997,22988.0,-26423.400000000001,21211.200000000001,-12413.6,5710.5799999999999
168843.0,174512.0,-171056.0,-100105.0,-81042.800000000003,82154.699999999997,-21526.200000000001,26242.900000000001
168844.0,351719.0,-598155.0,-907778.0,-598899.0,95624.0,9565.4899999999998,11008.799999999999
168845.0,413047.0,-902044.0,-1270920.0,-942154.0,-103495.0,-5168.4099999999999,-71913.800000000003
168846.0,257571.0,-615088.0,-628434.0,-573990.0,-117197.0,-54483.800000000003,-67863.699999999997
168847.0,101549.0,-276508.0,-201077.0,-246784.0,396.78100000000001,-42682.699999999997,-13102.6
168848.0,14548.200000000001,-8847.0699999999997,3616.48,-6855.6499999999996,4472.0,1874.1400000000001,1486.5699999999999
168849.0,16944.599999999999,-11742.299999999999,3137.48,-9247.7600000000002,5144.9300000000003,1453.0699999999999,1902.8
168850.0,20387.0,-13918.0,4118.3800000000001,-10442.1,6342.8999999999996,1062.6900000000001,2369.6700000000001
168851.0,23643.299999999999,-18480.700000000001,2817.0,-14131.5,7137.1300000000001,204.18799999999999,2954.4299999999998
168852.0,29701.0,-21854.099999999999,4369.2299999999996,-14885.200000000001,9857.1900000000005,-169.74299999999999,3516.0900000000001
168853.0,34011.5,-33291.199999999997,-3553.0900000000001,-25779.599999999999,11437.299999999999,-2512.5300000000002,3055.7800000000002
168854.0,40881.900000000001,-44271.0,-15199.0,-32458.900000000001,17700.299999999999,-3549.9000000000001,4176.1099999999997
168855.0,59692.199999999997,-84173.300000000003,-40722.599999999999,-67928.600000000006,21571.0,-14470.4,5568.9899999999998
168856.0,150029.0,-121120.0,-29292.200000000001,-87772.899999999994,48098.400000000001,-37004.099999999999,40735.699999999997
168857.0,283579.0,-385478.0,-595400.0,-440141.0,79935.5,8123.5299999999997,92141.300000000003
168858.0,369620.0,-823387.0,-1156810.0,-866426.0,-102773.0,35439.800000000003,28816.299999999999
168859.0,272268.0,-691163.0,-691698.0,-586119.0,-141784.0,-14011.299999999999,-26720.0
168860.0,103507.0,-333237.0,-243691.0,-243148.0,-11880.200000000001,-27145.799999999999,-2007.3299999999999
168861.0,13207.5,-7831.4899999999998,3558.5599999999999,-5529.2299999999996,4052.8800000000001,1883.4400000000001,1379.3900000000001
168862.0,15392.9,-10655.299999999999,2965.77,-7913.1599999999999,4656.6800000000003,1550.9100000000001,1729.1300000000001
168863.0,18742.0,-12524.799999999999,4123.8199999999997,-8931.5300000000007,5830.4899999999998,958.07399999999996,2327.9099999999999
168864.0,21649.5,-17068.700000000001,2491.8499999999999,-12816.299999999999,6520.6499999999996,432.90300000000002,2772.6999999999998
168865.0,27737.299999999999,-19505.299999999999,4916.5,-13040.799999999999,8878.9200000000001,-1088.99,4039.5999999999999
168866.0,29319.0,-33367.199999999997,-10200.9,-26892.400000000001,10604.6,-2160.8800000000001,5151.5799999999999
168867.0,37529.0,-45228.199999999997,-15732.6,-35864.599999999999,11843.299999999999,-5574.7799999999997,8424.6200000000008
168868.0,48985.5,-68510.699999999997,-43369.400000000001,-64348.300000000003,17937.0,-9543.2800000000007,14334.0
168869.0,99796.5,-104789.0,-52076.199999999997,-112084.0,31221.0,-30913.099999999999,17812.5
168870.0,160799.0,-224000.0,-315421.0,-304421.0,59762.5,-8301.9200000000001,49872.400000000001
168871.0,217566.0,-480505.0,-664691.0,-559453.0,-49068.0,42980.599999999999,54632.0
168872.0,202260.0,-505728.0,-485377.0,-447328.0,-106019.0,34430.5,18224.700000000001
168873.0,111481.0,-299537.0,-191931.0,-206295.0,-23728.400000000001,4225.9399999999996,12187.700000000001
168874.0,11780.4,-7090.4499999999998,3145.5700000000002,-4548.6099999999997,3563.8899999999999,1920.8099999999999,1209.3800000000001
168875.0,14094.6,-9067.5,3479.52,-5992.1199999999999,4300.0,1535.3499999999999,1614.22
168876.0,16708.0,-11839.700000000001,3104.3299999999999,-8354.5100000000002,5128.6499999999996,1002.24,2148.3600000000001
168877.0,20216.799999999999,-14352.4,3932.9299999999998,-9806.6900000000005,6175.6899999999996,278.75099999999998,2718.6599999999999
168878.0,24502.599999999999,-19044.799999999999,2358.8899999999999,-14396.0,7578.2299999999996,-848.13400000000001,3903.1999999999998
168879.0,30170.5,-23388.5,1905.95,-18372.0,9034.1900000000005,-1588.9200000000001,6317.96
168880.0,36827.5,-34617.0,-5989.9200000000001,-32118.5,11688.299999999999,-2542.1300000000001,7589.4399999999996
168881.0,44425.699999999997,-49132.900000000001,-22597.599999999999,-53173.400000000001,15831.5,-4795.1999999999998,10409.799999999999
168882.0,66333.100000000006,-85790.800000000003,-69125.5,-105657.0,15917.4,-13272.6,26508.099999999999
168883.0,94275.100000000006,-159255.0,-178758.0,-205204.0,13105.700000000001,-5131.2399999999998,47251.199999999997
168884.0,106094.0,-242913.0,-304565.0,-304407.0,-10522.9,27033.400000000001,40579.400000000001
168885.0,106815.0,-291903.0,-283251.0,-301357.0,-44999.900000000001,39991.900000000001,9837.4200000000001
168886.0,101483.0,-215111.0,-116339.0,-163962.0,-23602.599999999999,20255.599999999999,5055.8900000000003
168887.0,10580.299999999999,-6117.4700000000003,3135.9699999999998,-3242.8000000000002,3170.73,1935.05,1042.3699999999999
168888.0,12618.799999999999,-8065.8599999999997,3232.1799999999998,-4853.1300000000001,3832.27,1517.3800000000001,1482.9200000000001
168889.0,15057.799999999999,-10333.299999999999,3253.9400000000001,-6675.5100000000002,4609.0299999999997,1043.8199999999999,1953.28
168890.0,18148.099999999999,-12933.700000000001,3417.8000000000002,-8870.0599999999995,5503.5600000000004,194.61500000000001,2641.71
168891.0,21899.700000000001,-16186.700000000001,3179.77,-11817.700000000001,6701.25,-545.41200000000003,3388.5100000000002
168892.0,28045.900000000001,-20296.400000000001,4005.9000000000001,-15681.6,8872.5400000000009,-1419.0999999999999,3856.5700000000002
168893.0,37947.5,-28658.700000000001,3910.3600000000001,-22542.0,11891.9,-102.931,6239.3900000000003
168894.0,42701.400000000001,-43934.800000000003,-21794.599999999999,-52598.900000000001,16665.400000000001,1519.76,8683.1499999999996
168895.0,50305.400000000001,-60303.599999999999,-51604.900000000001,-99097.300000000003,11118.0,-212.75700000000001,8973.9899999999998
168896.0,69431.100000000006,-71717.5,-45067.0,-113471.0,6652.2700000000004,133.10400000000001,19334.599999999999
168897.0,70680.100000000006,-129238.0,-134955.0,-166346.0,10832.700000000001,16083.4,29833.400000000001
168898.0,63497.900000000001,-197815.0,-204924.0,-215485.0,-20250.599999999999,26504.099999999999,12344.6
168899.0,72131.0,-157598.0,-93835.0,-135602.0,-20005.400000000001,16850.299999999999,-1065.05
168900.0,9517.1100000000006,-5146.9099999999999,3199.7800000000002,-1971.75,2830.5,1901.0899999999999,903.87099999999998
168901.0,11168.5,-7098.3000000000002,2986.7600000000002,-3708.5599999999999,3342.9499999999998,1548.4400000000001,1291.3800000000001
168902.0,13555.0,-8774.6100000000006,3508.4499999999998,-5028.9300000000003,4159.6099999999997,1016.54,1810.6300000000001
168903.0,15905.6,-11609.200000000001,2845.0300000000002,-7763.8100000000004,4753.6199999999999,399.56,2351.5799999999999
168904.0,19756.5,-13540.6,4146.4700000000003,-9065.6100000000006,5957.1499999999996,-519.95399999999995,3127.0799999999999
168905.0,23974.700000000001,-19540.0,660.995,-14330.6,7747.0500000000002,-1654.8199999999999,4341.1599999999999
168906.0,38602.099999999999,-29651.0,5501.5200000000004,-17420.299999999999,12625.5,-1951.3499999999999,3878.9299999999998
168907.0,44787.800000000003,-53358.5,-45958.5,-59325.300000000003,24517.200000000001,4750.3800000000001,385.14100000000002
168908.0,30873.5,-94032.199999999997,-106161.0,-123757.0,5841.8599999999997,5303.96,-5663.46
168909.0,50564.5,-78104.399999999994,-48127.5,-105770.0,-1982.8900000000001,-3243.3400000000001,2587.2600000000002
168910.0,61857.199999999997,-65588.699999999997,-46970.099999999999,-99613.5,13994.700000000001,5538.1599999999999,18338.599999999999
168911.0,46972.400000000001,-117967.0,-113726.0,-138536.0,-6144.3199999999997,17076.799999999999,15165.799999999999
168912.0,46006.900000000001,-124661.0,-88297.300000000003,-113395.0,-12332.700000000001,13843.9,3908.1700000000001
168913.0,8529.7700000000004,-4421.4300000000003,3053.5500000000002,-991.71400000000006,2481.9200000000001,1873.0899999999999,763.85199999999998
168914.0,9959.7999999999993,-6048.79,2991.4099999999999,-2425.25,2955.9400000000001,1547.04,1111.6300000000001
168915.0,11940.299999999999,-7658.8800000000001,3236.04,-3859.8099999999999,3630.8299999999999,1072.8399999999999,1615.3900000000001
168916.0,14095.1,-9892.8700000000008,3068.3899999999999,-5896.04,4187.96,501.35899999999998,2092.4200000000001
168917.0,17264.099999999999,-11984.4,3395.4299999999998,-7926.46,5232.5,-393.97199999999998,2878.1399999999999
168918.0,21554.400000000001,-15763.200000000001,3072.04,-11424.0,6310.6000000000004,-1359.21,3988.0700000000002
168919.0,34455.800000000003,-25443.599999999999,956.85299999999995,-13906.299999999999,12236.700000000001,-6097.9200000000001,5800.5299999999997
168920.0,41214.0,-80151.899999999994,-85566.0,-72327.600000000006,22163.299999999999,-1242.76,5398.6199999999999
168921.0,33308.900000000001,-136180.0,-167419.0,-145988.0,4905.8199999999997,6331.6599999999999,-7102.7799999999997
168922.0,32946.199999999997,-111615.0,-103660.0,-128370.0,-6345.1899999999996,452.66000000000003,-12738.1
168923.0,45927.699999999997,-72722.899999999994,-44986.900000000001,-95906.600000000006,6615.4399999999996,-2299.0,2034.0
168924.0,40701.699999999997,-69169.100000000006,-50188.5,-90430.100000000006,3594.0100000000002,5361.7399999999998,10259.799999999999
168925.0,35692.900000000001,-84092.100000000006,-57898.0,-85511.300000000003,-3911.0100000000002,10845.0,7069.4799999999996
168926.0,7655.4499999999998,-3761.6900000000001,2908.0900000000001,-97.779600000000002,2154.9299999999998,1830.5899999999999,618.84400000000005
168927.0,8972.7299999999996,-5039.6899999999996,3084.4099999999999,-1186.3099999999999,2651.3699999999999,1548.1600000000001,946.21199999999999
168928.0,10339.299999999999,-6602.5900000000001,2939.6700000000001,-2686.3000000000002,3080.75,1126.0899999999999,1366.6300000000001
168929.0,12556.0,-8221.0400000000009,3380.8899999999999,-4104.6599999999999,3756.5500000000002,615.90700000000004,1860.8399999999999
168930.0,14563.299999999999,-10448.299999999999,2615.9499999999998,-6692.2299999999996,4350.8100000000004,-174.81,2549.3099999999999
168931.0,19328.0,-13208.9,4272.71,-8173.2600000000002,5555.8999999999996,-1191.95,3355.23
168932.0,28083.900000000001,-19746.599999999999,-2334.5100000000002,-17762.700000000001,8343.9699999999993,-5516.7799999999997,8484.5599999999995
168933.0,39715.800000000003,-50350.900000000001,-34556.300000000003,-39235.599999999999,10728.9,-4465.71,18025.299999999999
168934.0,47994.599999999999,-127170.0,-159494.0,-121306.0,13893.4,6832.8500000000004,10256.299999999999
168935.0,48255.300000000003,-177820.0,-216100.0,-183702.0,-10091.6,3459.21,-15409.9
168936.0,36489.400000000001,-116546.0,-96423.300000000003,-118500.0,-9236.4300000000003,-8254.0499999999993,-11875.5
168937.0,34354.5,-65454.300000000003,-41668.800000000003,-75544.699999999997,8341.6499999999996,-3026.0700000000002,3485.1199999999999
168938.0,28695.200000000001,-62715.800000000003,-39514.199999999997,-69509.100000000006,-485.62200000000001,4094.6399999999999,3179.73
168939.0,7018.5799999999999,-3339.4200000000001,2658.2800000000002,474.98599999999999,1905.9400000000001,1827.05,484.392
168940.0,8066.8100000000004,-4031.8200000000002,3208.2800000000002,50.379899999999999,2344.4000000000001,1558.6099999999999,767.88999999999999
168941.0,8904.1499999999996,-5732.0500000000002,2511.9400000000001,-1723.22,2607.04,1212.6099999999999,1079.71
168942.0,10961.1,-6439.3199999999997,3775.1399999999999,-2138.9200000000001,3270.1900000000001,723.87800000000004,1590.4100000000001
168943.0,12202.700000000001,-9320.4400000000005,1749.6600000000001,-5696.1800000000003,3656.9699999999998,125.806,2095.7600000000002
168944.0,16920.799999999999,-9736.5900000000001,5606.5299999999997,-5189.3699999999999,4555.8500000000004,-1305.51,3297.1100000000001
168945.0,20041.5,-14659.6,-2822.8800000000001,-17604.0,6672.54,-1936.0999999999999,4940.2200000000003
168946.0,39798.199999999997,-15403.5,17293.299999999999,-13363.200000000001,6905.1999999999998,-5974.1000000000004,10444.4
168947.0,52802.5,-64596.699999999997,-76092.300000000003,-66220.699999999997,21602.299999999999,2830.5999999999999,20395.799999999999
168948.0,57019.0,-173131.0,-223952.0,-174175.0,-10175.299999999999,9777.6900000000005,6402.0799999999999
168949.0,44950.900000000001,-154133.0,-143309.0,-135115.0,-23020.099999999999,-1965.72,-6981.5200000000004
168950.0,24387.200000000001,-79977.100000000006,-55572.300000000003,-74004.199999999997,3749.6999999999998,-4590.7799999999997,1129.52
168951.0,23279.099999999999,-61925.300000000003,-40389.900000000001,-64124.400000000001,-1230.46,-1340.3199999999999,2310.5500000000002
168952.0,58462.900000000001,-328555.0,-363823.0,-355133.0,-24614.599999999999,-6416.6899999999996,-12435.4
168953.0,41720.699999999997,-294861.0,-330015.0,-311529.0,-10418.0,-1921.95,-12599.6
168954.0,35985.699999999997,-247736.0,-272664.0,-263534.0,-2047.9000000000001,-1.4753000000000001,-16383.1
168955.0,26817.099999999999,-199330.0,-217115.0,-216314.0,1614.53,2343.9099999999999,-11433.0
168956.0,26888.0,-157661.0,-171089.0,-171630.0,4326.3900000000003,941.47199999999998,-12600.0
168957.0,29578.200000000001,-106692.0,-107979.0,-121450.0,7516.7600000000002,817.06799999999998,-12947.4
168958.0,25292.200000000001,-71152.199999999997,-64351.199999999997,-83802.600000000006,8204.6100000000006,1991.0599999999999,-6671.7299999999996
168959.0,20410.099999999999,-53302.800000000003,-45304.800000000003,-60742.599999999999,7048.6800000000003,1595.4100000000001,-5198.1300000000001
168960.0,18233.0,-38353.599999999999,-28552.0,-42864.699999999997,5362.6099999999997,1453.3299999999999,-5137.8800000000001
168961.0,17181.0,-25002.5,-13440.9,-28207.900000000001,4060.98,1126.0799999999999,-4505.6700000000001
168962.0,16905.099999999999,-13228.5,-662.23199999999997,-16349.200000000001,3547.1700000000001,783.67100000000005,-3620.6500000000001
168963.0,16654.099999999999,-8000.9899999999998,5460.0799999999999,-11495.799999999999,2161.02,1694.46,-2181.5300000000002
168964.0,17171.5,-15341.4,-922.31399999999996,-16813.599999999999,-982.96799999999996,4466.8599999999997,-515.31899999999996
168965.0,20628.5,-37989.699999999997,-21584.400000000001,-30345.700000000001,-4307.1700000000001,7354.9700000000003,1345.5
168966.0,26741.400000000001,-64687.599999999999,-46336.300000000003,-41107.599999999999,-7293.1800000000003,4756.7399999999998,3032.4000000000001
168967.0,34479.300000000003,-75752.399999999994,-56550.699999999997,-42169.5,-9424.5,-4745.3400000000001,-1022.96
168968.0,40110.900000000001,-62434.599999999999,-42075.900000000001,-36808.300000000003,-10361.700000000001,-13632.200000000001,-7742.0299999999997
168969.0,37622.400000000001,-30181.5,-11862.299999999999,-24034.700000000001,-7657.2600000000002,-14753.9,-10420.1
168970.0,27036.900000000001,170.66999999999999,14233.0,-6894.0600000000004,-2397.1199999999999,-8641.7399999999998,-6897.1700000000001
168971.0,19141.799999999999,14644.799999999999,25760.599999999999,4911.0799999999999,624.51099999999997,-2315.5799999999999,-2747.6100000000001
168972.0,14584.6,1739.21,7304.54,-5143.6099999999997,-1796.1900000000001,2361.8299999999999,4818.2299999999996
168973.0,28397.799999999999,-45465.900000000001,-57296.5,-40408.099999999999,-8897.3500000000004,2032.1600000000001,10506.799999999999
168974.0,31733.5,-54667.099999999999,-78219.899999999994,-47704.599999999999,-7195.0699999999997,-3584.8299999999999,-3913.8200000000002
168975.0,15245.1,-13661.6,-23527.299999999999,-18507.0,-409.56999999999999,-2572.0,-6808.2299999999996
168976.0,6001.75,-1418.1300000000001,-3559.71,-5003.4899999999998,1270.49,-865.71799999999996,2527.6700000000001
168977.0,9905.6200000000008,-4646.3800000000001,-10317.5,-1955.3599999999999,2466.4200000000001,-2450.02,1549.1500000000001
168978.0,8568.75,-1787.3800000000001,-5564.2700000000004,2249.7199999999998,2582.0799999999999,-1331.9200000000001,873.58399999999995
168979.0,6534.3400000000001,-253.29300000000001,-2839.8099999999999,3966.9499999999998,1435.28,-566.24199999999996,215.613
168980.0,4682.1800000000003,2397.1100000000001,394.22500000000002,5663.1599999999999,328.62,-349.77699999999999,-62.138199999999998
168981.0,4609.1800000000003,3463.5599999999999,1385.5,6404.3199999999997,-540.048,-430.02699999999999,495.74200000000002
168982.0,5229.3999999999996,3949.9899999999998,1368.3499999999999,6898.9300000000003,-832.63400000000001,-646.88599999999997,587.98599999999999
168983.0,5440.7200000000003,4081.0500000000002,1353.9000000000001,7024.9700000000003,-972.11800000000005,-614.26700000000005,707.55100000000004
168984.0,5571.8900000000003,4170.3100000000004,1257.8499999999999,7024.4899999999998,-1062.4100000000001,-578.06200000000001,756.29100000000005
168985.0,5615.6199999999999,4223.7299999999996,1168.8199999999999,6954.2200000000003,-1121.49,-518.84199999999998,779.93499999999995
168986.0,5590.54,4257.8699999999999,1100.8699999999999,6827.1700000000001,-1164.1500000000001,-452.452,794.77300000000002
168987.0,5523.7299999999996,4285.3100000000004,1057.2,6679.71,-1191.78,-381.87299999999999,802.05600000000004
168988.0,5426.8699999999999,4271.9700000000003,998.26599999999996,6481.2200000000003,-1209.98,-312.13099999999997,803.35799999999995
168989.0,5304.3800000000001,4259.3100000000004,963.38499999999999,6278.6000000000004,-1218.7,-243.62799999999999,797.20299999999997
168990.0,5159.7700000000004,4201.4499999999998,905.34799999999996,6026.5900000000001,-1219.5599999999999,-177.10400000000001,786.52999999999997
168991.0,4998.1700000000001,4157.2799999999997,878.73500000000001,5787.8999999999996,-1212.6400000000001,-113.551,769.75800000000004
168992.0,4821.75,4085.7399999999998,843.37900000000002,5522.4899999999998,-1199.98,-52.530000000000001,749.55799999999999
168993.0,4635.9799999999996,3979.75,786.62599999999998,5225.8599999999997,-1181.71,4.8636900000000001,724.60699999999997
168994.0,4438.75,3883.1700000000001,751.93299999999999,4939.29,-1156.8099999999999,60.018799999999999,695.22900000000004
168995.0,4235.0799999999999,3762.3400000000001,706.83399999999995,4634.71,-1127.47,113.926,663.51499999999999
168996.0,4034.1199999999999,3638.8000000000002,668.83600000000001,4337.7700000000004,-1097.3900000000001,163.24199999999999,631.45399999999995
168997.0,3828.2800000000002,3484.6500000000001,605.03099999999995,4014.23,-1061.47,206.53100000000001,591.58100000000002
168998.0,3622.5999999999999,3355.0300000000002,575.04399999999998,3720.1700000000001,-1023.2,248.24100000000001,554.03599999999994
168999.0,3416.8200000000002,3201.25,524.89499999999998,3407.8800000000001,-980.88499999999999,286.59899999999999,510.96300000000002
169000.0,3224.9299999999998,3075.9499999999998,502.86799999999999,3135.6300000000001,-939.41700000000003,321.08100000000002,470.99299999999999
169001.0,3027.2199999999998,2931.9499999999998,470.66300000000001,2845.8099999999999,-892.58900000000006,354.67599999999999,425.524
169002.0,2862.3099999999999,2803.5300000000002,439.12,2594.8800000000001,-852.10799999999995,379.86000000000001,383.43000000000001
169003.0,2663.4499999999998,2701.3099999999999,459.29000000000002,2353.4200000000001,-798.78399999999999,407.733,323.18700000000001
169004.0,2586.2399999999998,2499.3099999999999,327.76299999999998,2090.5900000000001,-785.51999999999998,420.26999999999998,322.75799999999998
169005.0,2326.8899999999999,2747.5500000000002,628.83299999999997,2180.3899999999999,-666.45299999999997,391.495,66.278700000000001
169006.0,68446.0,-299808.0,-370684.0,-337282.0,3446.7199999999998,13403.4,-10622.299999999999
169007.0,44667.099999999999,-264968.0,-305981.0,-279053.0,5094.0100000000002,9652.3899999999994,-10567.4
169008.0,33293.800000000003,-217759.0,-238127.0,-224500.0,7852.6199999999999,4789.4200000000001,-13312.700000000001
169009.0,28173.299999999999,-167693.0,-173573.0,-175059.0,10915.1,2760.6900000000001,-11074.6
169010.0,27674.900000000001,-125885.0,-123133.0,-131670.0,11146.299999999999,3036.25,-10141.799999999999
169011.0,28485.799999999999,-90048.0,-78687.0,-94956.100000000006,9408.2099999999991,3167.9400000000001,-10113.799999999999
169012.0,26533.200000000001,-61850.099999999999,-45498.300000000003,-65876.399999999994,7631.3199999999997,2685.2800000000002,-7262.7200000000003
169013.0,23606.5,-43821.300000000003,-27341.400000000001,-46474.5,7037.79,1892.8699999999999,-5019.1000000000004
169014.0,21271.400000000001,-31944.799999999999,-16509.400000000001,-33186.699999999997,6905.9899999999998,1887.47,-3639.9200000000001
169015.0,19288.900000000001,-23703.900000000001,-8622.8099999999995,-23362.299999999999,6308.46,1780.8900000000001,-2630.1700000000001
169016.0,18371.5,-16870.0,-1544.26,-15946.299999999999,5661.6800000000003,940.78200000000004,-2388.5799999999999
169017.0,20392.400000000001,-8528.0599999999995,7015.3999999999996,-10669.299999999999,6660.3500000000004,576.505,-876.71600000000001
169018.0,25631.400000000001,-6867.6300000000001,8060.4300000000003,-14303.299999999999,8739.7900000000009,2367.0700000000002,2700.25
169019.0,30590.900000000001,-29780.700000000001,-14398.700000000001,-36993.599999999999,5696.8999999999996,8127.0900000000001,8957.5
169020.0,49112.300000000003,-114530.0,-110020.0,-97867.899999999994,-14375.9,10267.9,20436.099999999999
169021.0,78214.5,-194250.0,-221271.0,-159193.0,-32238.400000000001,-3342.8400000000001,4457.79
169022.0,75943.5,-168239.0,-210646.0,-157776.0,-24581.700000000001,-12063.0,-19719.200000000001
169023.0,46628.900000000001,-80491.100000000006,-107076.0,-97439.399999999994,-7566.7200000000003,-5499.9099999999999,-21356.400000000001
169024.0,26514.799999999999,-14378.799999999999,-18886.799999999999,-32502.299999999999,362.767,784.17999999999995,-12023.799999999999
169025.0,16472.299999999999,5548.0600000000004,10405.6,-6154.4799999999996,1415.0799999999999,504.17599999999999,-3965.48
169026.0,13038.4,4127.5799999999999,7428.4799999999996,-5072.7299999999996,2079.8000000000002,-1462.3599999999999,2869.1900000000001
169027.0,20167.599999999999,-15399.799999999999,-22475.299999999999,-15684.799999999999,2410.6399999999999,-2508.9299999999998,10364.799999999999
169028.0,21994.900000000001,-23303.599999999999,-38090.800000000003,-16941.700000000001,5047.9700000000003,-4016.7600000000002,1380.8699999999999
169029.0,11449.200000000001,-6650.4300000000003,-10435.6,-3762.7800000000002,4714.1400000000003,-1182.23,-2979.0999999999999
169030.0,3573.5300000000002,1417.3499999999999,4246.96,4033.3899999999999,1192.9300000000001,-466.56599999999997,-365.04500000000002
169031.0,4833.96,3357.0100000000002,5528.2700000000004,7491.3100000000004,-364.86700000000002,-1724.3099999999999,-637.154
169032.0,4839.6499999999996,3701.5700000000002,5613.0500000000002,8158.9399999999996,-839.29399999999998,-1440.6700000000001,163.90799999999999
169033.0,5020.8400000000001,3254.9400000000001,3394.7800000000002,7520.6999999999998,-768.03399999999999,-1318.98,447.32900000000001
169034.0,5109.3699999999999,3317.2399999999998,2168.8800000000001,7111.9399999999996,-665.41099999999994,-1079.0599999999999,634.57799999999997
169035.0,5279.9300000000003,3434.4699999999998,1409.52,6804.9399999999996,-724.21299999999997,-956.42700000000002,651.75900000000001
169036.0,5288.8000000000002,3934.5599999999999,1529.01,6921.8900000000003,-874.12300000000005,-871.36400000000003,708.13699999999994
169037.0,5447.8299999999999,4068.0999999999999,1347.05,6852.25,-1011.4,-846.20600000000002,759.48699999999997
169038.0,5508.9099999999999,4240.6899999999996,1326.0799999999999,6858.7399999999998,-1099.95,-788.11199999999997,790.64599999999996
169039.0,5549.9700000000003,4263.1099999999997,1194.6900000000001,6738.2299999999996,-1170.0,-724.85699999999997,813.05899999999997
169040.0,5520.1499999999996,4332.9700000000003,1166.3099999999999,6654.3400000000001,-1215.48,-648.39300000000003,818.75599999999997
169041.0,5463.1400000000003,4321.9099999999999,1089.5599999999999,6488.5900000000001,-1251.1099999999999,-568.88800000000003,823.226
169042.0,5374.4099999999999,4326.3900000000003,1055.1099999999999,6332.6899999999996,-1273.55,-488.62599999999998,819.06200000000001
169043.0,5261.1400000000003,4266.5699999999997,978.74800000000005,6108.2700000000004,-1285.2,-408.97899999999998,809.47799999999995
169044.0,5124.8000000000002,4234.75,953.35599999999999,5909.1800000000003,-1287.46,-329.61399999999998,795.66800000000001
169045.0,4973.25,4133.2600000000002,874.94799999999998,5640.5799999999999,-1281.97,-253.286,776.86300000000006
169046.0,4804.8599999999997,4056.0799999999999,837.47299999999996,5394.8500000000004,-1268.3299999999999,-179.19999999999999,753.57899999999995
169047.0,4628.6999999999998,3957.4899999999998,791.78899999999999,5131.4099999999999,-1249.1800000000001,-108.444,728.50599999999997
169048.0,4436.8100000000004,3872.7600000000002,772.31799999999998,4881.1300000000001,-1221.73,-42.580199999999998,694.26499999999999
169049.0,4232.7200000000003,3766.3899999999999,747.83100000000002,4607.75,-1189.0999999999999,23.5503,661.57500000000005
169050.0,4039.8499999999999,3644.4299999999998,711.43499999999995,4330.1000000000004,-1156.8699999999999,86.819599999999994,632.20299999999997
169051.0,3845.3400000000001,3507.8800000000001,661.154,4044.8400000000001,-1119.3800000000001,142.81700000000001,590.38599999999997
169052.0,3644.6700000000001,3392.8000000000002,647.41300000000001,3783.1399999999999,-1079.24,197.798,551.02200000000005
169053.0,3443.7800000000002,3249.6799999999998,608.46100000000001,3498.5799999999999,-1034.48,247.59299999999999,506.596
169054.0,3252.7199999999998,3115.8600000000001,582.06700000000001,3233.2800000000002,-990.03399999999999,293.68400000000003,465.30799999999999
169055.0,3056.1399999999999,2964.6500000000001,546.46400000000006,2951.7800000000002,-940.71000000000004,337.66199999999998,418.91000000000003
169056.0,2888.5700000000002,2806.71,491.80599999999998,2682.1399999999999,-896.202,373.81099999999998,378.21300000000002
169057.0,2686.96,2683.0,490.72000000000003,2430.27,-835.27300000000002,412.37900000000002,316.56
169058.0,2605.8299999999999,2469.0599999999999,358.334,2156.9099999999999,-818.85000000000002,438.435,320.60899999999998
169059.0,2339.5900000000001,2616.4200000000001,557.95799999999997,2146.2800000000002,-689.88800000000003,422.95100000000002,78.826400000000007
169060.0,70947.5,-188974.0,-206329.0,-197957.0,36883.099999999999,13655.9,7461.4200000000001
169061.0,48300.099999999999,-186097.0,-201285.0,-183887.0,23298.400000000001,11506.4,3566.0700000000002
169062.0,33148.0,-173649.0,-182599.0,-166229.0,14687.700000000001,6415.6400000000003,-6495.3500000000004
169063.0,29278.200000000001,-129063.0,-125897.0,-127682.0,12679.700000000001,3931.3699999999999,-10343.5
169064.0,27533.0,-92845.800000000003,-83361.399999999994,-95174.0,11754.799999999999,4216.6999999999998,-7588.1899999999996
169065.0,23646.799999999999,-69411.199999999997,-59592.699999999997,-72562.199999999997,9531.5599999999995,4497.1099999999997,-5436.7799999999997
169066.0,20614.0,-53210.199999999997,-44286.900000000001,-56794.199999999997,7282.9300000000003,4017.9099999999999,-5565.7200000000003
169067.0,19775.599999999999,-37684.400000000001,-26990.400000000001,-41542.0,5955.4899999999998,4024.5599999999999,-4675.5299999999997
169068.0,19543.299999999999,-28937.599999999999,-14872.700000000001,-29995.599999999999,4970.0799999999999,4345.9200000000001,-3528.5900000000001
169069.0,18802.900000000001,-27768.599999999999,-10232.700000000001,-23886.900000000001,3602.77,4152.0200000000004,-1671.78
169070.0,17660.099999999999,-31699.900000000001,-12289.4,-23103.799999999999,2072.5999999999999,1900.8199999999999,-1204.03
169071.0,20781.400000000001,-30862.400000000001,-7711.7299999999996,-22169.700000000001,471.71100000000001,-1788.48,-1943.2
169072.0,29311.200000000001,-25524.799999999999,2554.52,-25026.400000000001,-634.77800000000002,-4529.3400000000001,-2688.8000000000002
169073.0,35526.599999999999,-32062.599999999999,-8902.1100000000006,-47432.0,-2598.3800000000001,-2384.98,5663.71
169074.0,56538.800000000003,-111926.0,-129675.0,-122428.0,-10932.5,1672.6099999999999,29386.799999999999
169075.0,85186.100000000006,-194382.0,-269363.0,-187110.0,-8068.3699999999999,-4788.0500000000002,16045.1
169076.0,75003.899999999994,-133226.0,-200543.0,-133174.0,10312.5,-5259.5699999999997,-15149.5
169077.0,39675.199999999997,-36285.599999999999,-53638.199999999997,-46028.400000000001,16675.400000000001,4065.96,-12427.700000000001
169078.0,21190.299999999999,-9461.6399999999994,-6662.46,-15317.5,9592.0499999999993,4782.1800000000003,-3910.71
169079.0,9124.6299999999992,-3211.9200000000001,-360.91899999999998,-6414.1800000000003,3683.3299999999999,677.51499999999999,-2134.5300000000002
169080.0,6471.04,441.16000000000003,4459.1199999999999,-864.23900000000003,1253.3499999999999,-2087.8200000000002,-574.92100000000005
169081.0,7785.4099999999999,1938.7,7816.29,5055.4799999999996,224.79499999999999,-3362.0,451.12299999999999
169082.0,8221.5300000000007,2672.2399999999998,8111.0,8769.1499999999996,355.82499999999999,-3347.1999999999998,-57.152900000000002
169083.0,6152.4700000000003,939.173,4393.1000000000004,6950.4200000000001,617.61400000000003,-1762.4300000000001,171.06999999999999
169084.0,4540.25,680.85599999999999,645.02099999999996,4815.8100000000004,470.83699999999999,-869.86500000000001,379.22199999999998
169085.0,4466.8000000000002,1789.21,-458.45600000000002,4226.4399999999996,59.788800000000002,-847.03099999999995,663.08100000000002
169086.0,4936.0900000000001,2624.54,-322.77300000000002,4585.7700000000004,-319.08300000000003,-1170.53,738.38499999999999
169087.0,5108.75,3597.4000000000001,893.10400000000004,5694.6300000000001,-640.34900000000005,-1380.1600000000001,768.447
169088.0,5308.8999999999996,3880.3200000000002,1397.0999999999999,6296.1400000000003,-855.49400000000003,-1438.51,770.13800000000003
169089.0,5404.9399999999996,4188.8299999999999,1718.6800000000001,6747.9899999999998,-977.20299999999997,-1352.76,792.93399999999997
169090.0,5490.04,4150.4899999999998,1485.9000000000001,6689.1700000000001,-1056.9400000000001,-1227.6199999999999,807.99900000000002
169091.0,5521.9499999999998,4339.8199999999997,1477.27,6749.9200000000001,-1134.9100000000001,-1108.78,824.19899999999996
169092.0,5556.3999999999996,4370.71,1336.6700000000001,6648.8500000000004,-1208.8900000000001,-1011.16,839.57899999999995
169093.0,5548.1800000000003,4457.0699999999997,1296.3800000000001,6596.1499999999996,-1265.3,-916.25400000000002,843.42399999999998
169094.0,5511.3100000000004,4461.1700000000001,1212.48,6463.1400000000003,-1309.0999999999999,-821.11099999999999,845.57000000000005
169095.0,5446.1599999999999,4466.2600000000002,1161.51,6330.8400000000001,-1340.6600000000001,-725.57100000000003,842.46600000000001
169096.0,5361.4700000000003,4423.3400000000001,1086.1400000000001,6151.9200000000001,-1361.8399999999999,-632.71500000000003,834.08399999999995
169097.0,5250.1899999999996,4388.7399999999998,1044.79,5978.2700000000004,-1372.05,-541.30499999999995,819.35599999999999
169098.0,5115.8800000000001,4317.3699999999999,987.34100000000001,5764.5,-1371.49,-451.654,798.96400000000006
169099.0,4962.8100000000004,4259.0,964.45000000000005,5564.0699999999997,-1362.3599999999999,-362.10000000000002,777.00400000000002
169100.0,4800.2399999999998,4170.5500000000002,927.05499999999995,5338.3599999999997,-1347.3099999999999,-276.50900000000001,751.73299999999995
169101.0,4627.1300000000001,4052.8299999999999,872.28499999999997,5084.9700000000003,-1325.3399999999999,-195.298,721.66399999999999
169102.0,4439.4499999999998,3940.9000000000001,837.99900000000002,4837.0100000000002,-1296.2,-116.627,687.01999999999998
169103.0,4247.6700000000001,3819.0700000000002,804.50699999999995,4581.1400000000003,-1264.1500000000001,-43.119599999999998,652.48900000000003
169104.0,4048.73,3707.02,783.49000000000001,4332.6899999999996,-1223.8399999999999,24.9071,613.54899999999998
169105.0,3843.7399999999998,3563.3600000000001,740.40599999999995,4054.5100000000002,-1177.49,93.472899999999996,575.02200000000005
169106.0,3647.3600000000001,3419.96,703.14800000000002,3787.98,-1131.8499999999999,159.00999999999999,537.83399999999995
169107.0,3450.6900000000001,3263.5599999999999,655.08000000000004,3512.25,-1082.8499999999999,218.36699999999999,493.91199999999998
169108.0,3261.6300000000001,3126.1999999999998,628.90999999999997,3261.4400000000001,-1034.1500000000001,273.45699999999999,452.041
169109.0,3069.0700000000002,2973.8899999999999,594.68399999999997,2995.5,-981.64599999999996,326.18700000000001,406.87299999999999
169110.0,2898.5900000000001,2831.2199999999998,559.14300000000003,2753.6300000000001,-931.76900000000001,370.36599999999999,362.24299999999999
169111.0,2696.0799999999999,2706.5300000000002,567.50099999999998,2514.2600000000002,-868.97900000000004,418.66000000000003,303.57600000000002
169112.0,2616.5100000000002,2439.8499999999999,389.55099999999999,2199.52,-853.57000000000005,449.94099999999997,307.85399999999998
169113.0,2348.4499999999998,2579.4499999999998,573.88199999999995,2183.9899999999998,-711.29899999999998,445.16800000000001,75.963899999999995
169114.0,55165.599999999999,-98434.600000000006,-60421.800000000003,-87554.600000000006,23683.400000000001,1395.5599999999999,8264.6700000000001
169115.0,38761.800000000003,-114198.0,-97608.600000000006,-101499.0,19049.799999999999,2738.6399999999999,7427.2600000000002
169116.0,29233.299999999999,-114014.0,-111047.0,-103602.0,15619.6,3479.7399999999998,95.8245
169117.0,26693.0,-91039.600000000006,-87288.800000000003,-86996.199999999997,13382.1,4655.3599999999997,-5627.46
169118.0,25138.900000000001,-63114.0,-54653.400000000001,-63417.800000000003,11725.4,4760.5600000000004,-5075.3199999999997
169119.0,23912.299999999999,-43542.099999999999,-33521.400000000001,-44262.800000000003,11382.700000000001,4142.1599999999999,-2797.0700000000002
169120.0,24792.099999999999,-27370.599999999999,-16615.0,-28347.099999999999,12101.5,3463.1799999999998,-2015.4300000000001
169121.0,25436.400000000001,-15390.200000000001,-2589.1999999999998,-17149.0,11735.4,3846.3400000000001,-0.84617200000000004
169122.0,24607.900000000001,-12721.700000000001,1524.9100000000001,-15296.9,9823.4200000000001,4694.25,1104.29
169123.0,21681.400000000001,-26332.0,-11024.0,-25476.900000000001,4946.0699999999997,6480.1999999999998,4030.6300000000001
169124.0,17994.799999999999,-57164.0,-46257.0,-46473.5,-4257.1899999999996,4555.0299999999997,5493.9200000000001
169125.0,21537.200000000001,-80245.5,-80972.699999999997,-69832.800000000003,-10638.6,-1572.2,-352.41699999999997
169126.0,21206.200000000001,-74346.399999999994,-83701.5,-82818.5,-8452.4699999999993,-4361.0500000000002,-5723.6000000000004
169127.0,23221.400000000001,-61908.400000000001,-73149.699999999997,-85736.0,-2881.0300000000002,-5191.6700000000001,1550.01
169128.0,32989.199999999997,-60399.699999999997,-76712.0,-75497.199999999997,6126.3599999999997,-9852.6200000000008,12065.299999999999
169129.0,42886.0,-47264.900000000001,-62247.800000000003,-41599.900000000001,17292.799999999999,-11522.200000000001,8212.5900000000001
169130.0,35895.400000000001,-26664.799999999999,-22825.799999999999,-11415.1,18266.599999999999,-4880.4099999999999,-3014.9899999999998
169131.0,23877.400000000001,-11833.700000000001,5056.96,-961.05499999999995,9780.8700000000008,1016.5599999999999,-4478.4799999999996
169132.0,12187.5,-4965.1000000000004,6294.1000000000004,755.43399999999997,3986.6300000000001,619.56399999999996,-1240.6300000000001
169133.0,6245.7600000000002,-2652.98,1642.5999999999999,1427.1700000000001,2516.9200000000001,-656.00199999999995,-616.70600000000002
169134.0,3988.98,-542.726,1098.3599999999999,2620.4200000000001,1584.5999999999999,-517.98900000000003,148.93000000000001
169135.0,3044.3800000000001,184.95099999999999,-727.80799999999999,1964.95,895.26999999999998,-621.37699999999995,162.41300000000001
169136.0,3082.3200000000002,1322.1600000000001,-599.25999999999999,1850.46,176.33000000000001,-1094.26,525.72400000000005
169137.0,4383.6400000000003,2756.96,956.17700000000002,3679.0700000000002,-296.84800000000001,-1957.9000000000001,752.36900000000003
169138.0,5017.1800000000003,3614.5799999999999,2642.6700000000001,5650.6499999999996,-462.85399999999998,-2312.5500000000002,687.18799999999999
169139.0,5093.4399999999996,3727.3200000000002,3088.6100000000001,6495.9099999999999,-580.65800000000002,-2146.5900000000001,649.77599999999995
169140.0,5041.1599999999999,3986.3200000000002,2910.5999999999999,6819.54,-702.47400000000005,-1860.72,661.80399999999997
169141.0,5111.29,3897.0599999999999,2073.5999999999999,6461.1499999999996,-830.05999999999995,-1626.74,717.48400000000004
169142.0,5275.1400000000003,4221.8100000000004,1768.4000000000001,6459.6099999999997,-968.52099999999996,-1492.71,777.01599999999996
169143.0,5449.8800000000001,4307.4499999999998,1464.8499999999999,6341.1199999999999,-1100.5699999999999,-1420.8599999999999,819.31100000000004
169144.0,5557.1199999999999,4624.4499999999998,1580.8800000000001,6555.46,-1209.22,-1352.8599999999999,843.58199999999999
169145.0,5611.5600000000004,4623.8699999999999,1447.8,6490.3100000000004,-1291.75,-1260.0899999999999,860.49300000000005
169146.0,5627.75,4729.6499999999996,1439.6600000000001,6516.6899999999996,-1355.25,-1156.71,866.15700000000004
169147.0,5606.0799999999999,4700.5699999999997,1325.8599999999999,6395.6199999999999,-1401.8699999999999,-1050.76,863.71699999999998
169148.0,5552.3100000000004,4740.0200000000004,1312.5899999999999,6334.6400000000003,-1436.5,-943.26300000000003,858.82299999999998
169149.0,5475.4899999999998,4678.0500000000002,1222.28,6169.6999999999998,-1459.3,-837.57799999999997,849.60599999999999
169150.0,5381.9899999999998,4647.96,1186.3199999999999,6036.9099999999999,-1474.25,-733.70299999999997,838.73699999999997
169151.0,5270.8299999999999,4534.2700000000004,1080.98,5817.8000000000002,-1478.2,-634.47199999999998,819.29700000000003
169152.0,5125.2799999999997,4490.5799999999999,1070.5699999999999,5660.7299999999996,-1467.6700000000001,-535.32100000000003,791.39800000000002
169153.0,4963.3400000000001,4367.8999999999996,1007.05,5426.4499999999998,-1451.8199999999999,-435.05200000000002,768.14499999999998
169154.0,4802.2399999999998,4259.3100000000004,964.21500000000003,5211.6899999999996,-1432.3800000000001,-340.65800000000002,742.84199999999998
169155.0,4629.3900000000003,4126.2299999999996,904.23199999999997,4971.2299999999996,-1404.4100000000001,-251.87200000000001,708.51099999999997
169156.0,4439.4799999999996,4013.9099999999999,884.01700000000005,4749.5699999999997,-1369.8,-163.38,673.28700000000003
169157.0,4261.9300000000003,3838.5100000000002,805.12800000000004,4475.3400000000001,-1337.3299999999999,-80.721400000000003,643.01800000000003
169158.0,4069.6500000000001,3715.0599999999999,774.98900000000003,4248.8999999999996,-1292.6099999999999,-9.3245500000000003,591.82399999999996
169159.0,3847.6999999999998,3616.3000000000002,801.92399999999998,4037.96,-1239.8399999999999,67.583500000000001,545.97500000000002
169160.0,3647.5300000000002,3496.1199999999999,806.08699999999999,3818.8699999999999,-1191.0999999999999,139.57499999999999,510.31599999999997
169161.0,3453.2800000000002,3340.02,766.84299999999996,3567.6799999999998,-1138.4300000000001,204.06200000000001,466.65300000000002
169162.0,3266.0300000000002,3186.7800000000002,731.62199999999996,3322.8699999999999,-1085.6600000000001,264.51499999999999,424.51799999999997
169163.0,3073.6300000000001,3025.0500000000002,694.87,3068.0900000000001,-1027.95,323.34899999999999,379.28300000000002
169164.0,2901.9299999999998,2850.5900000000001,633.28399999999999,2809.7199999999998,-972.70899999999995,373.82999999999998,334.63900000000001
169165.0,2704.3099999999999,2704.46,621.79100000000005,2564.96,-905.07799999999997,429.51299999999998,280.41500000000002
169166.0,2628.5700000000002,2424.6700000000001,428.536,2247.3899999999999,-886.05700000000002,464.88999999999999,284.96300000000002
169167.0,2356.8200000000002,2553.7199999999998,590.80100000000004,2223.9499999999998,-725.41099999999994,466.12900000000002,56.547800000000002
169168.0,39197.0,-58275.199999999997,-32877.599999999999,-55263.0,16467.400000000001,-1417.1700000000001,6812.9899999999998
169169.0,33767.400000000001,-61337.099999999999,-44979.199999999997,-55846.400000000001,16756.700000000001,-2280.5599999999999,4978.7600000000002
169170.0,34603.800000000003,-50401.0,-37762.099999999999,-45389.400000000001,18699.599999999999,-661.75699999999995,2919.8400000000001
169171.0,34950.900000000001,-36061.900000000001,-23657.299999999999,-32532.200000000001,19001.0,1596.6300000000001,1658.5899999999999
169172.0,33044.0,-22451.5,-7862.8500000000004,-19799.299999999999,17155.0,2741.8800000000001,1328.9200000000001
169173.0,30508.099999999999,-11866.1,6187.8199999999997,-8365.6499999999996,14586.299999999999,2348.02,554.75599999999997
169174.0,28234.900000000001,-5160.0699999999997,17194.900000000001,-127.77800000000001,11228.6,1348.51,560.54100000000005
169175.0,25803.400000000001,-3107.3400000000001,20559.700000000001,1320.8099999999999,7949.2600000000002,-371.69799999999998,545.24699999999996
169176.0,27268.700000000001,-341.26400000000001,22482.099999999999,-2802.0500000000002,7299.3199999999997,-388.51900000000001,233.60499999999999
169177.0,26890.200000000001,-13394.4,4436.4300000000003,-19680.799999999999,3818.8200000000002,3156.3600000000001,7743.6899999999996
169178.0,27925.900000000001,-64295.0,-67615.100000000006,-62629.5,-4519.9700000000003,2738.9200000000001,15019.200000000001
169179.0,32467.799999999999,-96198.100000000006,-123467.0,-92478.5,-4394.71,-4290.8400000000001,5232.6499999999996
169180.0,27459.900000000001,-64188.0,-88402.699999999997,-71999.899999999994,5775.8999999999996,-7162.1000000000004,-3735.5300000000002
169181.0,22283.599999999999,-30168.799999999999,-35577.300000000003,-37652.199999999997,10934.700000000001,-5402.4799999999996,1356.0799999999999
169182.0,20180.599999999999,-15858.200000000001,-7587.0500000000002,-10755.0,9073.4099999999999,-5853.8900000000003,-1320.1099999999999
169183.0,21118.200000000001,-2732.3699999999999,15623.799999999999,6647.6099999999997,4617.6000000000004,-4337.3000000000002,-4926.8599999999997
169184.0,13920.4,-2397.1100000000001,12647.200000000001,4846.6599999999999,1637.0799999999999,-2214.6799999999998,-631.89800000000002
169185.0,7153.96,-5411.8999999999996,-809.06299999999999,-456.00200000000001,2214.0900000000001,-2065.6500000000001,495.31400000000002
169186.0,5578.54,-2064.71,-6.2429500000000004,1241.0,2104.75,-1749.71,308.44999999999999
169187.0,4539.3400000000001,155.364,2088.0599999999999,2794.8600000000001,1148.1199999999999,-1866.0799999999999,448.47899999999998
169188.0,4337.0799999999999,1175.1800000000001,2509.8800000000001,3440.21,610.24099999999999,-2113.2399999999998,368.34300000000002
169189.0,4567.75,2583.21,3511.7600000000002,4857.8999999999996,202.15600000000001,-2316.48,489.678
169190.0,4659.9799999999996,3347.9000000000001,3662.98,5892.8800000000001,-34.188000000000002,-2243.71,527.5
169191.0,4484.6599999999999,3316.8299999999999,2567.5500000000002,5633.1899999999996,-289.96600000000001,-1925.6800000000001,597.98699999999997
169192.0,4692.25,3424.8899999999999,1480.6500000000001,5202.9200000000001,-559.60699999999997,-1746.5599999999999,713.64599999999996
169193.0,5093.3100000000004,3885.4099999999999,1183.1600000000001,5296.5299999999997,-792.80999999999995,-1731.51,807.27999999999997
169194.0,5385.79,4176.0,1180.3299999999999,5494.21,-981.38599999999997,-1759.0699999999999,851.221
169195.0,5546.2399999999998,4659.2700000000004,1600.3900000000001,6040.2299999999996,-1128.8199999999999,-1751.26,865.904
169196.0,5630.6099999999997,4752.4499999999998,1638.0799999999999,6214.1999999999998,-1238.05,-1680.28,865.447
169197.0,5681.5,4959.8299999999999,1729.01,6433.8199999999997,-1326.6400000000001,-1566.1700000000001,869.452
169198.0,5719.4399999999996,4912.8699999999999,1530.21,6335.3400000000001,-1401.7,-1444.72,871.50800000000004
169199.0,5740.6899999999996,5037.8500000000004,1531.22,6389.0200000000004,-1468.1300000000001,-1332.4100000000001,876.21000000000004
169200.0,5734.1000000000004,5011.7700000000004,1422.49,6300.1300000000001,-1519.3499999999999,-1224.05,874.19899999999996
169201.0,5695.6599999999999,5045.6099999999997,1409.22,6271.1300000000001,-1557.9000000000001,-1113.1500000000001,868.02800000000002
169202.0,5628.8599999999997,4984.3299999999999,1328.3900000000001,6144.5699999999997,-1583.29,-1001.99,855.93799999999999
169203.0,5538.1499999999996,4955.21,1304.1199999999999,6046.6899999999996,-1598.1900000000001,-890.697,840.95500000000004
169204.0,5433.4200000000001,4848.6400000000003,1221.4300000000001,5871.9700000000003,-1605.0599999999999,-781.37599999999998,825.85500000000002
169205.0,5310.6199999999999,4779.9200000000001,1187.6600000000001,5733.3900000000003,-1598.6600000000001,-677.50999999999999,799.96299999999997
169206.0,5152.7700000000004,4668.7200000000003,1141.6700000000001,5545.4300000000003,-1580.55,-571.399,769.47400000000005
169207.0,4987.0600000000004,4588.4399999999996,1142.6700000000001,5388.5200000000004,-1559.1400000000001,-467.548,742.03300000000002
169208.0,4818.3000000000002,4450.46,1090.52,5174.8500000000004,-1531.47,-369.50999999999999,712.36199999999997
169209.0,4637.7200000000003,4308.9200000000001,1044.0,4956.8000000000002,-1495.52,-275.11500000000001,677.45299999999997
169210.0,4446.2700000000004,4151.4200000000001,994.06399999999996,4721.0799999999999,-1454.21,-182.833,641.05100000000004
169211.0,4261.3100000000004,3989.7199999999998,943.21699999999998,4486.3199999999997,-1411.71,-94.997699999999995,608.89099999999996
169212.0,4072.7600000000002,3811.8699999999999,871.428,4236.6400000000003,-1360.8900000000001,-15.1767,564.20699999999999
169213.0,3860.7399999999998,3655.1199999999999,843.49099999999999,4000.2800000000002,-1303.8499999999999,66.325999999999993,515.495
169214.0,3661.1300000000001,3486.0900000000001,807.61800000000005,3755.1100000000001,-1250.9100000000001,142.94900000000001,476.49599999999998
169215.0,3466.9299999999998,3317.8600000000001,764.90300000000002,3512.8299999999999,-1193.1600000000001,211.363,432.56599999999997
169216.0,3280.3600000000001,3149.1500000000001,721.61699999999996,3274.25,-1134.9200000000001,275.17599999999999,390.41000000000003
169217.0,3087.23,2995.9499999999998,700.44399999999996,3048.1700000000001,-1071.0999999999999,337.34199999999998,344.43000000000001
169218.0,2917.3899999999999,2824.3899999999999,648.85299999999995,2811.8000000000002,-1012.24,390.18299999999999,302.67000000000002
169219.0,2716.48,2701.71,662.93799999999999,2608.7199999999998,-935.60000000000002,446.13900000000001,245.25999999999999
169220.0,2628.3400000000001,2411.27,476.93099999999998,2294.9099999999999,-910.07000000000005,485.29399999999998,249.53999999999999
169221.0,2354.1799999999998,2571.1399999999999,669.54999999999995,2319.1599999999999,-734.12900000000002,490.72800000000001,28.970700000000001
169222.0,36982.800000000003,-27593.5,-3312.2399999999998,-24058.799999999999,15822.200000000001,-3226.8000000000002,4803.4300000000003
169223.0,36640.900000000001,-21078.099999999999,2366.1399999999999,-15227.9,16742.700000000001,-3538.6399999999999,2403.5500000000002
169224.0,38476.0,-9952.0799999999999,17732.099999999999,-2919.1900000000001,16521.700000000001,-3384.4200000000001,1410.1800000000001
169225.0,39073.699999999997,2475.8800000000001,33086.800000000003,9497.4400000000005,15474.6,-3390.1100000000001,911.50699999999995
169226.0,37484.0,9621.8700000000008,40358.0,15215.9,13863.5,-2416.0599999999999,1514.22
169227.0,32076.099999999999,9358.5499999999993,37524.199999999997,14014.4,10479.1,-756.75900000000001,2150.4400000000001
169228.0,22666.700000000001,-1058.45,20946.400000000001,3847.9400000000001,5279.7600000000002,-69.391099999999994,3152.5900000000001
169229.0,13594.799999999999,-11591.6,2340.8499999999999,-8906.8199999999997,2123.9200000000001,-1311.29,858.31500000000005
169230.0,17313.700000000001,-6839.8599999999997,5414.21,-12969.6,2714.3099999999999,-1679.8599999999999,-1454.5
169231.0,22364.700000000001,-12135.1,-1858.71,-23517.700000000001,1858.9400000000001,-1393.6800000000001,6629.3500000000004
169232.0,24933.599999999999,-37741.0,-42032.800000000003,-42754.400000000001,1769.7,-4821.8100000000004,13172.0
169233.0,25737.099999999999,-48356.0,-61523.800000000003,-44579.0,5784.8800000000001,-8216.5699999999997,6379.0299999999997
169234.0,20963.5,-30581.200000000001,-31649.299999999999,-23466.400000000001,8364.4400000000005,-6818.54,-3201.0500000000002
169235.0,17193.400000000001,-8665.3199999999997,3550.5300000000002,-1388.8900000000001,6397.6400000000003,-2786.5900000000001,-3475.73
169236.0,10032.6,-4396.4200000000001,4378.1000000000004,743.572,3721.6399999999999,-511.19200000000001,-49.881500000000003
169237.0,5355.9499999999998,-6395.0900000000001,-6211.21,-5479.1199999999999,2824.46,-626.94000000000005,978.08199999999999
169238.0,5218.8500000000004,-1606.8699999999999,-2358.7399999999998,-2238.4299999999998,2050.29,-1998.4300000000001,847.49900000000002
169239.0,5907.7700000000004,2393.1999999999998,4243.8699999999999,3410.1900000000001,1065.3699999999999,-3043.9499999999998,611.73400000000004
169240.0,5587.6199999999999,1497.53,3494.6399999999999,3673.9099999999999,651.99400000000003,-2855.52,607.04499999999996
169241.0,4786.3800000000001,1693.3,2244.0700000000002,3671.25,426.31200000000001,-2453.73,625.97699999999998
169242.0,4546.1700000000001,2661.1500000000001,2071.3299999999999,4296.3999999999996,101.926,-2245.8499999999999,711.44399999999996
169243.0,4552.0100000000002,2857.1799999999998,1319.3900000000001,4171.7399999999998,-225.66900000000001,-2061.54,753.62400000000002
169244.0,4778.21,3322.1999999999998,1093.5,4224.5299999999997,-540.87099999999998,-2022.52,793.654
169245.0,5110.1800000000003,4119.75,1636.22,4917.6400000000003,-781.00199999999995,-2119.5,820.78599999999994
169246.0,5310.6599999999999,4747.4399999999996,2219.9299999999998,5686.6700000000001,-954.56799999999998,-2145.6100000000001,819.38
169247.0,5437.1800000000003,4908.7700000000004,2228.0799999999999,5968.4300000000003,-1098.8900000000001,-2062.6300000000001,822.06200000000001
169248.0,5560.7700000000004,5157.9399999999996,2182.8800000000001,6232.3100000000004,-1226.1099999999999,-1925.51,834.24300000000005
169249.0,5692.9499999999998,5088.5900000000001,1784.5799999999999,6095.4799999999996,-1346.0599999999999,-1781.8599999999999,854.76800000000003
169250.0,5812.2799999999997,5296.6199999999999,1728.0599999999999,6218.8199999999997,-1454.0899999999999,-1662.5,870.20399999999995
169251.0,5891.3900000000003,5287.1700000000001,1554.05,6155.3199999999997,-1545.6900000000001,-1559.29,878.64200000000005
169252.0,5923.2700000000004,5456.3199999999997,1632.8800000000001,6301.1300000000001,-1616.29,-1457.3599999999999,878.221
169253.0,5916.1999999999998,5396.5299999999997,1520.1199999999999,6225.8500000000004,-1669.0799999999999,-1345.4300000000001,872.57799999999997
169254.0,5880.3999999999996,5428.6599999999999,1520.23,6232.1700000000001,-1707.52,-1230.3,862.05100000000004
169255.0,5820.3000000000002,5346.0900000000001,1430.8299999999999,6120.8000000000002,-1733.6500000000001,-1115.1700000000001,849.66499999999996
169256.0,5735.6199999999999,5306.6199999999999,1406.8299999999999,6048.5699999999997,-1747.3900000000001,-1000.8,832.71000000000004
169257.0,5629.1999999999998,5198.4700000000003,1336.1199999999999,5905.2299999999996,-1750.5,-887.50099999999998,813.476
169258.0,5506.1700000000001,5105.1099999999997,1297.5899999999999,5776.2799999999997,-1744.02,-776.202,792.14099999999996
169259.0,5364.6300000000001,4961.7200000000003,1224.6600000000001,5595.6700000000001,-1727.49,-667.48400000000004,764.51099999999997
169260.0,5203.8500000000004,4845.9499999999998,1197.26,5438.4099999999999,-1702.74,-559.904,733.93100000000004
169261.0,5033.1000000000004,4673.46,1125.4200000000001,5222.5699999999997,-1671.99,-455.34199999999998,703.58100000000002
169262.0,4853.96,4518.96,1078.45,5023.3100000000004,-1634.02,-355.57799999999997,669.55200000000002
169263.0,4664.8699999999999,4361.8199999999997,1039.5999999999999,4819.75,-1590.1600000000001,-258.80599999999998,634.03800000000001
169264.0,4470.8000000000002,4195.0799999999999,996.57000000000005,4605.6999999999998,-1541.01,-166.55600000000001,596.71799999999996
169265.0,4272.9499999999998,4017.98,949.53700000000003,4381.6899999999996,-1487.73,-78.078800000000001,558.60900000000004
169266.0,4074.5599999999999,3845.1599999999999,908.07899999999995,4161.8999999999996,-1430.53,5.2990599999999999,518.202
169267.0,3871.29,3684.3499999999999,883.26700000000005,3952.3600000000001,-1368.5799999999999,85.716700000000003,475.11900000000003
169268.0,3672.5100000000002,3509.29,845.95500000000004,3728.6900000000001,-1306.28,161.946,433.48599999999999
169269.0,3474.6500000000001,3345.5799999999999,820.226,3514.96,-1241.01,233.18700000000001,389.83100000000002
169270.0,3287.02,3152.5700000000002,761.928,3274.8899999999999,-1176.49,298.22800000000001,347.71499999999997
169271.0,3093.7199999999998,2995.5100000000002,745.37599999999998,3067.4299999999998,-1106.75,361.428,302.41899999999998
169272.0,2925.5900000000001,2777.3800000000001,655.57600000000002,2806.8400000000001,-1043.6500000000001,415.601,263.238
169273.0,2724.23,2661.2800000000002,679.41999999999996,2631.6799999999998,-959.30499999999995,471.51499999999999,203.048
169274.0,2624.1199999999999,2381.71,522.05999999999995,2340.5700000000002,-928.15099999999995,514.46900000000005,203.38399999999999
169275.0,2356.8099999999999,2525.0900000000001,699.58600000000001,2362.8200000000002,-744.35299999999995,525.91899999999998,-1.9860199999999999
169276.0,37613.099999999999,-5028.9300000000003,24838.700000000001,2056.8600000000001,14210.1,-4235.0100000000002,2858.0500000000002
169277.0,37081.699999999997,688.19899999999996,31164.0,7674.1199999999999,13480.1,-4616.9899999999998,656.84100000000001
169278.0,33209.099999999999,3873.1700000000001,34043.5,10819.1,10338.0,-2982.02,1484.77
169279.0,28436.900000000001,3075.73,30648.799999999999,9821.6499999999996,7095.54,-3276.4000000000001,-1370.9200000000001
169280.0,27453.799999999999,8806.2299999999996,34952.5,11279.6,5598.9099999999999,-2762.0999999999999,-1975.55
169281.0,23415.900000000001,6883.3900000000003,28746.400000000001,6394.8999999999996,3819.21,-1894.8699999999999,1273.5799999999999
169282.0,16243.299999999999,-2571.4299999999998,10456.9,-4027.6399999999999,2751.8899999999999,-2160.96,3477.9400000000001
169283.0,11767.700000000001,-7901.6499999999996,-2062.0100000000002,-10585.4,3361.8800000000001,-2662.7800000000002,2962.25
169284.0,13987.1,-6208.4300000000003,-1324.1500000000001,-12625.1,4403.96,-3133.3099999999999,1969.0599999999999
169285.0,17041.400000000001,-8258.5400000000009,-2571.7600000000002,-14622.4,3894.5999999999999,-4401.5,5091.0699999999997
169286.0,16823.0,-11573.5,-7337.3299999999999,-12327.1,4338.2299999999996,-6966.8100000000004,4443.5799999999999
169287.0,15646.6,-8629.2700000000004,-3412.9699999999998,-4522.3299999999999,5477.5900000000001,-6255.54,2217.8200000000002
169288.0,11848.1,-7465.29,-2733.1100000000001,-2444.6599999999999,5130.1300000000001,-3220.6300000000001,1467.96
169289.0,7595.3900000000003,-5739.6400000000003,-3165.6100000000001,-4065.0900000000001,3724.27,-1846.8199999999999,492.50200000000001
169290.0,6758.0299999999997,-1009.26,1844.0699999999999,-1305.49,1987.1900000000001,-2800.9000000000001,636.32100000000003
169291.0,7817.0699999999997,2830.4899999999998,6743.21,4225.9399999999996,1171.79,-3861.6999999999998,388.41500000000002
169292.0,6197.8699999999999,1895.96,5006.9799999999996,4285.5200000000004,812.38999999999999,-3042.04,488.92700000000002
169293.0,4360.3500000000004,613.197,913.42700000000002,1798.1099999999999,475.78500000000003,-2299.8600000000001,665.09900000000005
169294.0,4513.9799999999996,2772.6300000000001,1656.1400000000001,2998.1300000000001,90.005499999999998,-2385.3200000000002,760.11500000000001
169295.0,4883.0200000000004,3650.8499999999999,2227.0100000000002,3931.6100000000001,-257.05900000000003,-2529.5500000000002,804.95299999999997
169296.0,5005.3000000000002,3943.7800000000002,2182.9400000000001,4283.04,-513.245,-2486.6199999999999,795.79300000000001
169297.0,5205.4300000000003,4669.8100000000004,2556.04,5038.3000000000002,-729.07799999999997,-2460.6399999999999,807.24699999999996
169298.0,5351.75,5089.3699999999999,2641.6900000000001,5588.0200000000004,-906.971,-2359.4299999999998,819.024
169299.0,5481.6199999999999,5139.1300000000001,2219.5700000000002,5648.6499999999996,-1088.22,-2170.9699999999998,833.69500000000005
169300.0,5675.0799999999999,5159.8199999999997,1752.54,5552.8599999999997,-1265.97,-2007.8099999999999,856.61500000000001
169301.0,5869.5299999999997,5453.4799999999996,1703.3,5747.75,-1421.8,-1901.0999999999999,873.75900000000001
169302.0,6006.1199999999999,5537.8000000000002,1600.97,5795.4700000000003,-1550.24,-1821.45,881.54100000000005
169303.0,6088.1899999999996,5832.6999999999998,1798.26,6111.9200000000001,-1649.1600000000001,-1742.5699999999999,878.63199999999995
169304.0,6127.3100000000004,5801.0900000000001,1701.6800000000001,6119.6700000000001,-1726.98,-1642.3599999999999,874.03800000000001
169305.0,6142.1099999999997,5910.6300000000001,1747.9300000000001,6255.3599999999997,-1787.9000000000001,-1527.9300000000001,866.05399999999997
169306.0,6135.25,5789.9499999999998,1577.52,6143.0299999999997,-1837.71,-1407.47,858.35199999999998
169307.0,6104.2799999999997,5820.8000000000002,1584.79,6174.6099999999997,-1874.45,-1291.5999999999999,846.38999999999999
169308.0,6045.8699999999999,5713.0500000000002,1486.6700000000001,6071.5,-1898.75,-1176.29,832.67600000000004
169309.0,5961.79,5665.0799999999999,1471.5,6025.7299999999996,-1910.1500000000001,-1061.52,814.01099999999997
169310.0,5856.3999999999996,5537.3400000000001,1398.54,5899.21,-1910.99,-947.57799999999997,793.673
169311.0,5730.3100000000004,5432.4300000000003,1366.3800000000001,5792.6899999999996,-1900.9100000000001,-835.20100000000002,769.41600000000005
169312.0,5587.3500000000004,5285.8400000000001,1308.8699999999999,5642.5100000000002,-1881.96,-724.59900000000005,742.99400000000003
169313.0,5429.2299999999996,5152.4300000000003,1277.6600000000001,5502.0500000000002,-1854.3299999999999,-616.18200000000002,714.38499999999999
169314.0,5259.1599999999999,4978.54,1216.6400000000001,5318.9399999999996,-1819.0,-510.90199999999999,683.404
169315.0,5077.3199999999997,4832.4700000000003,1194.1199999999999,5161.0699999999997,-1776.6800000000001,-408.44600000000003,650.08600000000001
169316.0,4887.6300000000001,4656.3299999999999,1149.3,4970.8900000000003,-1728.6500000000001,-309.61799999999999,615.14099999999996
169317.0,4691.1999999999998,4465.6800000000003,1096.5699999999999,4764.0299999999997,-1675.27,-214.357,578.75099999999998
169318.0,4490.4399999999996,4275.0,1048.3099999999999,4555.1599999999999,-1617.3199999999999,-123.22499999999999,540.78399999999999
169319.0,4286.3999999999996,4087.5900000000001,1007.27,4347.4300000000003,-1555.3800000000001,-35.861899999999999,501.80099999999999
169320.0,4082.5,3885.3800000000001,952.63800000000003,4123.2799999999997,-1490.46,46.8675,462.06
169321.0,3877.4699999999998,3682.1700000000001,899.44200000000001,3896.2399999999998,-1422.4000000000001,125.474,421.39699999999999
169322.0,3677.0999999999999,3475.0500000000002,841.07100000000003,3665.27,-1353.03,199.00299999999999,380.86000000000001
169323.0,3476.4699999999998,3284.9400000000001,800.97000000000003,3449.04,-1280.55,269.26799999999997,338.74099999999999
169324.0,3287.8899999999999,3087.8000000000002,747.83900000000006,3226.8299999999999,-1209.6700000000001,333.38999999999999,298.23200000000003
169325.0,3094.8200000000002,2921.9200000000001,730.31899999999996,3031.9200000000001,-1133.8800000000001,395.94499999999999,254.45099999999999
169326.0,2926.6399999999999,2723.8000000000002,667.67200000000003,2810.3000000000002,-1065.3699999999999,449.62099999999998,216.58099999999999
169327.0,2727.8299999999999,2599.9499999999998,688.82500000000005,2647.5500000000002,-975.21699999999998,505.51799999999997,158.79900000000001
169328.0,2622.4200000000001,2310.5300000000002,530.81200000000001,2358.73,-939.25099999999998,548.19299999999998,156.50299999999999
169329.0,2360.1700000000001,2452.0999999999999,705.86099999999999,2390.77,-745.61500000000001,563.71600000000001,-32.890999999999998
169330.0,29285.700000000001,-7802.0600000000004,21263.299999999999,830.20600000000002,6547.0900000000001,-4447.7600000000002,-658.89700000000005
169331.0,28134.400000000001,-479.87799999999999,26238.299999999999,3551.0599999999999,5892.8599999999997,-4063.8200000000002,-2266.8400000000001
169332.0,23262.599999999999,450.66399999999999,22946.599999999999,2829.9200000000001,4711.96,-2322.7199999999998,224.09200000000001
169333.0,17057.5,-1992.47,13768.6,-959.14400000000001,4006.52,-1788.98,-49.566600000000001
169334.0,15006.0,-1470.3299999999999,11290.9,-3289.1500000000001,3129.4400000000001,-1402.48,-420.38999999999999
169335.0,13728.799999999999,-2577.0799999999999,7748.7200000000003,-6280.6899999999996,2203.48,-2050.1599999999999,952.64400000000001
169336.0,12769.9,-3223.5700000000002,4575.0799999999999,-7151.9099999999999,2422.1999999999998,-3351.8400000000001,1275.1500000000001
169337.0,12940.5,-2814.6199999999999,4428.0500000000002,-6247.3699999999999,2765.3699999999999,-4092.8699999999999,1311.1300000000001
169338.0,13119.1,-2806.96,4373.9799999999996,-5351.5500000000002,2876.3899999999999,-4676.9300000000003,1336.05
169339.0,12067.5,-2502.6900000000001,4134.6400000000003,-3096.5599999999999,2780.9899999999998,-4672.5500000000002,1690.8699999999999
169340.0,10002.700000000001,-2481.5500000000002,2592.6700000000001,-1845.5999999999999,2611.02,-4199.46,1121.03
169341.0,8592.4599999999991,-1216.8499999999999,3181.9000000000001,-1241.1500000000001,2105.1799999999998,-3683.4899999999998,353.23000000000002
169342.0,8380.3700000000008,935.59699999999998,5174.9799999999996,575.89999999999998,1327.96,-3837.6399999999999,613.99199999999996
169343.0,7828.1000000000004,2019.79,5324.7600000000002,2768.4499999999998,1101.3900000000001,-3955.1199999999999,753.202
169344.0,5722.5200000000004,1531.3,3125.8899999999999,2854.6300000000001,948.00400000000002,-2945.8299999999999,781.81700000000001
169345.0,4187.3299999999999,659.79100000000005,-99.592799999999997,622.91999999999996,486.18700000000001,-2157.6799999999998,877.08600000000001
169346.0,4790.1000000000004,2691.0,926.61599999999999,1581.8099999999999,47.4801,-2462.4699999999998,887.072
169347.0,5292.1599999999999,4873.25,3395.73,4201.2700000000004,-254.48500000000001,-2828.4499999999998,850.59900000000005
169348.0,5152.1800000000003,4361.1099999999997,2652.48,4139.9700000000003,-494.39299999999997,-2660.5300000000002,813.61300000000006
169349.0,5197.5500000000002,4659.1400000000003,2225.98,4333.5200000000004,-738.923,-2458.4899999999998,818.53899999999999
169350.0,5435.8900000000003,5189.3299999999999,2209.02,4818.7399999999998,-965.35500000000002,-2359.3800000000001,844.19100000000003
169351.0,5635.1700000000001,5294.79,1877.8599999999999,4926.9700000000003,-1175.52,-2225.98,854.54100000000005
169352.0,5848.5500000000002,5487.1999999999998,1699.3699999999999,5049.3299999999999,-1366.9000000000001,-2121.0,860.91999999999996
169353.0,6033.6599999999999,5877.1099999999997,1879.8199999999999,5431.3100000000004,-1518.97,-2069.48,864.07899999999995
169354.0,6151.4499999999998,6197.6499999999996,2086.4099999999999,5831.46,-1638.48,-2002.77,860.68200000000002
169355.0,6237.7600000000002,6236.0100000000002,2004.5899999999999,5954.1400000000003,-1740.5799999999999,-1900.8199999999999,854.375
169356.0,6311.8299999999999,6367.3699999999999,2002.27,6146.9700000000003,-1830.71,-1777.0799999999999,850.48400000000004
169357.0,6369.04,6252.9499999999998,1766.29,6064.0299999999997,-1910.0799999999999,-1648.5999999999999,846.101
169358.0,6401.1899999999996,6333.0900000000001,1764.9300000000001,6166.7700000000004,-1975.6400000000001,-1529.1700000000001,839.601
169359.0,6397.8400000000001,6235.8199999999997,1636.0999999999999,6098.5799999999999,-2025.3099999999999,-1416.5,829.12599999999998
169360.0,6361.5699999999997,6273.1000000000004,1681.6099999999999,6174.9499999999998,-2058.77,-1306.3599999999999,815.15099999999995
169361.0,6296.5500000000002,6137.5299999999997,1580.72,6081.4700000000003,-2077.9299999999998,-1192.8900000000001,798.34900000000005
169362.0,6209.0699999999997,6070.9200000000001,1567.3599999999999,6051.6700000000001,-2085.0999999999999,-1079.2,778.87800000000004
169363.0,6100.1000000000004,5918.3599999999997,1488.3499999999999,5934.0,-2081.0700000000002,-966.55200000000002,757.5
169364.0,5971.5,5793.9799999999996,1454.6700000000001,5841.2299999999996,-2066.6999999999998,-855.255,733.43200000000002
169365.0,5825.8699999999999,5626.4399999999996,1393.1099999999999,5702.6599999999999,-2042.98,-745.80799999999999,707.38400000000001
169366.0,5664.8199999999997,5460.6999999999998,1346.5699999999999,5562.3800000000001,-2010.6400000000001,-638.55600000000004,679.24699999999996
169367.0,5491.1599999999999,5268.8800000000001,1284.9200000000001,5393.3000000000002,-1970.5799999999999,-534.29499999999996,649.02999999999997
169368.0,5306.0799999999999,5086.25,1242.4000000000001,5230.1999999999998,-1923.5699999999999,-432.69299999999998,617.30100000000004
169369.0,5112.8400000000001,4870.29,1173.1400000000001,5030.6800000000003,-1870.3800000000001,-334.52300000000002,583.90499999999997
169370.0,4912.3999999999996,4661.04,1117.0,4834.6800000000003,-1811.8599999999999,-239.48400000000001,549.35400000000004
169371.0,4707.4099999999999,4467.0500000000002,1079.3900000000001,4650.7299999999996,-1748.49,-148.49600000000001,513.02700000000004
169372.0,4499.3500000000004,4256.0299999999997,1028.5699999999999,4447.0900000000001,-1681.5599999999999,-60.996299999999998,476.22699999999998
169373.0,4289.6800000000003,4049.21,982.90099999999995,4244.5299999999997,-1610.9300000000001,22.1694,437.87700000000001
169374.0,4080.96,3843.0,938.971,4040.5799999999999,-1538.22,101.337,399.50999999999999
169375.0,3872.9099999999999,3653.9899999999998,911.46699999999998,3850.8499999999999,-1462.6199999999999,176.471,359.71199999999999
169376.0,3670.52,3452.4200000000001,869.36300000000006,3646.9000000000001,-1386.6900000000001,247.09700000000001,320.67200000000003
169377.0,3468.8899999999999,3264.9200000000001,840.76900000000001,3453.73,-1307.9100000000001,314.101,280.13
169378.0,3279.3899999999999,3052.3400000000001,781.15200000000004,3235.5100000000002,-1231.3099999999999,375.39100000000002,241.809
169379.0,3086.48,2874.0700000000002,758.49199999999996,3046.9400000000001,-1149.8,435.24299999999999,200.54400000000001
169380.0,2918.0500000000002,2642.6599999999999,669.32299999999998,2808.4299999999998,-1076.1099999999999,486.66899999999998,165.09700000000001
169381.0,2721.1799999999998,2506.8699999999999,683.60599999999999,2650.6100000000001,-980.42399999999998,540.64099999999996,111.343
169382.0,2613.3200000000002,2220.8200000000002,535.07299999999998,2377.1500000000001,-940.35299999999995,580.60900000000004,109.0
169383.0,2354.9400000000001,2337.9000000000001,685.58699999999999,2397.3800000000001,-737.11699999999996,597.29700000000003,-66.965800000000002
169384.0,14318.1,-15280.200000000001,-2137.4099999999999,-13736.4,2891.2199999999998,-2134.8400000000001,-1951.9300000000001
169385.0,14273.200000000001,-10638.9,2030.95,-11237.200000000001,3065.3000000000002,-999.077,-1166.03
169386.0,13806.6,-7269.0600000000004,4157.1599999999999,-8938.7700000000004,3013.8600000000001,-1493.4300000000001,-1191.23
169387.0,13334.9,-3859.8200000000002,6401.8699999999999,-6650.5,3031.4400000000001,-1684.8299999999999,53.223500000000001
169388.0,11822.5,-4276.1999999999998,3764.2800000000002,-7312.8400000000001,2932.3299999999999,-2107.71,887.31500000000005
169389.0,10896.0,-3540.8800000000001,2735.0100000000002,-6690.8999999999996,2956.2800000000002,-2534.73,1176.25
169390.0,10181.5,-2704.27,2587.6799999999998,-5597.4799999999996,2767.9200000000001,-2907.4200000000001,1100.6600000000001
169391.0,9495.8500000000004,-1965.1500000000001,2607.96,-4508.5900000000001,2451.5100000000002,-3118.9299999999998,1146.6600000000001
169392.0,8493.7000000000007,-1254.6800000000001,2333.9499999999998,-3211.6500000000001,2132.4899999999998,-3192.0,1183.6199999999999
169393.0,7513.1999999999998,-545.14999999999998,2174.6700000000001,-2213.7600000000002,1795.1600000000001,-3124.8000000000002,960.41999999999996
169394.0,6871.4700000000003,797.97500000000002,2863.71,-823.11800000000005,1370.8599999999999,-3104.6700000000001,897.86800000000005
169395.0,6193.1499999999996,1608.4400000000001,2746.1900000000001,319.38299999999998,1029.8800000000001,-3035.1399999999999,1018.84
169396.0,5262.1099999999997,1628.55,1555.0799999999999,533.76700000000005,742.28999999999996,-2713.27,970.86800000000005
169397.0,4812.3000000000002,2124.2399999999998,1075.1300000000001,530.39499999999998,321.27100000000002,-2477.4000000000001,906.87400000000002
169398.0,5330.1300000000001,3471.4099999999999,2052.9699999999998,1462.55,-50.103999999999999,-2768.5900000000001,858.19000000000005
169399.0,5653.6099999999997,5324.8299999999999,4046.5300000000002,3880.6199999999999,-272.56700000000001,-3048.9400000000001,812.11000000000001
169400.0,5256.6599999999999,5055.6999999999998,3339.6900000000001,4226.2200000000003,-500.46699999999998,-2756.4299999999998,791.21900000000005
169401.0,5171.3500000000004,4356.4099999999999,1604.1900000000001,3299.5300000000002,-790.58500000000004,-2390.8099999999999,803.51800000000003
169402.0,5546.3500000000004,5521.7399999999998,2119.6599999999999,4197.4300000000003,-1049.79,-2348.7399999999998,833.38199999999995
169403.0,5785.5500000000002,5946.3299999999999,2280.4000000000001,4716.5600000000004,-1252.0799999999999,-2325.1399999999999,838.16300000000001
169404.0,5961.6599999999999,6122.75,2172.1599999999999,4960.1499999999996,-1434.51,-2231.0599999999999,830.49900000000002
169405.0,6152.6899999999996,6495.6599999999999,2292.8600000000001,5380.1800000000003,-1589.98,-2158.8299999999999,830.69799999999998
169406.0,6303.6899999999996,6737.6000000000004,2341.1199999999999,5737.3999999999996,-1722.4400000000001,-2068.77,829.58699999999999
169407.0,6434.0200000000004,6730.3400000000001,2127.4200000000001,5827.4300000000003,-1847.7,-1937.7,825.50300000000004
169408.0,6560.0600000000004,6699.6700000000001,1903.3099999999999,5844.7700000000004,-1962.6600000000001,-1808.97,821.72199999999998
169409.0,6650.4399999999996,6803.4099999999999,1882.6500000000001,5993.4200000000001,-2057.8400000000001,-1696.5599999999999,817.53200000000004
169410.0,6697.5600000000004,6762.9300000000003,1781.5899999999999,6009.6000000000004,-2131.7399999999998,-1595.54,807.97400000000005
169411.0,6704.8800000000001,6857.0500000000002,1864.3800000000001,6179.3400000000001,-2186.1799999999998,-1495.72,796.52599999999995
169412.0,6681.25,6741.1700000000001,1763.1400000000001,6145.4799999999996,-2224.23,-1389.78,781.60799999999995
169413.0,6634.2799999999997,6715.0600000000004,1770.01,6198.0,-2249.6399999999999,-1278.6900000000001,766.33199999999999
169414.0,6564.7299999999996,6533.0,1638.0599999999999,6086.8100000000004,-2262.8499999999999,-1165.9300000000001,748.44399999999996
169415.0,6473.0299999999997,6449.5600000000004,1626.9100000000001,6069.2600000000002,-2265.1100000000001,-1055.76,729.26900000000001
169416.0,6358.2399999999998,6272.6899999999996,1543.9100000000001,5958.21,-2255.4200000000001,-947.26099999999997,707.43399999999997
169417.0,6224.3100000000004,6133.4399999999996,1515.45,5881.6499999999996,-2235.8000000000002,-839.96100000000001,683.74800000000005
169418.0,6072.9499999999998,5942.4200000000001,1449.76,5750.5100000000002,-2206.3800000000001,-734.548,658.03899999999999
169419.0,5906.6899999999996,5761.8599999999997,1407.0,5626.1800000000003,-2168.5799999999999,-631.17999999999995,630.69299999999998
169420.0,5727.6000000000004,5559.6700000000001,1352.8199999999999,5476.9200000000001,-2122.8699999999999,-530.29899999999998,601.59400000000005
169421.0,5537.79,5363.2700000000004,1312.99,5329.54,-2070.4000000000001,-431.87,571.14599999999996
169422.0,5339.5,5142.9200000000001,1255.4200000000001,5154.29,-2011.76,-336.55000000000001,539.12099999999998
169423.0,5134.25,4945.04,1225.77,4997.5799999999999,-1947.8499999999999,-244.37,505.94400000000002
169424.0,4924.1300000000001,4729.2700000000004,1181.75,4819.3000000000002,-1879.23,-155.65799999999999,471.69400000000002
169425.0,4710.8699999999999,4497.25,1124.02,4620.8800000000001,-1806.8399999999999,-70.353700000000003,436.81400000000002
169426.0,4496.1599999999999,4273.71,1075.47,4427.1499999999996,-1731.01,11.1532,401.185
169427.0,4281.3299999999999,4052.0300000000002,1028.8800000000001,4231.5,-1652.46,89.037000000000006,365.09199999999998
169428.0,4068.5999999999999,3823.7600000000002,974.25099999999998,4025.7199999999998,-1572.0,162.94800000000001,328.78399999999999
169429.0,3857.7600000000002,3592.0999999999999,914.875,3812.6700000000001,-1489.5999999999999,233.11799999999999,292.08800000000002
169430.0,3653.0799999999999,3364.8600000000001,856.19600000000003,3601.3600000000001,-1406.9200000000001,298.77999999999997,255.79599999999999
169431.0,3450.5,3150.4099999999999,808.846,3398.9000000000001,-1322.1600000000001,361.42599999999999,218.50299999999999
169432.0,3260.6100000000001,2940.1300000000001,757.75599999999997,3198.8699999999999,-1239.8800000000001,418.37200000000001,182.786
169433.0,3068.3299999999999,2751.3200000000002,730.81899999999996,3015.6999999999998,-1153.3199999999999,474.33600000000001,144.619
169434.0,2900.0999999999999,2548.0900000000001,674.35699999999997,2819.02,-1074.73,521.654,111.34699999999999
169435.0,2705.5500000000002,2398.29,679.61099999999999,2662.79,-974.25900000000001,572.279,62.056899999999999
169436.0,2595.1900000000001,2113.5799999999999,537.40700000000004,2400.8000000000002,-930.17499999999995,608.09000000000003,59.156399999999998
169437.0,2342.5999999999999,2218.46,677.59000000000003,2421.3000000000002,-719.53599999999994,626.16700000000003,-100.598
169438.0,13370.200000000001,-10776.200000000001,-3421.2800000000002,-13270.299999999999,5648.6599999999999,-1176.5699999999999,275.42700000000002
169439.0,13154.700000000001,-8302.9699999999993,21.539999999999999,-10516.4,4889.6199999999999,-765.36199999999997,1521.1300000000001
169440.0,11781.6,-6521.9899999999998,642.91899999999998,-9104.9699999999993,4293.7600000000002,-1370.6500000000001,669.77999999999997
169441.0,11313.299999999999,-4450.2700000000004,2508.7199999999998,-7657.96,3471.1900000000001,-1668.8199999999999,903.375
169442.0,10469.4,-3039.1100000000001,2904.8400000000001,-6263.46,2934.3699999999999,-2342.3099999999999,899.08299999999997
169443.0,9713.6599999999999,-1678.6600000000001,3516.5700000000002,-4705.1400000000003,2550.1300000000001,-2633.1300000000001,850.94000000000005
169444.0,8751.1399999999994,-901.57000000000005,3251.4499999999998,-3752.3899999999999,2138.5,-2779.2199999999998,908.54300000000001
169445.0,7856.6899999999996,125.751,3236.79,-2580.3299999999999,1787.9000000000001,-2845.48,899.53999999999996
169446.0,7063.6599999999999,963.15700000000004,3149.3099999999999,-1602.98,1408.25,-2873.9499999999998,854.92999999999995
169447.0,6357.29,1933.8099999999999,3229.5900000000001,-502.34699999999998,1034.95,-2845.6199999999999,844.31100000000004
169448.0,5703.8999999999996,2406.75,2738.3299999999999,56.040599999999998,669.66300000000001,-2749.3400000000001,836.10199999999998
169449.0,5385.9399999999996,3080.2800000000002,2584.9400000000001,630.36500000000001,312.44400000000002,-2695.0900000000001,793.96699999999998
169450.0,5438.6199999999999,4251.4399999999996,3185.4899999999998,1752.8099999999999,-11.2204,-2769.8099999999999,784.59100000000001
169451.0,5440.25,5041.54,3477.7399999999998,2846.9200000000001,-270.69099999999997,-2809.3699999999999,789.28999999999996
169452.0,5196.46,5207.6999999999998,2924.27,3395.8000000000002,-543.42600000000004,-2572.23,797.58799999999997
169453.0,5233.0200000000004,4717.3500000000004,1499.25,2764.5999999999999,-859.16899999999998,-2261.0300000000002,805.78700000000003
169454.0,5672.8999999999996,5627.1099999999997,1832.6600000000001,3359.7600000000002,-1127.3599999999999,-2268.3099999999999,816.06399999999996
169455.0,5943.3199999999997,6858.4799999999996,2931.9299999999998,4767.6099999999997,-1311.77,-2351.98,813.59000000000003
169456.0,6059.6199999999999,6597.5799999999999,2425.4200000000001,4767.6599999999999,-1490.8599999999999,-2239.48,792.524
169457.0,6276.7700000000004,6785.9899999999998,2237.79,5006.1700000000001,-1677.0599999999999,-2109.0599999999999,786.73099999999999
169458.0,6489.1099999999997,7055.1099999999997,2238.8499999999999,5356.2299999999996,-1835.5,-2020.3,786.59400000000005
169459.0,6654.6800000000003,7093.6700000000001,2069.96,5503.7299999999996,-1977.8699999999999,-1910.0,780.255
169460.0,6799.2600000000002,7134.1499999999996,1935.6900000000001,5611.3699999999999,-2102.4299999999998,-1802.97,772.52099999999996
169461.0,6902.46,7290.9799999999996,1993.55,5844.1000000000004,-2200.52,-1718.8599999999999,766.40999999999997
169462.0,6956.1700000000001,7396.6400000000003,2058.04,6060.7399999999998,-2275.0,-1631.99,756.69100000000003
169463.0,6984.1499999999996,7334.79,1973.5799999999999,6116.8400000000001,-2335.6500000000001,-1533.4000000000001,744.399
169464.0,6987.5799999999999,7330.2399999999998,1965.1400000000001,6226.5900000000001,-2383.3899999999999,-1425.5799999999999,731.82600000000002
169465.0,6968.5600000000004,7160.2799999999997,1810.22,6159.8800000000001,-2418.98,-1315.55,717.11800000000005
169466.0,6921.1599999999999,7105.1599999999999,1800.28,6201.9099999999999,-2441.3800000000001,-1208.0,701.82799999999997
169467.0,6846.4700000000003,6935.3299999999999,1702.27,6128.2600000000002,-2449.6999999999998,-1104.2,683.23900000000003
169468.0,6745.2399999999998,6848.8599999999997,1714.5999999999999,6139.1999999999998,-2445.6799999999998,-1001.88,663.88099999999997
169469.0,6622.6099999999997,6647.8199999999997,1628.78,6034.9300000000003,-2429.3299999999999,-899.73099999999999,641.68200000000002
169470.0,6481.5299999999997,6488.3500000000004,1600.6199999999999,5967.5200000000004,-2403.8099999999999,-797.87,619.10799999999995
169471.0,6323.7799999999997,6272.79,1528.3900000000001,5840.29,-2368.0999999999999,-698.27099999999996,594.21799999999996
169472.0,6151.2200000000003,6074.7299999999996,1486.6199999999999,5726.71,-2324.6399999999999,-600.07500000000005,568.69299999999998
169473.0,5966.0600000000004,5849.96,1426.48,5582.0900000000001,-2272.8800000000001,-504.46899999999999,541.11500000000001
169474.0,5770.3500000000004,5626.1800000000003,1376.1300000000001,5434.2399999999998,-2214.8600000000001,-410.96199999999999,512.96600000000001
169475.0,5565.96,5383.54,1312.0,5262.7399999999998,-2150.2800000000002,-320.50400000000002,483.20499999999998
169476.0,5354.8999999999996,5154.8000000000002,1267.01,5100.8500000000004,-2080.7600000000002,-232.71600000000001,453.01400000000001
169477.0,5138.8199999999997,4894.2700000000004,1192.6199999999999,4902.2700000000004,-2006.3499999999999,-148.065,421.69400000000002
169478.0,4919.8199999999997,4650.9300000000003,1137.0899999999999,4716.1700000000001,-1928.29,-66.608500000000006,389.83800000000002
169479.0,4699.0,4416.3699999999999,1090.6700000000001,4534.1000000000004,-1846.78,11.4208,357.17099999999999
169480.0,4478.3699999999999,4181.0699999999997,1042.9000000000001,4346.8699999999999,-1762.8399999999999,85.921400000000006,323.99599999999998
169481.0,4258.8500000000004,3938.8699999999999,986.97500000000002,4148.21,-1676.8399999999999,156.93700000000001,290.44299999999998
169482.0,4042.6100000000001,3717.04,948.39400000000001,3965.6799999999998,-1589.45,224.042,256.56400000000002
169483.0,3829.46,3495.5900000000001,907.91700000000003,3779.3600000000001,-1500.75,287.89600000000002,222.452
169484.0,3623.4699999999998,3287.79,875.64499999999998,3602.7800000000002,-1412.24,347.46100000000001,188.57499999999999
169485.0,3420.4899999999998,3068.3400000000001,830.12800000000004,3410.3800000000001,-1322.29,404.44799999999998,154.41900000000001
169486.0,3230.7800000000002,2859.3200000000002,785.31399999999996,3225.1700000000001,-1235.05,455.86099999999999,121.642
169487.0,3039.48,2646.6100000000001,740.029,3031.9200000000001,-1143.95,507.10899999999998,87.464200000000005
169488.0,2872.4699999999998,2429.0500000000002,672.18399999999997,2832.0500000000002,-1061.0699999999999,549.74199999999996,57.284999999999997
169489.0,2680.79,2254.0900000000001,656.06299999999999,2663.5300000000002,-956.20399999999995,596.52700000000004,13.0686
169490.0,2569.73,1992.6099999999999,539.14599999999996,2431.75,-908.78800000000001,627.65200000000004,10.507999999999999
169491.0,2322.7399999999998,2057.0100000000002,642.35299999999995,2422.5700000000002,-691.971,646.39300000000003,-133.07599999999999
169492.0,14496.200000000001,-6876.4799999999996,3746.3699999999999,-8377.4300000000003,4655.7600000000002,-2083.4099999999999,590.90899999999999
169493.0,13268.5,-5162.7600000000002,4507.0699999999997,-7226.4799999999996,3872.3699999999999,-2007.49,647.45799999999997
169494.0,11700.700000000001,-3677.02,4047.3499999999999,-6337.7200000000003,3359.7399999999998,-2184.2399999999998,691.17700000000002
169495.0,10271.0,-2468.5100000000002,3633.8299999999999,-5367.0600000000004,2903.8200000000002,-2234.8499999999999,792.72400000000005
169496.0,8972.0,-1332.46,3296.9499999999998,-4427.2200000000003,2424.4699999999998,-2269.9699999999998,830.37800000000004
169497.0,7898.8400000000001,-413.74000000000001,2907.5599999999999,-3640.5100000000002,1968.25,-2339.79,853.56899999999996
169498.0,7044.6300000000001,706.09199999999998,2933.98,-2538.3099999999999,1545.79,-2421.9200000000001,845.28300000000002
169499.0,6313.4200000000001,1550.49,2810.1599999999999,-1633.1600000000001,1143.48,-2460.9099999999999,823.72000000000003
169500.0,5713.1099999999997,2451.5999999999999,2776.5500000000002,-682.67999999999995,758.42100000000005,-2448.9699999999998,811.13199999999995
169501.0,5338.5600000000004,3146.8699999999999,2597.7600000000002,6.7729900000000001,393.72300000000001,-2427.9400000000001,798.54700000000003
169502.0,5217.6300000000001,4086.6500000000001,2793.7600000000002,960.19000000000005,57.912300000000002,-2445.5700000000002,788.88300000000004
169503.0,5156.1300000000001,4816.6599999999999,2850.6500000000001,1839.0799999999999,-254.327,-2428.3699999999999,779.63300000000004
169504.0,5140.9899999999998,5055.3900000000003,2385.5700000000002,2237.9699999999998,-568.596,-2319.96,768.01800000000003
169505.0,5306.4200000000001,5419.8999999999996,2073.9499999999998,2580.3000000000002,-874.60599999999999,-2189.1999999999998,758.93499999999995
169506.0,5665.5299999999997,6077.6099999999997,2253.4000000000001,3094.0300000000002,-1133.3199999999999,-2193.1100000000001,752.57899999999995
169507.0,5966.1300000000001,7189.4799999999996,3125.75,4349.0299999999997,-1330.3,-2278.5100000000002,746.452
169508.0,6097.6800000000003,7213.25,2847.54,4723.6700000000001,-1526.6400000000001,-2176.04,729.32500000000005
169509.0,6342.1199999999999,6817.4700000000003,1977.48,4403.2399999999998,-1748.77,-1994.55,717.40800000000002
169510.0,6633.5299999999997,7453.0900000000001,2279.7600000000002,5033.9899999999998,-1932.5999999999999,-1926.78,721.29899999999998
169511.0,6817.5,7656.6300000000001,2313.6999999999998,5374.6300000000001,-2074.1999999999998,-1868.05,716.61800000000005
169512.0,6972.5200000000004,7719.3599999999997,2214.7199999999998,5563.1899999999996,-2203.5599999999999,-1776.77,706.44399999999996
169513.0,7104.2399999999998,7871.3100000000004,2243.0999999999999,5824.6800000000003,-2311.5,-1695.8099999999999,699.35900000000004
169514.0,7194.6599999999999,7951.71,2252.25,6049.1000000000004,-2399.6100000000001,-1612.27,690.53700000000003
169515.0,7258.21,7878.3100000000004,2127.2199999999998,6124.2399999999998,-2476.3400000000001,-1510.23,677.851
169516.0,7299.9899999999998,7767.1700000000001,1985.8199999999999,6140.8500000000004,-2540.5500000000002,-1406.25,665.17600000000004
169517.0,7304.5600000000004,7739.5299999999997,1969.52,6236.4300000000003,-2586.8299999999999,-1307.1600000000001,652.178
169518.0,7274.9200000000001,7593.0299999999997,1869.6300000000001,6212.8299999999999,-2616.1599999999999,-1212.51,637.21900000000005
169519.0,7213.5,7548.1800000000003,1902.9000000000001,6295.96,-2629.9499999999998,-1119.3099999999999,621.26300000000003
169520.0,7126.3900000000003,7350.96,1805.3099999999999,6228.3999999999996,-2630.3600000000001,-1024.4100000000001,603.26400000000001
169521.0,7018.0100000000002,7221.75,1793.4300000000001,6226.1999999999998,-2619.6500000000001,-928.38599999999997,584.64300000000003
169522.0,6889.3199999999997,6974.3500000000004,1678.5,6100.9899999999998,-2597.9099999999999,-831.86500000000001,564.39200000000005
169523.0,6742.5100000000002,6804.3400000000001,1655.96,6047.46,-2566.6100000000001,-737.54999999999995,543.16099999999994
169524.0,6577.46,6562.5100000000002,1576.29,5919.7299999999996,-2525.3800000000001,-644.81299999999999,520.41600000000005
169525.0,6398.4099999999999,6355.0699999999997,1541.28,5821.54,-2475.9499999999998,-553.91200000000003,496.38999999999999
169526.0,6206.2799999999997,6106.4300000000003,1474.6500000000001,5678.0299999999997,-2418.71,-464.84800000000001,471.358
169527.0,6004.0500000000002,5870.5299999999997,1427.29,5541.96,-2354.75,-378.10700000000003,445.25599999999997
169528.0,5793.04,5619.3299999999999,1370.3499999999999,5385.8199999999997,-2284.6900000000001,-293.71100000000001,418.32400000000001
169529.0,5575.5799999999999,5377.5699999999997,1326.4300000000001,5233.8000000000002,-2209.4400000000001,-211.946,390.48700000000002
169530.0,5353.1700000000001,5117.8000000000002,1267.03,5058.54,-2129.6900000000001,-132.89099999999999,361.90699999999998
169531.0,5127.6800000000003,4882.5900000000001,1232.97,4902.4099999999999,-2046.05,-56.908900000000003,332.61700000000002
169532.0,4900.3999999999996,4635.0799999999999,1187.0599999999999,4728.9200000000001,-1959.3,16.121600000000001,302.91399999999999
169533.0,4673.1300000000001,4373.6899999999996,1125.99,4536.2299999999996,-1870.0,86.052899999999994,272.88999999999999
169534.0,4447.3999999999996,4126.1800000000003,1076.4000000000001,4352.0100000000002,-1778.73,152.75899999999999,242.74000000000001
169535.0,4223.9399999999996,3879.2800000000002,1024.79,4163.3400000000001,-1685.8399999999999,216.36000000000001,212.47800000000001
169536.0,4005.04,3634.5999999999999,971.03200000000004,3971.5999999999999,-1592.22,276.517,182.25800000000001
169537.0,3790.1999999999998,3381.1100000000001,905.18700000000001,3766.1799999999998,-1497.8,333.70800000000003,152.12100000000001
169538.0,3583.3299999999999,3143.8899999999999,848.97500000000002,3571.9699999999998,-1404.02,386.98599999999999,122.35299999999999
169539.0,3380.5599999999999,2909.23,792.63499999999999,3375.8400000000001,-1309.1900000000001,437.94200000000001,92.212699999999998
169540.0,3191.29,2696.0700000000002,747.39599999999996,3196.5300000000002,-1217.52,483.83100000000002,63.223799999999997
169541.0,3001.8099999999999,2485.8899999999999,707.40599999999995,3016.3400000000001,-1122.3599999999999,529.40599999999995,32.676000000000002
169542.0,2835.5799999999999,2288.5,662.53800000000001,2845.0300000000002,-1035.5599999999999,567.11699999999996,5.8129499999999998
169543.0,2647.6900000000001,2112.4099999999999,647.02499999999998,2685.7199999999998,-927.16099999999994,608.77499999999998,-33.597900000000003
169544.0,2534.6700000000001,1843.95,526.90999999999997,2452.54,-876.11500000000001,635.48400000000004,-35.4285
169545.0,2296.1700000000001,1910.5899999999999,629.60799999999995,2452.8699999999999,-653.71100000000001,653.20500000000004,-164.02799999999999
169546.0,11970.700000000001,-5037.1099999999997,2856.3400000000001,-7586.9499999999998,3718.4299999999998,-1834.8,962.95100000000002
169547.0,10706.299999999999,-3690.5700000000002,2740.9099999999999,-6717.1300000000001,3315.79,-1754.8299999999999,897.10699999999997
169548.0,9553.9699999999993,-2454.5,2742.98,-5792.1999999999998,2780.6999999999998,-1859.29,858.10400000000004
169549.0,8534.1700000000001,-1112.75,2941.5599999999999,-4643.2299999999996,2305.3600000000001,-1975.21,809.99000000000001
169550.0,7618.7399999999998,39.098599999999998,2997.8200000000002,-3611.1100000000001,1851.4100000000001,-2077.21,804.09400000000005
169551.0,6795.6000000000004,1245.6500000000001,3149.5700000000002,-2442.96,1428.8900000000001,-2155.21,788.81799999999998
169552.0,6075.2700000000004,2112.5599999999999,2998.1500000000001,-1579.8,1016.48,-2185.0900000000001,774.07399999999996
169553.0,5545.4200000000001,3081.6300000000001,3005.3000000000002,-624.48299999999995,623.21100000000001,-2191.1100000000001,758.36699999999996
169554.0,5239.0600000000004,3848.3299999999999,2902.9000000000001,140.26499999999999,248.816,-2196.4099999999999,741.94100000000003
169555.0,5104.6199999999999,4678.0900000000001,2949.8200000000002,1029.6099999999999,-102.685,-2195.4299999999998,724.10699999999997
169556.0,5084.3100000000004,5188.6499999999996,2730.1300000000001,1630.45,-440.709,-2146.1999999999998,705.154
169557.0,5247.7700000000004,5718.1300000000001,2587.75,2177.02,-758.10599999999999,-2090.7800000000002,694.553
169558.0,5528.71,6475.9300000000003,2796.1799999999998,2938.5900000000001,-1032.5799999999999,-2074.2600000000002,688.84799999999996
169559.0,5821.4799999999996,7055.3199999999997,2927.5100000000002,3629.29,-1278.28,-2079.5999999999999,677.95299999999997
169560.0,6061.5799999999999,7324.9799999999996,2766.4499999999998,4154.3299999999999,-1518.5699999999999,-2009.9000000000001,664.78999999999996
169561.0,6335.8999999999996,7118.75,2087.5700000000002,4077.8800000000001,-1762.0899999999999,-1853.0799999999999,649.78899999999999
169562.0,6672.7299999999996,7573.1300000000001,2171.0700000000002,4489.2200000000003,-1968.23,-1789.47,649.01099999999997
169563.0,6903.2200000000003,8292.2700000000004,2710.71,5334.3599999999997,-2114.9200000000001,-1787.4100000000001,647.553
169564.0,7072.3999999999996,8130.7799999999997,2384.3000000000002,5386.8800000000001,-2257.0500000000002,-1707.9400000000001,632.89200000000005
169565.0,7259.9700000000003,8215.1599999999999,2280.02,5602.5500000000002,-2394.1300000000001,-1613.6300000000001,620.42600000000004
169566.0,7403.4499999999998,8318.3199999999997,2267.2199999999998,5849.0299999999997,-2505.3299999999999,-1537.0599999999999,611.58699999999999
169567.0,7504.2799999999997,8279.9699999999993,2158.5799999999999,5974.1300000000001,-2598.6900000000001,-1449.75,598.83699999999999
169568.0,7574.4200000000001,8224.9899999999998,2062.9400000000001,6064.0200000000004,-2675.8499999999999,-1358.3900000000001,586.24599999999998
169569.0,7603.8500000000004,8215.1800000000003,2057.23,6193.6800000000003,-2731.2600000000002,-1276.51,575.06700000000001
169570.0,7593.6700000000001,8188.7600000000002,2075.1599999999999,6322.04,-2767.7399999999998,-1195.3,562.15099999999995
169571.0,7556.3400000000001,8028.2600000000002,1982.8499999999999,6319.4399999999996,-2791.0,-1109.5599999999999,547.53099999999995
169572.0,7494.2399999999998,7932.4899999999998,1976.03,6381.6800000000003,-2801.1999999999998,-1021.14,531.70500000000004
169573.0,7407.1499999999996,7692.1400000000003,1846.1199999999999,6293.8299999999999,-2799.7399999999998,-930.66399999999999,514.85299999999995
169574.0,7296.9099999999999,7550.7799999999997,1833.79,6299.54,-2785.6199999999999,-842.30499999999995,497.07600000000002
169575.0,7162.75,7306.4499999999998,1739.25,6199.0799999999999,-2760.0700000000002,-754.88199999999995,478.33300000000003
169576.0,7009.1999999999998,7142.2600000000002,1739.52,6175.3999999999996,-2723.4299999999998,-670.09400000000005,458.24099999999999
169577.0,6837.5699999999997,6876.5600000000004,1653.0999999999999,6048.1899999999996,-2677.46,-585.37699999999995,437.49799999999999
169578.0,6652.2799999999997,6657.3599999999997,1621.3800000000001,5961.2700000000004,-2622.8099999999999,-502.34399999999999,415.63499999999999
169579.0,6453.8400000000001,6383.8100000000004,1545.27,5815.6999999999998,-2560.6900000000001,-420.70499999999998,393.392
169580.0,6245.0900000000001,6136.8299999999999,1501.3499999999999,5690.7399999999998,-2491.4699999999998,-341.23200000000003,370.03500000000003
169581.0,6027.5600000000004,5863.8199999999997,1437.1500000000001,5534.6499999999996,-2416.3699999999999,-263.72300000000001,346.202
169582.0,5803.2200000000003,5599.3199999999997,1384.53,5381.0699999999997,-2335.8299999999999,-188.57599999999999,321.51799999999997
169583.0,5574.0299999999997,5318.2200000000003,1317.49,5205.1700000000001,-2250.8800000000001,-115.845,296.51600000000002
169584.0,5341.4099999999999,5054.6400000000003,1268.4400000000001,5040.6599999999999,-2161.9000000000001,-45.718400000000003,270.988
169585.0,5107.1800000000003,4764.54,1192.5999999999999,4843.8000000000002,-2069.8899999999999,21.8383,245.22499999999999
169586.0,4872.9300000000003,4492.5600000000004,1132.72,4658.6999999999998,-1975.23,86.590400000000002,219.13499999999999
169587.0,4639.6599999999999,4234.4700000000003,1084.3,4481.4799999999996,-1878.49,148.47300000000001,192.745
169588.0,4409.1300000000001,3974.9899999999998,1031.05,4297.04,-1780.46,207.32300000000001,166.12100000000001
169589.0,4182.0200000000004,3717.21,975.83500000000004,4108.5500000000002,-1681.45,263.32100000000003,139.38800000000001
169590.0,3960.4299999999998,3473.9099999999999,929.64700000000005,3928.7399999999998,-1582.1800000000001,316.05399999999997,112.65300000000001
169591.0,3743.8899999999999,3243.6599999999999,892.07399999999996,3756.6300000000001,-1482.48,366.06099999999998,85.802400000000006
169592.0,3535.9899999999998,3016.2600000000002,850.42499999999995,3581.98,-1383.9400000000001,412.59699999999998,59.405500000000004
169593.0,3333.3200000000002,2795.1599999999999,811.11900000000003,3408.6100000000001,-1284.73,456.94400000000002,32.774999999999999
169594.0,3144.2399999999998,2566.4000000000001,754.24300000000005,3222.4499999999998,-1189.0799999999999,497.04399999999998,7.6197299999999997
169595.0,2956.71,2359.1700000000001,718.88499999999999,3053.3400000000001,-1090.1900000000001,536.79499999999996,-18.829999999999998
169596.0,2791.4000000000001,2120.25,635.66600000000005,2847.5900000000001,-999.904,569.92700000000002,-41.767600000000002
169597.0,2608.0,1955.4200000000001,631.43799999999999,2707.1700000000001,-888.43700000000001,606.39200000000005,-75.7667
169598.0,2492.73,1673.96,502.07499999999999,2464.4200000000001,-833.28499999999997,629.39499999999998,-76.925899999999999
169599.0,2263.7800000000002,1741.71,601.06200000000001,2470.77,-607.06399999999996,644.43899999999996,-190.61000000000001
169600.0,10905.700000000001,-2871.3699999999999,3428.8400000000001,-6599.9200000000001,3191.3899999999999,-1727.27,884.03899999999999
169601.0,9896.3400000000001,-2132.5900000000001,3303.1700000000001,-5755.0799999999999,2820.48,-1782.49,852.35799999999995
169602.0,8762.7000000000007,-969.74199999999996,3271.5500000000002,-4723.0,2379.9000000000001,-1807.99,814.95399999999995
169603.0,7701.0799999999999,124.45,3150.21,-3775.5999999999999,1923.74,-1841.52,788.35699999999997
169604.0,6750.7700000000004,1262.4300000000001,3129.1399999999999,-2724.6599999999999,1468.6900000000001,-1873.9200000000001,762.18399999999997
169605.0,5973.4399999999996,2174.4899999999998,2953.6300000000001,-1880.4000000000001,1018.04,-1890.0599999999999,741.00800000000004
169606.0,5430.71,3201.21,2966.8099999999999,-904.32500000000005,599.61199999999997,-1909.03,714.798
169607.0,5108.0100000000002,4002.98,2858.3400000000001,-111.129,202.703,-1915.3900000000001,691.69799999999998
169608.0,4986.8800000000001,4831.6000000000004,2851.4099999999999,744.99199999999996,-167.62200000000001,-1906.8699999999999,670.05999999999995
169609.0,5049.3299999999999,5460.4499999999998,2725.9000000000001,1402.3599999999999,-516.56299999999999,-1877.3800000000001,651.33900000000006
169610.0,5276.4799999999996,6192.1899999999996,2788.3099999999999,2155.3200000000002,-834.298,-1861.4300000000001,636.82799999999997
169611.0,5555.8400000000001,6791.1199999999999,2808.6599999999999,2847.6199999999999,-1126.1400000000001,-1844.1800000000001,620.077
169612.0,5862.7700000000004,7100.5699999999997,2587.0500000000002,3296.27,-1407.3199999999999,-1796.22,599.27599999999995
169613.0,6189.1199999999999,7409.79,2421.3400000000001,3723.0799999999999,-1667.55,-1717.28,586.06700000000001
169614.0,6529.9799999999996,7811.5900000000001,2428.5999999999999,4150.3599999999997,-1889.6700000000001,-1659.4200000000001,575.63699999999994
169615.0,6833.3800000000001,8475.1800000000003,2816.1700000000001,4902.96,-2071.9099999999999,-1660.0699999999999,571.28800000000001
169616.0,7063.5799999999999,8564.1399999999994,2677.54,5238.8900000000003,-2240.6300000000001,-1609.46,555.84199999999998
169617.0,7304.1199999999999,8338.9300000000003,2203.77,5183.8699999999999,-2414.9899999999998,-1500.8499999999999,534.85799999999995
169618.0,7517.2799999999997,8688.9599999999991,2373.2600000000002,5640.8599999999997,-2555.1700000000001,-1433.6600000000001,525.58199999999999
169619.0,7656.7600000000002,8758.6100000000006,2352.6900000000001,5879.1800000000003,-2662.96,-1374.9200000000001,516.11599999999999
169620.0,7763.8999999999996,8743.7099999999991,2274.1300000000001,6036.8199999999997,-2756.04,-1298.9400000000001,502.98500000000001
169621.0,7835.6199999999999,8757.7399999999998,2262.25,6212.79,-2829.8699999999999,-1226.0799999999999,491.63099999999997
169622.0,7867.6099999999997,8721.3700000000008,2241.7399999999998,6353.4700000000003,-2884.3800000000001,-1154.98,479.19099999999997
169623.0,7869.0600000000004,8590.2299999999996,2155.27,6408.8800000000001,-2925.3899999999999,-1075.71,464.36900000000003
169624.0,7842.8900000000003,8412.7700000000004,2046.21,6407.8500000000004,-2952.6399999999999,-993.85199999999998,449.07100000000003
169625.0,7783.4399999999996,8294.2999999999993,2026.23,6462.7399999999998,-2963.5500000000002,-913.91800000000001,434.12700000000001
169626.0,7694.3500000000004,8072.1999999999998,1927.8800000000001,6410.0299999999997,-2959.8600000000001,-835.25400000000002,418.41300000000001
169627.0,7578.6000000000004,7932.1400000000003,1933.79,6439.3900000000003,-2942.21,-758.22199999999998,402.58600000000001
169628.0,7440.5299999999997,7673.96,1839.4200000000001,6348.7799999999997,-2913.1300000000001,-680.851,385.41399999999999
169629.0,7282.9200000000001,7470.4300000000003,1814.8499999999999,6309.9899999999998,-2873.5100000000002,-603.94600000000003,368.02199999999999
169630.0,7108.3199999999997,7173.21,1708.1099999999999,6172.2399999999998,-2824.2399999999998,-527.13800000000003,349.63600000000002
169631.0,6918.0,6939.3800000000001,1675.95,6092.0299999999997,-2766.1999999999998,-451.93200000000002,330.92599999999999
169632.0,6714.2299999999996,6649.5,1596.1800000000001,5950.71,-2699.8499999999999,-378.45699999999999,311.19900000000001
169633.0,6499.2299999999996,6391.04,1555.3,5835.3199999999997,-2626.6599999999999,-306.52699999999999,291.07499999999999
169634.0,6275.1599999999999,6100.1300000000001,1486.1600000000001,5681.29,-2546.8400000000001,-236.566,270.14499999999998
169635.0,6043.8999999999996,5822.6499999999996,1434.45,5534.6899999999996,-2461.8499999999999,-168.44399999999999,249.00700000000001
169636.0,5807.3000000000002,5535.0600000000004,1373.6800000000001,5371.2600000000002,-2371.7800000000002,-102.571,227.23099999999999
169637.0,5567.1000000000004,5259.1800000000003,1325.71,5213.29,-2278.0100000000002,-38.840299999999999,205.22800000000001
169638.0,5325.0299999999997,4969.9499999999998,1263.01,5035.1599999999999,-2180.7399999999998,22.421800000000001,182.696
169639.0,5082.4499999999998,4707.04,1225.1199999999999,4876.8000000000002,-2080.9400000000001,81.257099999999994,160.02600000000001
169640.0,4840.8999999999996,4434.9300000000003,1174.9400000000001,4702.6700000000001,-1979.0,137.40100000000001,137.01599999999999
169641.0,4601.6499999999996,4153.8100000000004,1112.8099999999999,4513.3599999999997,-1875.8199999999999,191.16999999999999,114.164
169642.0,4366.2600000000002,3886.3099999999999,1058.8299999999999,4330.75,-1771.49,242.18799999999999,91.222200000000001
169643.0,4135.3599999999997,3624.21,1005.9,4147.3999999999996,-1666.76,290.79000000000002,68.549400000000006
169644.0,3910.8600000000001,3363.7199999999998,948.00699999999995,3959.1500000000001,-1562.0599999999999,336.548,45.935099999999998
169645.0,3692.5700000000002,3100.1100000000001,881.98400000000004,3761.9000000000001,-1457.6400000000001,380.02300000000002,23.657499999999999
169646.0,3483.54,2849.98,821.23599999999999,3571.7199999999998,-1354.48,420.399,1.68655
169647.0,3280.8000000000002,2608.6599999999999,764.72500000000002,3384.9200000000001,-1251.2,458.94499999999999,-20.389099999999999
169648.0,3091.9400000000001,2385.0100000000002,714.86199999999997,3209.4699999999998,-1151.54,493.50799999999998,-41.582700000000003
169649.0,2905.6799999999998,2170.25,673.98000000000002,3038.8499999999999,-1049.1199999999999,527.85299999999995,-63.854900000000001
169650.0,2741.1500000000001,1965.6300000000001,626.08900000000006,2871.6399999999999,-955.11599999999999,556.005,-83.438100000000006
169651.0,2561.04,1783.04,605.57600000000002,2719.5900000000001,-840.42100000000005,587.654,-112.14
169652.0,2445.5599999999999,1516.3,491.423,2492.7600000000002,-782.28700000000003,606.16399999999999,-112.443
169653.0,2226.6399999999999,1564.99,572.61699999999996,2486.8499999999999,-554.06399999999996,620.41700000000003,-210.36500000000001
169654.0,2186.8800000000001,1383.75,533.03599999999994,2491.5700000000002,-494.45100000000002,578.54499999999996,-224.66300000000001
169655.0,2145.1300000000001,1230.1800000000001,515.93700000000001,2512.29,-432.15499999999997,519.87,-231.53
169656.0,2103.7399999999998,1031.97,455.24599999999998,2476.52,-371.80599999999998,447.57400000000001,-229.20500000000001
169657.0,2063.54,885.70600000000002,430.69499999999999,2468.0599999999999,-310.88099999999997,361.37700000000001,-220.304
169658.0,2025.8399999999999,750.78300000000002,394.39699999999999,2439.6799999999998,-249.80199999999999,263.43900000000002,-206.03700000000001
169659.0,1991.0999999999999,653.73500000000001,381.226,2419.9699999999998,-192.928,157.363,-185.608
169660.0,1959.6800000000001,536.52499999999998,334.21899999999999,2350.1199999999999,-142.39599999999999,45.832700000000003,-159.41499999999999
169661.0,1932.0599999999999,472.57499999999999,321.536,2300.52,-97.385300000000001,-68.491399999999999,-129.148
169662.0,1907.8099999999999,391.58999999999997,277.44999999999999,2202.8299999999999,-60.329799999999999,-183.41300000000001,-95.822299999999998
169663.0,1887.3900000000001,353.21800000000002,256.90800000000002,2115.9200000000001,-29.561,-295.82499999999999,-60.366199999999999
169664.0,1869.3399999999999,334.48099999999999,234.131,2015.3599999999999,-3.7023199999999998,-403.56900000000002,-23.709800000000001
169665.0,1855.0999999999999,338.18700000000001,218.298,1911.52,18.225200000000001,-503.815,13.311400000000001
169666.0,1843.1700000000001,357.01499999999999,199.83799999999999,1797.02,38.906199999999998,-594.51099999999997,50.826099999999997
169667.0,2393.6900000000001,1341.1900000000001,466.76999999999998,2503.71,-724.57000000000005,566.46400000000006,-140.869
169668.0,2338.71,1163.0999999999999,434.245,2499.9499999999998,-662.35000000000002,510.51499999999999,-162.065
169669.0,2286.9200000000001,1025.3599999999999,427.73700000000002,2519.6199999999999,-599.73900000000003,438.06299999999999,-175.374
169670.0,2235.5500000000002,878.44000000000005,399.96100000000001,2507.8600000000001,-536.84000000000003,351.84300000000002,-180.84999999999999
169671.0,2186.0700000000002,739.13900000000001,367.55900000000003,2478.6700000000001,-475.31900000000002,254.619,-179.09899999999999
169672.0,2139.48,611.62400000000002,329.03100000000001,2430.48,-416.887,148.63399999999999,-170.911
169673.0,2097.0500000000002,528.39999999999998,314.93099999999998,2394.0700000000002,-362.892,36.4161,-157.072
169674.0,2058.25,447.05900000000003,283.79000000000002,2326.0300000000002,-314.29599999999999,-78.595799999999997,-138.5
169675.0,2023.98,411.27499999999998,277.17599999999999,2269.77,-271.65600000000001,-194.34700000000001,-116.31100000000001
169676.0,1992.6800000000001,387.16800000000001,264.07600000000002,2192.73,-234.869,-307.06099999999998,-91.264399999999995
169677.0,1965.0999999999999,372.54500000000002,244.428,2095.3499999999999,-203.661,-416.197,-64.059600000000003
169678.0,1936.4100000000001,378.47300000000001,233.55500000000001,1990.8499999999999,-173.97200000000001,-516.66099999999994,-34.879600000000003
169679.0,1906.8099999999999,381.38,209.09999999999999,1857.04,-142.273,-609.28200000000004,-2.74464
169680.0,2510.6199999999999,1607.03,575.44200000000001,2727.6900000000001,-786.39300000000003,551.06500000000005,-142.392
169681.0,2457.27,1453.8099999999999,561.84299999999996,2747.4000000000001,-728.20500000000004,497.69600000000003,-164.715
169682.0,2404.25,1269.8099999999999,510.44999999999999,2723.0100000000002,-668.42399999999998,428.72800000000001,-179.55000000000001
169683.0,2351.4099999999999,1127.51,487.81599999999997,2717.7399999999998,-608.55999999999995,345.50099999999998,-186.81899999999999
169684.0,2301.1199999999999,998.55899999999997,462.52300000000002,2699.5799999999999,-550.58299999999997,250.297,-187.203
169685.0,2252.21,900.97699999999998,452.18700000000001,2682.5799999999999,-494.88499999999999,146.375,-181.05799999999999
169686.0,2206.6500000000001,791.10400000000004,412.57999999999998,2622.4699999999998,-442.96300000000002,36.127000000000002,-169.68600000000001
169687.0,2163.3899999999999,727.678,400.42500000000001,2574.6799999999998,-395.298,-77.165099999999995,-153.46199999999999
169688.0,2124.8899999999999,653.221,359.68599999999998,2484.46,-353.25200000000001,-191.482,-133.75200000000001
169689.0,2087.8899999999999,615.59500000000003,338.63299999999998,2397.75,-316.43000000000001,-303.08600000000001,-110.97499999999999
169690.0,2055.21,591.59100000000001,314.82799999999997,2295.7600000000002,-283.52100000000002,-411.44600000000003,-86.489000000000004
169691.0,2016.23,580.72500000000002,297.64299999999997,2178.2399999999998,-250.47200000000001,-510.65199999999999,-58.485100000000003
169692.0,1976.3199999999999,554.39599999999996,259.19600000000003,2020.49,-211.66800000000001,-605.46199999999999,-27.783899999999999
169693.0,2687.1100000000001,1792.0,598.67999999999995,2878.5300000000002,-904.13199999999995,524.35000000000002,-118.68300000000001
169694.0,2630.5100000000002,1621.0899999999999,568.11199999999997,2878.2399999999998,-849.07100000000003,475.96699999999998,-146.32400000000001
169695.0,2574.6799999999998,1480.77,558.5,2895.3200000000002,-792.32500000000005,410.75099999999998,-166.69200000000001
169696.0,2518.46,1336.1900000000001,532.68799999999999,2886.9299999999998,-734.88199999999995,331.48700000000002,-179.27199999999999
169697.0,2463.3200000000002,1198.73,500.99400000000003,2861.4299999999998,-678.42100000000005,239.97,-185.21799999999999
169698.0,2409.5100000000002,1072.47,464.18799999999999,2817.6599999999999,-623.95000000000005,139.34800000000001,-184.624
169699.0,2358.6799999999998,986.73900000000003,449.52300000000002,2783.1599999999999,-572.58699999999999,31.896000000000001,-178.852
169700.0,2310.1199999999999,902.86300000000006,419.34800000000001,2717.6900000000001,-525.50999999999999,-78.870999999999995,-167.99199999999999
169701.0,2266.04,860.76999999999998,410.93599999999998,2661.3200000000002,-483.14699999999999,-190.881,-153.899
169702.0,2222.8600000000001,831.51800000000003,398.46800000000002,2584.7199999999998,-445.12900000000002,-300.363,-136.10400000000001
169703.0,2183.1999999999998,805.37199999999996,375.83600000000001,2483.9000000000001,-410.68099999999998,-406.80599999999998,-116.857
169704.0,2133.5300000000002,798.02099999999996,366.10500000000002,2371.75,-373.685,-504.80900000000003,-92.483000000000004
169705.0,2081.3000000000002,769.86500000000001,333.47699999999998,2217.23,-329.10700000000003,-599.21699999999998,-65.345299999999995
169706.0,2851.5300000000002,2024.8800000000001,671.69899999999996,3070.0100000000002,-1001.78,500.31700000000001,-103.17400000000001
169707.0,2795.5599999999999,1854.4400000000001,638.38499999999999,3067.48,-950.66800000000001,456.12,-134.58500000000001
169708.0,2738.9299999999998,1702.25,616.42100000000005,3071.7800000000002,-897.404,395.029,-159.01900000000001
169709.0,2681.75,1543.8,576.73199999999997,3050.0300000000002,-843.06200000000001,319.50700000000001,-175.786
169710.0,2625.0100000000002,1435.4100000000001,571.71900000000005,3053.1300000000001,-788.65800000000002,231.22300000000001,-186.35400000000001
169711.0,2569.2399999999998,1319.05,543.76599999999996,3020.0999999999999,-736.00199999999995,133.92500000000001,-190.27699999999999
169712.0,2515.3800000000001,1228.1500000000001,524.94399999999996,2982.3499999999999,-686.05499999999995,29.4693,-189.06100000000001
169713.0,2463.6599999999999,1146.22,497.10199999999998,2920.9699999999998,-639.71600000000001,-78.555199999999999,-182.82499999999999
169714.0,2415.4699999999998,1088.5799999999999,476.42899999999997,2852.48,-597.92499999999995,-188.07900000000001,-173.20699999999999
169715.0,2368.0900000000001,1032.4100000000001,441.55200000000002,2753.3299999999999,-560.11500000000001,-295.70299999999997,-160.012
169716.0,2322.5999999999999,1018.6799999999999,433.02199999999999,2667.48,-524.10000000000002,-400.06900000000002,-145.01499999999999
169717.0,2265.3200000000002,984.15999999999997,401.24400000000003,2532.2800000000002,-484.96199999999999,-496.935,-124.39
169718.0,2202.1300000000001,952.20600000000002,370.08999999999997,2378.48,-435.863,-590.38499999999999,-100.66500000000001
169719.0,3036.9200000000001,2248.1199999999999,719.40300000000002,3244.3800000000001,-1107.8699999999999,471.36099999999999,-85.111699999999999
169720.0,2980.75,2058.3600000000001,665.71600000000001,3219.8400000000001,-1060.6300000000001,432.19099999999997,-120.723
169721.0,2923.9400000000001,1947.22,681.29300000000001,3262.1900000000001,-1010.33,375.589,-150.04599999999999
169722.0,2866.3699999999999,1780.54,631.63699999999994,3231.0599999999999,-958.98800000000006,304.637,-171.46000000000001
169723.0,2808.2800000000002,1674.4100000000001,629.87400000000002,3237.1300000000001,-907.37900000000002,220.768,-186.84800000000001
169724.0,2750.8800000000001,1527.26,572.76800000000003,3175.3099999999999,-857.08399999999995,127.358,-195.56399999999999
169725.0,2694.79,1464.45,581.84100000000001,3166.9000000000001,-808.39200000000005,26.553599999999999,-199.45099999999999
169726.0,2640.3499999999999,1357.8499999999999,531.54200000000003,3083.8899999999999,-763.11099999999999,-78.228099999999998,-198.18899999999999
169727.0,2588.9899999999998,1332.3399999999999,542.29300000000001,3049.1599999999999,-721.15599999999995,-184.59200000000001,-193.59100000000001
169728.0,2537.9899999999998,1278.22,509.45299999999997,2954.4400000000001,-682.64800000000002,-289.27300000000002,-185.29400000000001
169729.0,2487.5599999999999,1264.6199999999999,505.12099999999998,2872.9899999999998,-645.95399999999995,-391.15899999999999,-175.06
169730.0,2423.48,1229.0999999999999,476.28100000000001,2741.1999999999998,-604.77099999999996,-486.13299999999998,-158.67500000000001
169731.0,2350.5700000000002,1204.28,459.54300000000001,2600.8200000000002,-553.36099999999999,-578.25999999999999,-139.54300000000001
169732.0,3226.4099999999999,2476.5100000000002,770.87300000000005,3419.5300000000002,-1211.4000000000001,442.14299999999997,-67.942099999999996
169733.0,3171.3400000000001,2305.9299999999998,733.57500000000005,3410.8099999999999,-1168.0599999999999,407.86700000000002,-107.843
169734.0,3115.5500000000002,2170.8899999999999,724.28999999999996,3427.4899999999998,-1121.9100000000001,356.48099999999999,-141.303
169735.0,3058.73,2013.9100000000001,683.34699999999998,3405.6700000000001,-1074.02,289.88099999999997,-167.291
169736.0,3001.0900000000001,1911.8099999999999,683.05700000000002,3414.9400000000001,-1025.02,210.40100000000001,-187.55199999999999
169737.0,2943.54,1792.3800000000001,651.99599999999998,3381.1700000000001,-976.79100000000005,121.03,-201.27799999999999
169738.0,2886.5599999999999,1707.74,639.99900000000002,3352.8499999999999,-930.05799999999999,24.296600000000002,-210.09399999999999
169739.0,2831.0100000000002,1621.8199999999999,610.13699999999994,3292.4099999999999,-886.01400000000001,-76.938599999999994,-213.94300000000001
169740.0,2777.6399999999999,1568.79,596.49800000000005,3234.04,-845.149,-179.87200000000001,-214.36500000000001
169741.0,2724.02,1508.5,561.11500000000001,3137.3800000000001,-807.14099999999996,-281.75400000000002,-211.13200000000001
169742.0,2670.21,1493.3299999999999,555.88199999999995,3057.4400000000001,-769.53099999999995,-380.75299999999999,-205.78800000000001
169743.0,2600.71,1449.8699999999999,522.74800000000005,2922.46,-726.82600000000002,-473.52300000000002,-193.94
169744.0,2519.0100000000002,1406.1400000000001,490.21300000000002,2768.0500000000002,-672.07399999999996,-563.61800000000005,-179.09999999999999
169745.0,3430.1100000000001,2712.5700000000002,819.29100000000005,3595.5900000000001,-1318.8900000000001,409.79399999999998,-49.6599
169746.0,3376.4000000000001,2542.9200000000001,780.48099999999999,3584.0900000000001,-1279.74,380.81200000000001,-94.168099999999995
169747.0,3322.48,2426.1300000000001,785.57799999999997,3615.6999999999998,-1237.2,334.87200000000001,-132.16999999999999
169748.0,3267.21,2276.0799999999999,748.78800000000001,3598.9000000000001,-1192.75,273.255,-163.161
169749.0,3210.8099999999999,2167.9499999999998,742.01300000000003,3602.21,-1147.27,199.03,-188.18199999999999
169750.0,3153.8499999999999,2036.8699999999999,699.31899999999996,3557.8499999999999,-1101.8499999999999,114.13200000000001,-207.06200000000001
169751.0,3097.21,1965.01,699.37099999999998,3543.6100000000001,-1057.1800000000001,21.987100000000002,-221.06999999999999
169752.0,3040.8200000000002,1870.6700000000001,662.02999999999997,3477.1999999999998,-1014.41,-75.256,-230.273
169753.0,2986.6900000000001,1831.28,661.47699999999998,3434.79,-974.14300000000003,-174.10300000000001,-235.95400000000001
169754.0,2931.2399999999998,1784.1900000000001,639.11000000000001,3353.9099999999999,-935.81600000000003,-272.25200000000001,-237.98599999999999
169755.0,2874.5,1755.3399999999999,624.572,3265.75,-897.92700000000002,-368.04399999999998,-237.828
169756.0,2800.3499999999999,1722.0699999999999,605.07000000000005,3146.1199999999999,-853.80100000000004,-457.89299999999997,-230.74000000000001
169757.0,2711.3800000000001,1676.1900000000001,577.53999999999996,2996.9200000000001,-797.52800000000002,-546.00999999999999,-221.131
169758.0,3641.1900000000001,2945.75,859.23099999999999,3763.0799999999999,-1426.54,375.66300000000001,-31.481300000000001
169759.0,3589.7600000000002,2813.8899999999999,854.16200000000003,3784.5999999999999,-1391.5599999999999,352.29000000000002,-80.781300000000002
169760.0,3538.7399999999998,2662.0500000000002,822.04899999999998,3778.6300000000001,-1353.74,312.387,-122.887
169761.0,3485.9099999999999,2542.3299999999999,812.923,3790.3200000000002,-1313.1099999999999,255.90700000000001,-158.917
169762.0,3432.0999999999999,2417.73,786.93399999999997,3776.2399999999998,-1271.0699999999999,187.07300000000001,-188.83500000000001
169763.0,3376.7399999999998,2328.1999999999998,783.13,3772.96,-1228.1199999999999,107.128,-213.166
169764.0,3321.4499999999998,2223.1599999999999,750.03899999999999,3727.3899999999999,-1186.05,20.006799999999998,-232.34999999999999
169765.0,3265.7399999999998,2161.98,745.072,3695.77,-1144.9400000000001,-72.658900000000003,-247.12100000000001
169766.0,3211.6300000000001,2088.6999999999998,712.83699999999999,3623.4699999999998,-1106.1300000000001,-167.119,-258.21800000000002
169767.0,3155.2399999999998,2049.9200000000001,701.23800000000006,3554.9299999999998,-1068.49,-261.31099999999998,-265.74299999999999
169768.0,3097.4099999999999,2009.8800000000001,676.21100000000001,3459.7199999999998,-1030.3399999999999,-353.279,-271.06400000000002
169769.0,3019.5100000000002,1981.24,664.55200000000002,3350.0999999999999,-984.92700000000002,-439.78100000000001,-269.03800000000001
169770.0,2924.23,1906.1099999999999,611.10699999999997,3177.9400000000001,-926.048,-525.05799999999999,-264.435
169771.0,3862.25,3192.3699999999999,904.38800000000003,3937.3000000000002,-1535.98,338.92399999999998,-12.8935
169772.0,3813.9200000000001,3079.7199999999998,914.18899999999996,3972.8099999999999,-1505.6600000000001,321.63999999999999,-66.944199999999995
169773.0,3766.77,2928.0100000000002,877.78599999999994,3963.3200000000002,-1472.3499999999999,287.83699999999999,-113.485
169774.0,3717.3200000000002,2829.1599999999999,885.41600000000005,3992.8499999999999,-1435.6900000000001,237.18799999999999,-154.75700000000001
169775.0,3667.0,2690.9899999999998,843.90800000000002,3964.6399999999999,-1397.8,174.28800000000001,-189.54499999999999
169776.0,3614.23,2606.7199999999998,843.88199999999995,3966.6399999999999,-1358.2,99.823999999999998,-219.358
169777.0,3561.4499999999998,2501.0900000000001,808.82100000000003,3921.73,-1318.8699999999999,18.1173,-243.96299999999999
169778.0,3506.8299999999999,2446.6799999999998,810.20899999999995,3898.7399999999998,-1279.4300000000001,-69.414000000000001,-264.44299999999998
169779.0,3453.9899999999998,2371.25,775.53800000000001,3827.23,-1241.98,-158.93199999999999,-281.18700000000001
169780.0,3397.3600000000001,2355.4899999999998,786.62,3784.7199999999998,-1204.28,-248.29300000000001,-294.35899999999998
169781.0,3338.4299999999998,2291.5599999999999,741.59699999999998,3671.6999999999998,-1166.23,-336.10000000000002,-305.29899999999998
169782.0,3257.79,2281.25,751.56600000000003,3586.3699999999999,-1119.8199999999999,-418.58999999999997,-308.65300000000002
169783.0,3157.6300000000001,2195.5500000000002,694.43399999999997,3412.1900000000001,-1059.9000000000001,-501.0,-309.63299999999998
169784.0,4090.46,3446.77,950.98800000000006,4112.9300000000003,-1645.8599999999999,299.92200000000003,5.6929299999999996
169785.0,4046.21,3360.8699999999999,981.98800000000006,4169.0799999999999,-1620.4400000000001,289.21499999999997,-53.012599999999999
169786.0,4003.79,3191.5,923.89700000000005,4138.29,-1592.3499999999999,261.90600000000001,-103.965
169787.0,3958.7399999999998,3114.1199999999999,948.89700000000005,4186.25,-1560.22,217.49000000000001,-150.36799999999999
169788.0,3912.8400000000001,2968.9400000000001,896.71000000000004,4149.54,-1526.4100000000001,160.69999999999999,-190.25999999999999
169789.0,3863.71,2913.4499999999998,921.85500000000002,4179.2200000000003,-1489.99,92.351399999999998,-225.74799999999999
169790.0,3814.1500000000001,2789.79,867.53200000000004,4117.5699999999997,-1453.74,16.4862,-255.87899999999999
169791.0,3762.0900000000001,2755.3899999999999,887.79300000000001,4116.3000000000002,-1416.5599999999999,-65.236699999999999,-282.24400000000003
169792.0,3710.9899999999998,2663.3000000000002,837.14800000000002,4031.6300000000001,-1380.8,-149.39699999999999,-304.79700000000003
169793.0,3655.4299999999998,2646.2800000000002,849.005,3992.4400000000001,-1344.3599999999999,-233.56399999999999,-323.94799999999998
169794.0,3596.9200000000001,2582.3899999999999,804.70899999999995,3884.21,-1306.3800000000001,-316.48500000000001,-340.75099999999998
169795.0,3514.3000000000002,2568.6700000000001,814.27099999999996,3801.8299999999999,-1258.8699999999999,-394.47500000000002,-349.83699999999999
169796.0,3410.0500000000002,2464.23,741.79200000000003,3616.5700000000002,-1196.8599999999999,-473.03300000000002,-356.01900000000001
169797.0,4325.7799999999997,3722.8899999999999,1012.1,4303.1099999999997,-1756.1700000000001,258.44499999999999,24.349299999999999
169798.0,4286.71,3632.3200000000002,1032.8,4348.3599999999997,-1736.3800000000001,254.79900000000001,-38.765700000000002
169799.0,4249.7399999999998,3487.1300000000001,992.89800000000002,4336.9300000000003,-1713.3,234.13200000000001,-94.458200000000005
169800.0,4210.2799999999997,3406.5100000000002,1009.55,4377.9499999999998,-1686.1199999999999,196.577,-145.953
169801.0,4169.5500000000002,3276.1399999999999,968.08100000000002,4354.0600000000004,-1656.74,146.34800000000001,-191.13
169802.0,4125.1800000000003,3206.9699999999998,977.06500000000005,4369.6800000000003,-1624.48,84.6584,-232.15600000000001
169803.0,4079.7199999999998,3103.3400000000001,940.04399999999998,4328.4300000000003,-1591.3099999999999,15.067500000000001,-268.11399999999998
169804.0,4031.0100000000002,3059.1300000000001,949.17100000000005,4319.2299999999996,-1556.5899999999999,-60.265300000000003,-300.39299999999997
169805.0,3982.4899999999998,2980.7399999999998,911.55499999999995,4251.1000000000004,-1522.49,-138.49199999999999,-329.03899999999999
169806.0,3928.54,2968.0700000000002,927.23699999999997,4220.0600000000004,-1486.48,-216.61699999999999,-354.13999999999999
169807.0,3870.4000000000001,2899.4899999999998,880.98599999999999,4113.1199999999999,-1448.79,-294.18700000000001,-377.029
169808.0,3787.1599999999999,2884.3200000000002,892.94799999999998,4036.7600000000002,-1401.01,-367.12299999999999,-392.05399999999997
169809.0,3679.9699999999998,2786.3699999999999,833.495,3867.5500000000002,-1338.25,-441.67899999999997,-404.197
169810.0,4566.6499999999996,3997.8800000000001,1066.5699999999999,4485.4099999999999,-1866.46,214.71299999999999,43.066899999999997
169811.0,4533.7200000000003,3922.5599999999999,1095.29,4538.7399999999998,-1852.4200000000001,218.43799999999999,-24.404
169812.0,4503.1400000000003,3776.4299999999998,1048.53,4521.3000000000002,-1835.0699999999999,204.88800000000001,-84.881600000000006
169813.0,4470.1099999999997,3708.1900000000001,1071.72,4570.6400000000003,-1813.0999999999999,174.52199999999999,-141.34100000000001
169814.0,4435.4399999999996,3581.4699999999998,1029.1300000000001,4547.8900000000003,-1788.46,131.239,-192.02099999999999
169815.0,4396.8299999999999,3529.3200000000002,1050.28,4578.9300000000003,-1760.1400000000001,76.740899999999996,-238.63
169816.0,4356.2299999999996,3422.4200000000001,1007.5,4534.8299999999999,-1730.53,13.9991,-280.65100000000001
169817.0,4311.8500000000004,3385.3600000000001,1022.02,4534.6000000000004,-1698.6300000000001,-54.367199999999997,-318.82999999999998
169818.0,4266.7299999999996,3306.6199999999999,983.35400000000004,4469.0699999999997,-1666.55,-126.04000000000001,-353.88200000000001
169819.0,4215.5799999999999,3282.3400000000001,989.26999999999998,4431.6800000000003,-1632.4000000000001,-197.77500000000001,-385.13200000000001
169820.0,4158.9300000000003,3224.3800000000001,954.37199999999996,4340.6999999999998,-1594.8499999999999,-269.27800000000002,-414.476
169821.0,4075.6700000000001,3198.0100000000002,957.63099999999997,4260.5299999999997,-1546.3900000000001,-336.46300000000002,-435.435
169822.0,3966.4299999999998,3093.1900000000001,894.44000000000005,4093.0500000000002,-1481.9000000000001,-406.03899999999999,-453.57900000000001
169823.0,4812.29,4279.1099999999997,1121.49,4666.7200000000003,-1976.26,168.55699999999999,61.674999999999997
169824.0,4786.2700000000004,4217.71,1156.1300000000001,4726.1599999999999,-1968.26,180.16399999999999,-9.8858899999999998
169825.0,4763.0799999999999,4080.4499999999998,1111.21,4711.96,-1956.9400000000001,173.91200000000001,-75.322400000000002
169826.0,4737.3699999999999,4024.04,1139.3800000000001,4768.1999999999998,-1940.47,151.31,-136.672
169827.0,4709.8999999999996,3902.6599999999999,1096.4000000000001,4747.7700000000004,-1920.98,115.42,-193.00399999999999
169828.0,4677.5600000000004,3852.6999999999998,1115.72,4779.6400000000003,-1897.1800000000001,68.6404,-245.114
169829.0,4642.96,3753.1799999999998,1076.52,4742.8000000000002,-1871.3299999999999,13.255699999999999,-293.37
169830.0,4603.5500000000002,3721.6300000000001,1094.03,4749.4300000000003,-1842.3499999999999,-47.537300000000002,-337.54300000000001
169831.0,4562.46,3642.7399999999998,1054.28,4686.8900000000003,-1812.3599999999999,-112.09399999999999,-379.14699999999999
169832.0,4514.4799999999996,3634.3899999999999,1074.53,4669.1800000000003,-1778.95,-176.50200000000001,-416.50599999999997
169833.0,4459.9200000000001,3563.29,1028.8599999999999,4571.71,-1742.2,-241.39599999999999,-452.46699999999998
169834.0,4377.4799999999996,3541.7399999999998,1040.95,4504.8900000000003,-1693.8699999999999,-302.34500000000003,-479.69999999999999
169835.0,4267.1499999999996,3434.9099999999999,982.08299999999997,4346.25,-1628.9000000000001,-366.71300000000002,-504.286
169836.0,5061.1800000000003,4571.5699999999997,1183.0599999999999,4852.0500000000002,-2085.02,120.113,80.255399999999995
169837.0,5043.1899999999996,4515.6099999999997,1214.21,4908.7200000000003,-2083.5300000000002,140.00399999999999,4.7522799999999998
169838.0,5028.2700000000004,4392.3000000000002,1175.0799999999999,4901.8400000000001,-2078.5500000000002,141.38800000000001,-65.703800000000001
169839.0,5010.7299999999996,4339.8500000000004,1199.8399999999999,4956.8900000000003,-2067.9299999999998,126.95699999999999,-131.93700000000001
169840.0,4990.9700000000003,4233.0200000000004,1165.0599999999999,4947.4099999999999,-2053.71,98.884500000000003,-193.886
169841.0,4966.25,4189.3500000000004,1184.79,4983.25,-2034.6700000000001,60.368200000000002,-251.709
169842.0,4937.9899999999998,4100.4200000000001,1152.23,4956.6899999999996,-2012.6800000000001,12.9282,-306.14100000000002
169843.0,4904.4700000000003,4064.3099999999999,1162.74,4960.3299999999999,-1987.1199999999999,-39.729900000000001,-356.53500000000003
169844.0,4868.4700000000003,3999.4699999999998,1135.1099999999999,4914.5299999999997,-1959.5799999999999,-96.427999999999997,-404.67700000000002
169845.0,4824.3999999999996,3969.6399999999999,1135.9100000000001,4881.21,-1928.4100000000001,-153.28299999999999,-448.68799999999999
169846.0,4772.5100000000002,3918.1700000000001,1110.0599999999999,4809.2200000000003,-1891.95,-210.70699999999999,-491.12099999999998
169847.0,4691.7299999999996,3880.3099999999999,1107.8599999999999,4734.25,-1843.1900000000001,-264.68400000000003,-525.00699999999995
169848.0,4581.3800000000001,3775.4099999999999,1053.99,4587.6199999999999,-1777.1400000000001,-322.74299999999999,-555.49000000000001
169849.0,5312.1400000000003,4887.0200000000004,1262.9100000000001,5052.6499999999996,-2191.9000000000001,69.459100000000007,98.730400000000003
169850.0,5303.2399999999998,4800.6899999999996,1254.7,5070.7399999999998,-2197.7199999999998,97.847300000000004,19.3765
169851.0,5297.1400000000003,4731.0699999999997,1259.5699999999999,5109.8000000000002,-2198.9499999999998,107.34099999999999,-56.081200000000003
169852.0,5288.9700000000003,4650.3000000000002,1248.3099999999999,5131.21,-2194.9099999999999,101.459,-127.108
169853.0,5277.6999999999998,4590.1599999999999,1252.29,5163.6099999999997,-2186.02,81.744699999999995,-194.77000000000001
169854.0,5261.1800000000003,4516.3500000000004,1236.7,5167.5,-2172.2600000000002,51.911499999999997,-258.274
169855.0,5240.2200000000003,4467.2399999999998,1238.5799999999999,5179.4300000000003,-2154.3299999999999,13.0792,-318.93099999999998
169856.0,5213.3900000000003,4409.5,1224.3800000000001,5162.96,-2132.3400000000001,-30.922000000000001,-375.69099999999997
169857.0,5182.2299999999996,4370.9300000000003,1220.9300000000001,5145.9700000000003,-2106.8699999999999,-79.096599999999995,-430.34199999999998
169858.0,5143.3900000000003,4332.5200000000004,1211.04,5108.3800000000001,-2077.1999999999998,-127.431,-480.95499999999998
169859.0,5094.6000000000004,4292.8900000000003,1198.8,5055.0600000000004,-2041.7,-176.76900000000001,-530.10299999999995
169860.0,5016.3000000000002,4235.0699999999997,1181.0899999999999,4970.1499999999996,-1993.6600000000001,-223.417,-570.78899999999999
169861.0,4906.2700000000004,4148.5100000000002,1151.6099999999999,4853.8000000000002,-1927.3199999999999,-274.81299999999999,-607.90800000000002
169862.0,5563.8299999999999,5177.2600000000002,1315.1199999999999,5221.1199999999999,-2296.8600000000001,16.792100000000001,117.245
169863.0,5564.8599999999997,5118.7700000000004,1323.72,5257.5500000000002,-2309.9200000000001,53.751600000000003,33.937600000000003
169864.0,5568.6800000000003,5046.1800000000003,1315.79,5285.7600000000002,-2318.1399999999999,71.887100000000004,-46.364800000000002
169865.0,5570.3500000000004,4991.0600000000004,1320.7,5326.3100000000004,-2320.4000000000001,74.8048,-122.253
169866.0,5568.3900000000003,4928.2799999999997,1314.3,5351.29,-2317.4200000000001,63.988599999999998,-195.56700000000001
169867.0,5560.9200000000001,4877.3999999999996,1314.5999999999999,5375.1099999999997,-2308.9299999999998,43.346200000000003,-264.75
169868.0,5547.6599999999999,4826.5100000000002,1309.5,5384.0799999999999,-2295.25,13.7156,-331.75
169869.0,5528.2299999999996,4778.0699999999997,1300.8900000000001,5377.9799999999996,-2277.1100000000001,-21.031300000000002,-394.77800000000002
169870.0,5503.5200000000004,4742.7200000000003,1298.46,5367.0100000000002,-2254.6700000000001,-59.970700000000001,-456.24000000000001
169871.0,5469.2799999999997,4695.3100000000004,1280.9200000000001,5326.4200000000001,-2227.1700000000001,-99.528599999999997,-513.55999999999995
169872.0,5424.3000000000002,4664.4099999999999,1277.45,5288.3599999999997,-2192.1999999999998,-139.96899999999999,-569.49699999999996
169873.0,5349.3199999999997,4602.9499999999998,1257.3900000000001,5208.7399999999998,-2144.1100000000001,-178.31,-616.904
169874.0,5241.1800000000003,4510.8699999999999,1225.46,5098.1000000000004,-2077.23,-222.078,-660.63099999999997
169875.0,5814.7200000000003,5489.3100000000004,1386.6099999999999,5403.8800000000001,-2398.79,-38.075800000000001,135.56299999999999
169876.0,5826.46,5421.6700000000001,1374.5799999999999,5421.3000000000002,-2419.5700000000002,7.8941400000000002,48.378300000000003
169877.0,5841.1000000000004,5386.1400000000003,1392.4400000000001,5477.7799999999997,-2434.9400000000001,34.953800000000001,-36.617699999999999
169878.0,5853.4200000000001,5320.9200000000001,1377.79,5501.4899999999998,-2444.1500000000001,47.1113,-117.29900000000001
169879.0,5861.5699999999997,5290.6700000000001,1394.5799999999999,5553.25,-2447.0900000000001,45.7196,-196.23400000000001
169880.0,5863.5,5229.1300000000001,1377.1199999999999,5563.1700000000001,-2444.0500000000002,34.668700000000001,-271.14100000000002
169881.0,5859.2399999999998,5201.4099999999999,1389.0899999999999,5593.6899999999996,-2435.23,14.9055,-344.38499999999999
169882.0,5847.2299999999996,5149.9399999999996,1373.1500000000001,5585.25,-2420.6199999999999,-10.039400000000001,-413.87099999999998
169883.0,5828.8800000000001,5125.5100000000002,1378.49,5587.7200000000003,-2400.6199999999999,-39.057400000000001,-481.88999999999999
169884.0,5801.1000000000004,5085.21,1365.55,5558.5600000000004,-2375.1199999999999,-68.756200000000007,-546.005
169885.0,5760.4499999999998,5051.1700000000001,1360.9000000000001,5525.21,-2341.5599999999999,-99.831199999999995,-608.84299999999996
169886.0,5688.7799999999997,4983.4899999999998,1338.8099999999999,5450.1000000000004,-2294.21,-129.43299999999999,-663.25099999999998
169887.0,5582.4799999999996,4893.6800000000003,1314.96,5355.0200000000004,-2227.3299999999999,-165.178,-713.72299999999996
169888.0,6063.0200000000004,5785.6300000000001,1442.0,5563.8699999999999,-2497.2800000000002,-94.823300000000003,153.83799999999999
169889.0,6086.6800000000003,5743.0100000000002,1442.04,5595.75,-2526.1599999999999,-39.744599999999998,62.748100000000001
169890.0,6112.8100000000004,5711.5100000000002,1451.9000000000001,5646.7399999999998,-2548.96,-3.2925900000000001,-26.7681
169891.0,6136.4499999999998,5670.75,1450.3900000000001,5687.1300000000001,-2564.9099999999999,18.376100000000001,-112.383
169892.0,6155.3100000000004,5642.4799999999996,1459.9300000000001,5734.8999999999996,-2574.2800000000002,26.889800000000001,-196.68299999999999
169893.0,6167.54,5600.1599999999999,1453.52,5760.1499999999996,-2576.9499999999998,25.9983,-277.37700000000001
169894.0,6171.9899999999998,5577.6300000000001,1463.95,5793.7399999999998,-2572.46,16.631499999999999,-356.80099999999999
169895.0,6168.8999999999996,5531.3800000000001,1448.71,5791.1800000000003,-2562.3800000000001,2.1596700000000002,-432.69900000000001
169896.0,6157.7200000000003,5514.1599999999999,1459.04,5803.8100000000004,-2545.6900000000001,-16.377800000000001,-507.50299999999999
169897.0,6135.3000000000002,5463.3999999999996,1435.8499999999999,5770.0799999999999,-2522.1700000000001,-35.872399999999999,-578.38099999999997
169898.0,6099.5100000000002,5441.6499999999996,1443.0999999999999,5756.0100000000002,-2489.3200000000002,-56.6494,-648.05499999999995
169899.0,6032.4899999999998,5368.6999999999998,1417.01,5685.54,-2442.3699999999999,-76.558700000000002,-709.351
169900.0,5929.75,5278.0900000000001,1395.8499999999999,5602.4300000000003,-2375.6100000000001,-103.402,-766.64499999999998
169901.0,6307.3100000000004,6095.4499999999998,1510.8800000000001,5730.1599999999999,-2591.3899999999999,-153.613,171.77500000000001
169902.0,6343.5,6052.5900000000001,1496.75,5750.4200000000001,-2628.5700000000002,-88.978700000000003,76.922700000000006
169903.0,6381.9099999999999,6053.3999999999996,1526.1400000000001,5823.8000000000002,-2659.1399999999999,-42.903199999999998,-16.935199999999998
169904.0,6417.6300000000001,6009.5299999999997,1510.3299999999999,5852.9899999999998,-2682.5500000000002,-11.238300000000001,-107.214
169905.0,6447.8400000000001,6010.1700000000001,1537.8399999999999,5922.71,-2698.1300000000001,7.5944099999999999,-196.999
169906.0,6470.6300000000001,5966.3500000000004,1521.0799999999999,5941.9399999999996,-2706.46,17.352399999999999,-283.30200000000002
169907.0,6485.1999999999998,5959.6300000000001,1540.79,5989.3000000000002,-2707.4099999999999,18.9361,-368.92899999999997
169908.0,6490.1899999999996,5919.2200000000003,1525.6300000000001,5992.4399999999996,-2700.6500000000001,15.5473,-451.15100000000001
169909.0,6486.5799999999999,5908.9399999999996,1538.8,6014.2299999999996,-2686.7199999999998,8.2776999999999994,-532.53800000000001
169910.0,6471.3900000000003,5868.1199999999999,1523.53,5995.3800000000001,-2665.6599999999999,-0.092571200000000006,-610.19299999999998
169911.0,6440.71,5839.7299999999996,1526.1800000000001,5983.1700000000001,-2634.46,-10.1348,-686.84699999999998
169912.0,6377.9099999999999,5763.1000000000004,1500.1700000000001,5920.5299999999997,-2588.27,-19.923999999999999,-755.13400000000001
169913.0,6278.4899999999998,5671.21,1482.8199999999999,5850.3900000000003,-2521.6500000000001,-37.232500000000002,-819.33199999999999
169914.0,6545.3999999999996,6381.96,1559.05,5866.5299999999997,-2680.5999999999999,-214.05500000000001,189.48599999999999
169915.0,6595.2299999999996,6380.9499999999998,1571.3499999999999,5916.4799999999996,-2726.3899999999999,-139.749,91.122200000000007
169916.0,6646.75,6374.5699999999997,1579.6600000000001,5971.9700000000003,-2764.98,-83.715400000000002,-7.0672199999999998
169917.0,6694.8699999999999,6370.1499999999996,1589.9000000000001,6031.1099999999997,-2795.2199999999998,-41.767899999999997,-102.066
169918.0,6737.0600000000004,6363.0,1599.3,6086.25,-2817.8099999999999,-12.151999999999999,-196.995
169919.0,6770.9300000000003,6347.1700000000001,1601.26,6128.4200000000001,-2832.0500000000002,8.7825299999999995,-288.91899999999998
169920.0,6795.3000000000002,6342.0200000000004,1614.1500000000001,6174.29,-2837.3800000000001,21.890599999999999,-380.56
169921.0,6809.9799999999996,6311.8100000000004,1604.6900000000001,6188.04,-2835.6799999999998,30.172799999999999,-469.12099999999998
169922.0,6814.1000000000004,6301.9099999999999,1615.7,6213.21,-2825.1399999999999,34.626199999999997,-557.15499999999997
169923.0,6805.04,6260.8599999999997,1598.9300000000001,6199.5200000000004,-2805.8499999999999,37.9358,-641.49400000000003
169924.0,6779.9700000000003,6237.54,1606.1800000000001,6200.0,-2775.4899999999998,39.562600000000003,-724.84400000000005
169925.0,6722.6599999999999,6163.3500000000004,1584.1600000000001,6150.7200000000003,-2729.9299999999998,40.820900000000002,-800.096
169926.0,6628.2399999999998,6064.8800000000001,1564.21,6088.2600000000002,-2664.0900000000001,33.7057,-871.04899999999998
169927.0,6775.8100000000004,6696.75,1638.1700000000001,6024.1700000000001,-2763.75,-276.351,206.81200000000001
169928.0,6839.8999999999996,6678.2799999999997,1616.9000000000001,6043.9499999999998,-2818.4699999999998,-191.93100000000001,105.02200000000001
169929.0,6905.0699999999997,6724.6199999999999,1663.0,6140.7299999999996,-2865.1399999999999,-125.73,2.7930700000000002
169930.0,6966.2399999999998,6700.4499999999998,1641.3699999999999,6171.0699999999997,-2903.3499999999999,-72.998500000000007,-96.546499999999995
169931.0,7020.6899999999996,6739.2700000000004,1684.0599999999999,6263.8299999999999,-2932.1900000000001,-32.266300000000001,-196.696
169932.0,7066.0100000000002,6711.9099999999999,1664.3800000000001,6288.8400000000001,-2952.2800000000002,0.33583000000000002,-294.07499999999999
169933.0,7101.0699999999997,6731.3000000000002,1694.98,6356.75,-2963.3699999999999,25.456499999999998,-391.61700000000002
169934.0,7124.3900000000003,6701.0299999999997,1678.1099999999999,6369.3299999999999,-2964.6300000000001,46.0745,-486.38799999999998
169935.0,7136.8100000000004,6709.0600000000004,1702.3199999999999,6414.3599999999997,-2957.0100000000002,63.095100000000002,-580.70299999999997
169936.0,7135.1999999999998,6665.1000000000004,1681.6099999999999,6403.4499999999998,-2940.4499999999998,78.727099999999993,-671.80700000000002
169937.0,7115.8500000000004,6645.2799999999997,1694.1900000000001,6416.3500000000004,-2911.8200000000002,92.497600000000006,-761.83799999999997
169938.0,7063.6899999999996,6557.8999999999996,1662.3399999999999,6366.0600000000004,-2867.0900000000001,105.232,-844.13199999999995
169939.0,6973.9200000000001,6466.9700000000003,1654.5,6326.3999999999996,-2801.6500000000001,109.18899999999999,-921.73099999999999
169940.0,6995.8800000000001,6964.71,1676.49,6128.9099999999999,-2840.2800000000002,-339.87700000000001,223.876
169941.0,7075.3599999999997,7008.6700000000001,1700.1500000000001,6197.7299999999996,-2904.27,-245.488,118.932
169942.0,7154.8900000000003,7032.8199999999997,1708.3599999999999,6260.3000000000002,-2959.3400000000001,-168.667,12.7826
169943.0,7229.4899999999998,7066.1000000000004,1728.7,6336.9700000000003,-3004.4299999999998,-105.048,-91.022199999999998
169944.0,7296.4799999999996,7084.6599999999999,1739.8800000000001,6401.6700000000001,-3040.4200000000001,-52.658999999999999,-195.97399999999999
169945.0,7353.3299999999999,7095.3000000000002,1748.1500000000001,6458.7200000000003,-3066.5,-7.95092,-298.69400000000002
169946.0,7398.8400000000001,7112.1000000000004,1766.1900000000001,6519.8400000000001,-3081.79,29.7852,-401.90899999999999
169947.0,7432.2600000000002,7096.46,1759.8900000000001,6547.3699999999999,-3088.5700000000002,63.177100000000003,-502.82900000000001
169948.0,7452.6700000000001,7096.7200000000003,1773.5,6587.54,-3084.2800000000002,93.156800000000004,-603.43899999999996
169949.0,7457.7799999999997,7064.6700000000001,1762.3399999999999,6593.5200000000004,-3069.2600000000002,121.851,-701.03800000000001
169950.0,7444.2600000000002,7040.6700000000001,1770.5,6610.5,-3041.4099999999999,148.61000000000001,-797.423
169951.0,7398.0900000000001,6964.8400000000001,1752.25,6583.6899999999996,-2997.4299999999998,173.697,-886.51700000000005
169952.0,7314.1499999999996,6858.1099999999997,1733.1700000000001,6543.8299999999999,-2933.1199999999999,189.14099999999999,-970.69299999999998
169953.0,7204.4300000000003,7273.9300000000003,1762.21,6268.3599999999997,-2909.1999999999998,-404.87,240.744
169954.0,7299.4099999999999,7289.9099999999999,1739.8199999999999,6295.5600000000004,-2982.4400000000001,-300.27199999999999,132.39099999999999
169955.0,7393.75,7378.8199999999997,1795.8800000000001,6409.7799999999997,-3045.8899999999999,-212.54400000000001,22.823899999999998
169956.0,7481.8100000000004,7384.8900000000003,1776.05,6449.4700000000003,-3099.0100000000002,-137.62899999999999,-85.029300000000006
169957.0,7561.8100000000004,7455.8800000000001,1825.5799999999999,6556.6800000000003,-3141.3899999999999,-73.271600000000007,-194.78200000000001
169958.0,7630.5500000000002,7456.1899999999996,1812.1199999999999,6596.8299999999999,-3173.1199999999999,-16.046900000000001,-302.57999999999998
169959.0,7686.8699999999999,7492.8299999999999,1843.4200000000001,6674.71,-3194.4400000000001,34.723999999999997,-411.404
169960.0,7729.1499999999996,7485.2299999999996,1836.05,6708.2299999999996,-3203.4899999999998,81.652000000000001,-518.03800000000001
169961.0,7757.96,7500.8400000000001,1860.28,6765.3800000000001,-3202.0700000000002,125.377,-624.66999999999996
169962.0,7770.3599999999997,7464.71,1844.79,6773.6300000000001,-3189.8099999999999,167.624,-728.53300000000002
169963.0,7762.8500000000004,7442.1300000000001,1856.6500000000001,6801.3900000000003,-3163.8099999999999,207.738,-831.46299999999997
169964.0,7722.3599999999997,7354.4799999999996,1829.7,6775.71,-3120.6100000000001,245.702,-927.08500000000004
169965.0,7644.1800000000003,7254.4799999999996,1821.6400000000001,6758.6099999999997,-3056.8800000000001,273.57799999999997,-1017.8200000000001
169966.0,7398.2200000000003,7500.9899999999998,1775.9100000000001,6321.1400000000003,-2969.7199999999998,-470.43400000000003,257.06400000000002
169967.0,7509.4200000000001,7626.9799999999996,1843.77,6442.5699999999997,-3052.21,-356.339,145.94900000000001
169968.0,7619.3400000000001,7654.21,1821.4100000000001,6483.0200000000004,-3124.6900000000001,-256.89299999999997,33.053400000000003
169969.0,7721.3500000000004,7756.3699999999999,1880.0,6605.2700000000004,-3184.3499999999999,-171.029,-78.890600000000006
169970.0,7814.1899999999996,7776.1999999999998,1866.73,6653.25,-3234.0100000000002,-93.908600000000007,-193.066
169971.0,7894.1700000000001,7839.7799999999997,1905.6099999999999,6749.21,-3271.29,-23.961300000000001,-305.60500000000002
169972.0,7961.3299999999999,7857.0,1906.6500000000001,6802.8699999999999,-3296.6399999999999,40.552999999999997,-419.84399999999999
169973.0,8013.3599999999997,7877.0799999999999,1923.5699999999999,6864.0699999999997,-3311.3299999999999,101.214,-531.95799999999997
169974.0,8050.1199999999999,7868.1700000000001,1920.8399999999999,6899.8299999999999,-3313.2199999999998,159.001,-644.74099999999999
169975.0,8069.0600000000004,7863.25,1933.3699999999999,6943.7200000000003,-3301.8800000000001,215.62200000000001,-754.25699999999995
169976.0,8067.21,7820.8000000000002,1925.73,6960.6300000000001,-3276.3899999999999,269.89999999999998,-863.36599999999999
169977.0,8032.6700000000001,7758.6700000000001,1926.7,6973.0299999999997,-3233.8099999999999,321.52499999999998,-965.01499999999999
169978.0,7961.1199999999999,7628.8800000000001,1893.99,6943.0900000000001,-3171.46,362.04199999999997,-1062.28
169979.0,7575.0299999999997,7792.9899999999998,1866.1800000000001,6434.1099999999997,-3020.4200000000001,-538.06100000000004,273.23200000000003
169980.0,7703.71,7885.0799999999999,1878.45,6504.6499999999996,-3112.73,-412.50400000000002,159.072
169981.0,7829.0100000000002,7985.8500000000004,1911.5599999999999,6605.4099999999999,-3193.5100000000002,-302.58300000000003,43.472000000000001
169982.0,7944.2600000000002,8055.1899999999996,1923.45,6683.2700000000004,-3260.9899999999998,-204.279,-72.349999999999994
169983.0,8050.3599999999997,8132.0600000000004,1952.3099999999999,6777.8400000000001,-3316.8899999999999,-114.931,-190.453
169984.0,8142.2600000000002,8186.5200000000004,1969.99,6856.6400000000003,-3359.6900000000001,-31.390599999999999,-307.81200000000001
169985.0,8219.5799999999999,8217.4200000000001,1978.72,6920.9799999999996,-3390.8699999999999,46.812100000000001,-426.964
169986.0,8280.2199999999993,8254.7800000000007,2002.3699999999999,6995.9799999999996,-3406.9400000000001,122.252,-544.26900000000001
169987.0,8325.1499999999996,8258.1000000000004,2007.24,7045.5600000000004,-3411.4400000000001,194.76900000000001,-662.43299999999999
169988.0,8350.5400000000009,8246.3600000000006,2014.01,7089.4700000000003,-3402.6500000000001,266.12200000000001,-777.74199999999996
169989.0,8354.5699999999997,8203.9099999999999,2009.3499999999999,7116.3400000000001,-3379.02,334.786,-892.76999999999998
169990.0,8325.6100000000006,8129.3199999999997,2001.5599999999999,7129.9399999999996,-3337.02,400.52600000000001,-1000.54
169991.0,8260.5599999999995,8007.6999999999998,1981.1800000000001,7125.1099999999997,-3275.3499999999999,454.666,-1103.6300000000001
169992.0,7731.9399999999996,8003.71,1889.3800000000001,6460.4399999999996,-3060.5,-606.18899999999996,288.62900000000002
169993.0,7879.21,8187.9899999999998,1971.5,6607.4399999999996,-3163.0,-469.59399999999999,172.453
169994.0,8019.2700000000004,8247.2399999999998,1945.0899999999999,6652.3800000000001,-3251.98,-348.35599999999999,54.053699999999999
169995.0,8149.6000000000004,8394.7700000000004,2016.75,6794.5699999999997,-3326.6199999999999,-238.24000000000001,-65.366900000000001
169996.0,8267.5200000000004,8441.1800000000003,2002.6700000000001,6849.0600000000004,-3388.8600000000001,-135.74600000000001,-187.10599999999999
169997.0,8370.1700000000001,8535.6499999999996,2049.6300000000001,6959.9799999999996,-3436.9400000000001,-38.676200000000001,-308.90100000000001
169998.0,8457.9699999999993,8575.6000000000004,2055.23,7027.1300000000001,-3471.3600000000001,54.165700000000001,-432.45299999999997
169999.0,8527.2600000000002,8608.8099999999995,2073.8200000000002,7098.7600000000002,-3493.29,144.10900000000001,-555.07399999999996
170000.0,8578.8999999999996,8610.7199999999993,2074.9099999999999,7149.6599999999999,-3500.1999999999998,231.71899999999999,-678.24800000000005
170001.0,8610.5900000000001,8612.1499999999996,2091.8699999999999,7211.1700000000001,-3491.96,318.43400000000003,-798.89200000000005
170002.0,8619.4200000000001,8568.7800000000007,2086.7600000000002,7246.21,-3468.0700000000002,402.51400000000001,-918.88300000000004
170003.0,8596.1700000000001,8501.2999999999993,2089.6399999999999,7280.4899999999998,-3426.5900000000001,482.86200000000002,-1032.4200000000001
170004.0,8537.8199999999997,8364.0900000000001,2059.4299999999998,7278.0799999999999,-3366.3499999999999,550.88300000000004,-1141.02
170005.0,7866.5299999999997,8288.3299999999999,2002.73,6556.0,-3088.3800000000001,-675.63300000000004,304.238
170006.0,8033.96,8395.6900000000005,1984.49,6611.1999999999998,-3202.2199999999998,-526.56700000000001,185.184
170007.0,8188.2799999999997,8567.5699999999997,2050.9299999999998,6751.9200000000001,-3298.2600000000002,-395.13400000000001,65.162899999999993
170008.0,8332.2099999999991,8651.2600000000002,2044.4300000000001,6819.5699999999997,-3380.8499999999999,-271.81999999999999,-58.031500000000001
170009.0,8461.7399999999998,8779.7000000000007,2097.1700000000001,6943.2299999999996,-3448.23,-156.81100000000001,-182.48599999999999
170010.0,8576.4300000000003,8846.2600000000002,2104.6700000000001,7018.9700000000003,-3502.0799999999999,-45.330300000000001,-308.91399999999999
170011.0,8671.8700000000008,8908.9799999999996,2127.8499999999999,7104.4300000000003,-3540.9899999999998,61.755699999999997,-436.20499999999998
170012.0,8750.4200000000001,8956.6499999999996,2148.9899999999998,7186.6899999999996,-3563.96,167.489,-563.51199999999994
170013.0,8808.7700000000004,8976.9599999999991,2164.6999999999998,7256.7600000000002,-3572.7800000000002,270.73000000000002,-691.08799999999997
170014.0,8845.9500000000007,8959.6100000000006,2165.7800000000002,7307.6400000000003,-3566.9499999999998,373.05200000000002,-816.91999999999996
170015.0,8858.9599999999991,8921.0300000000007,2170.04,7357.5600000000004,-3544.23,472.40899999999999,-941.93399999999997
170016.0,8840.9400000000005,8833.1700000000001,2157.1100000000001,7386.3000000000002,-3503.1199999999999,567.83399999999995,-1060.75
170017.0,8788.8999999999996,8712.0599999999995,2147.4899999999998,7417.1800000000003,-3443.25,650.53399999999999,-1174.3699999999999
170018.0,7977.6499999999996,8457.0599999999995,2019.27,6531.2700000000004,-3104.9099999999999,-743.94600000000003,318.96800000000002
170019.0,8163.5500000000002,8668.7800000000007,2081.3400000000001,6677.5200000000004,-3227.8499999999999,-584.86199999999997,198.476
170020.0,8332.3899999999994,8788.3799999999992,2077.2600000000002,6748.8000000000002,-3332.48,-441.19099999999997,76.154899999999998
170021.0,8490.9099999999999,8961.6700000000001,2141.1799999999998,6892.6700000000001,-3421.4499999999998,-306.12700000000001,-49.505699999999997
170022.0,8630.7800000000007,9048.4500000000007,2140.46,6963.4099999999999,-3494.6300000000001,-177.31999999999999,-177.36600000000001
170023.0,8755.0300000000007,9164.5,2185.6900000000001,7080.21,-3552.3499999999999,-51.956200000000003,-306.93099999999998
170024.0,8860.2099999999991,9231.2399999999998,2201.9200000000001,7162.6899999999996,-3594.5500000000002,70.658299999999997,-438.26400000000001
170025.0,8944.3299999999999,9272.1200000000008,2217.3699999999999,7239.5799999999999,-3621.98,191.27199999999999,-569.67200000000003
170026.0,9007.7299999999996,9286.0599999999995,2225.6700000000001,7305.8699999999999,-3632.4400000000001,310.58300000000003,-701.54600000000005
170027.0,9049.9799999999996,9288.5499999999993,2243.79,7380.8100000000004,-3626.1900000000001,428.94999999999999,-831.41700000000003
170028.0,9066.9599999999991,9244.1000000000004,2243.71,7434.29,-3602.7399999999998,544.78599999999994,-960.65800000000002
170029.0,9053.6800000000003,9166.75,2245.8299999999999,7487.6700000000001,-3561.6900000000001,655.54600000000005,-1084.02
170030.0,9008.0,9022.9599999999991,2220.5900000000001,7514.9099999999999,-3503.1500000000001,753.173,-1202.48
170031.0,8063.0500000000002,8679.6599999999999,2110.1900000000001,6559.8999999999996,-3107.8400000000001,-812.0,333.19299999999998
170032.0,8265.1200000000008,8850.1399999999994,2108.6999999999998,6648.2799999999997,-3239.5999999999999,-643.12400000000002,211.916
170033.0,8450.4699999999993,9054.5799999999999,2168.1100000000001,6788.0200000000004,-3352.7199999999998,-487.54399999999998,87.391900000000007
170034.0,8619.1900000000005,9187.2299999999996,2176.9299999999998,6878.3699999999999,-3447.1900000000001,-340.08600000000001,-40.177599999999998
170035.0,8770.9300000000003,9337.3400000000001,2224.5900000000001,6999.9300000000003,-3525.8600000000001,-197.77500000000001,-170.82900000000001
170036.0,8903.8700000000008,9438.1200000000008,2245.04,7093.3800000000001,-3587.9499999999998,-57.974299999999999,-303.46499999999997
170037.0,9015.2199999999993,9510.9500000000007,2262.3899999999999,7177.4700000000003,-3633.52,79.605000000000004,-437.99200000000002
170038.0,9107.5799999999999,9583.7299999999996,2298.48,7281.3199999999997,-3661.54,216.637,-572.81799999999998
170039.0,9176.0400000000009,9600.5200000000004,2307.7199999999998,7352.0200000000004,-3673.3099999999999,352.14800000000002,-708.32000000000005
170040.0,9220.9599999999991,9590.8400000000001,2318.8099999999999,7423.0699999999997,-3668.3099999999999,486.77999999999997,-842.23599999999999
170041.0,9240.1399999999994,9537.5499999999993,2316.5999999999999,7478.8199999999997,-3645.29,618.40200000000004,-975.37099999999998
170042.0,9230.4899999999998,9448.7900000000009,2313.3000000000002,7535.9700000000003,-3603.8099999999999,745.04300000000001,-1102.8900000000001
170043.0,9190.4599999999991,9311.3400000000001,2299.7199999999998,7587.4700000000003,-3545.23,857.99900000000002,-1225.0999999999999
170044.0,8120.8500000000004,8797.4799999999996,2120.4699999999998,6484.5200000000004,-3097.71,-877.84400000000005,346.54300000000001
170045.0,8334.9599999999991,9073.5499999999993,2203.5900000000001,6658.0,-3235.2600000000002,-702.59699999999998,226.09399999999999
170046.0,8538.1000000000004,9231.6299999999992,2195.0999999999999,6738.0799999999999,-3358.2800000000002,-532.63499999999999,98.572000000000003
170047.0,8716.25,9443.0400000000009,2266.71,6890.4799999999996,-3456.9899999999998,-374.55900000000003,-29.2775
170048.0,8878.4699999999993,9559.75,2268.5700000000002,6969.0100000000002,-3541.25,-217.51499999999999,-163.517
170049.0,9017.5400000000009,9702.0599999999995,2319.7399999999998,7093.1400000000003,-3605.25,-63.851700000000001,-297.38
170050.0,9137.0699999999997,9785.3400000000001,2339.0700000000002,7182.2399999999998,-3653.8800000000001,89.759799999999998,-435.714
170051.0,9230.4300000000003,9837.3600000000006,2357.0700000000002,7265.7200000000003,-3683.7199999999998,241.999,-572.82000000000005
170052.0,9302.3299999999999,9855.7000000000007,2367.9400000000001,7340.9200000000001,-3696.2399999999998,394.178,-711.81899999999996
170053.0,9350.0,9858.3199999999997,2390.3899999999999,7428.3599999999997,-3689.8200000000002,545.36000000000001,-848.13800000000003
170054.0,9371.7399999999998,9804.8299999999999,2391.46,7494.1000000000004,-3665.5900000000001,693.995,-984.50800000000004
170055.0,9364.8099999999995,9717.2099999999991,2395.9400000000001,7567.0299999999997,-3623.4400000000001,836.45100000000002,-1115.1199999999999
170056.0,9330.3600000000006,9560.8899999999994,2372.1199999999999,7619.6300000000001,-3566.0100000000002,964.928,-1241.1500000000001
170057.0,8143.5200000000004,8908.3799999999992,2154.6399999999999,6408.1700000000001,-3069.77,-945.23199999999997,359.52999999999997
170058.0,8373.3700000000008,9244.9899999999998,2273.54,6611.3699999999999,-3216.1599999999999,-759.89499999999998,240.178
170059.0,8591.3999999999996,9404.7700000000004,2246.0999999999999,6685.7700000000004,-3346.4200000000001,-578.68499999999995,110.812
170060.0,8777.4300000000003,9643.0699999999997,2330.2800000000002,6844.7399999999998,-3449.6199999999999,-407.73500000000001,-17.872599999999998
170061.0,8949.25,9767.6900000000005,2326.5500000000002,6923.4300000000003,-3538.02,-237.512,-154.03299999999999
170062.0,9092.9899999999998,9931.4699999999993,2392.71,7057.6000000000004,-3605.0799999999999,-68.866100000000003,-289.68099999999998
170063.0,9217.0400000000009,9987.9500000000007,2380.0700000000002,7117.1999999999998,-3655.4899999999998,99.670100000000005,-430.21499999999997
170064.0,9315.4899999999998,10096.0,2447.21,7250.6800000000003,-3685.6700000000001,268.87299999999999,-569.42899999999997
170065.0,9389.5699999999997,10091.799999999999,2436.1799999999998,7306.9799999999996,-3698.21,437.142,-710.92399999999998
170066.0,9436.1100000000006,10095.299999999999,2467.3699999999999,7402.6800000000003,-3691.4000000000001,605.13599999999997,-849.80799999999999
170067.0,9457.3700000000008,10015.4,2450.6999999999998,7454.5100000000002,-3666.1599999999999,769.63999999999999,-988.56700000000001
170068.0,9451.3899999999994,9927.1000000000004,2462.8099999999999,7541.71,-3622.4699999999998,928.46600000000001,-1121.8
170069.0,9421.2700000000004,9765.6700000000001,2440.4200000000001,7608.0500000000002,-3564.29,1072.49,-1250.02
170070.0,8127.4499999999998,9024.0200000000004,2229.0599999999999,6330.4200000000001,-3023.0100000000002,-1015.79,374.25
170071.0,8378.4300000000003,9357.5200000000004,2314.5,6512.6599999999999,-3181.04,-814.03599999999994,253.10599999999999
170072.0,8604.7800000000007,9558.8500000000004,2311.8400000000001,6610.6499999999996,-3315.4200000000001,-625.58500000000004,124.879
170073.0,8802.5,9800.5100000000002,2383.1500000000001,6760.6400000000003,-3425.0999999999999,-439.58499999999998,-5.9802999999999997
170074.0,8977.5900000000001,9947.4099999999999,2392.0999999999999,6848.1599999999999,-3514.98,-257.577,-142.12200000000001
170075.0,9127.1800000000003,10107.6,2445.1599999999999,6970.6999999999998,-3584.0999999999999,-73.111400000000003,-279.90899999999999
170076.0,9252.5900000000001,10204.700000000001,2468.8699999999999,7063.8800000000001,-3634.5900000000001,110.16500000000001,-421.27499999999998
170077.0,9350.3400000000001,10261.700000000001,2487.98,7147.8000000000002,-3664.9899999999998,295.67000000000002,-562.51199999999994
170078.0,9423.5599999999995,10281.799999999999,2503.54,7229.79,-3676.21,480.21100000000001,-705.05100000000004
170079.0,9470.4099999999999,10273.799999999999,2526.29,7320.3500000000004,-3667.5,665.16700000000003,-845.53700000000003
170080.0,9490.6000000000004,10208.799999999999,2531.2600000000002,7397.0299999999997,-3639.8600000000001,846.45600000000002,-985.41099999999994
170081.0,9485.0400000000009,10101.299999999999,2534.1599999999999,7481.3199999999997,-3594.8800000000001,1021.26,-1120.6099999999999
170082.0,9458.2800000000007,9932.2299999999996,2514.8600000000001,7559.9300000000003,-3537.1199999999999,1180.78,-1250.8099999999999
170083.0,8075.7200000000003,9118.0599999999995,2312.96,6224.9099999999999,-2958.5799999999999,-1082.0899999999999,388.72500000000002
170084.0,8343.6000000000004,9422.3500000000004,2345.5300000000002,6373.0500000000002,-3126.9000000000001,-869.76900000000001,266.81799999999998
170085.0,8579.1700000000001,9684.5900000000001,2384.2800000000002,6506.6999999999998,-3266.1999999999998,-669.75300000000004,139.291
170086.0,8783.3099999999995,9911.7800000000007,2427.3499999999999,6634.1000000000004,-3378.8099999999999,-472.17399999999998,7.7910500000000003
170087.0,8962.3999999999996,10091.5,2459.6100000000001,6738.3800000000001,-3471.2199999999998,-276.07100000000003,-128.63
170088.0,9113.7999999999993,10245.700000000001,2502.0900000000001,6850.0299999999997,-3541.6700000000001,-77.832099999999997,-267.09800000000001
170089.0,9239.25,10332.5,2513.8099999999999,6925.7700000000004,-3592.3699999999999,121.28400000000001,-409.233
170090.0,9337.6499999999996,10423.700000000001,2565.6300000000001,7042.9499999999998,-3621.9200000000001,322.51799999999997,-551.19799999999998
170091.0,9407.8600000000006,10427.6,2570.1500000000001,7110.7200000000003,-3631.27,523.73099999999999,-694.59900000000005
170092.0,9450.3400000000001,10408.200000000001,2591.2800000000002,7199.0,-3620.3099999999999,724.75400000000002,-835.88800000000003
170093.0,9465.9500000000007,10320.9,2585.6100000000001,7264.8900000000003,-3589.6999999999998,922.32000000000005,-976.37099999999998
170094.0,9458.4400000000005,10204.6,2590.4699999999998,7356.5299999999997,-3541.8699999999999,1112.9400000000001,-1112.1300000000001
170095.0,9433.0400000000009,10034.200000000001,2579.0799999999999,7452.5299999999997,-3482.0,1288.1900000000001,-1242.8
170096.0,7983.0699999999997,9116.8500000000004,2343.71,6039.6400000000003,-2876.1300000000001,-1143.76,402.565
170097.0,8267.4200000000001,9483.0400000000009,2411.04,6223.9300000000003,-3052.5799999999999,-925.86699999999996,281.23700000000002
170098.0,8509.7000000000007,9744.8899999999994,2431.3899999999999,6347.6000000000004,-3195.8200000000002,-711.93700000000001,154.68799999999999
170099.0,8719.0200000000004,9991.7199999999993,2483.9400000000001,6476.1199999999999,-3312.8000000000002,-504.637,23.228200000000001
170100.0,8898.8500000000004,10180.5,2515.9499999999998,6581.9799999999996,-3404.8699999999999,-293.55799999999999,-112.822
170101.0,9048.8899999999994,10334.5,2554.5,6681.5200000000004,-3474.6599999999999,-82.375600000000006,-251.24700000000001
170102.0,9171.8899999999994,10452.9,2596.0799999999999,6786.0600000000004,-3523.3099999999999,132.96299999999999,-393.23599999999999
170103.0,9264.6000000000004,10494.1,2603.29,6851.29,-3550.5300000000002,349.125,-534.88900000000001
170104.0,9330.3500000000004,10520.200000000001,2635.96,6945.6599999999999,-3556.9200000000001,566.99300000000005,-678.14099999999996
170105.0,9367.2199999999993,10479.5,2644.8299999999999,7018.8199999999997,-3542.3499999999999,783.98900000000003,-818.649
170106.0,9378.0599999999995,10407.5,2665.7399999999998,7112.1800000000003,-3508.0900000000001,997.95399999999995,-958.81299999999999
170107.0,9366.7700000000004,10259.9,2653.6799999999998,7188.7399999999998,-3457.8499999999999,1203.9300000000001,-1094.1900000000001
170108.0,9342.3500000000004,10084.6,2650.8400000000001,7300.6099999999997,-3397.4499999999998,1394.1600000000001,-1225.3499999999999
170109.0,7843.2799999999997,9099.6100000000006,2409.8400000000001,5839.0600000000004,-2768.4499999999998,-1214.75,418.452
170110.0,8152.3199999999997,9486.9599999999991,2458.1500000000001,6028.2700000000004,-2961.2800000000002,-972.36199999999997,294.46699999999998
170111.0,8389.8199999999997,9756.1100000000006,2479.4299999999998,6141.0600000000004,-3101.5799999999999,-758.63,173.208
170112.0,8608.4799999999996,10035.299999999999,2545.6500000000001,6290.1300000000001,-3223.9699999999998,-531.88499999999999,38.483400000000003
170113.0,8780.1599999999999,10209.5,2562.7800000000002,6369.0699999999997,-3312.4099999999999,-313.43200000000002,-92.784300000000002
170114.0,8931.9500000000007,10382.700000000001,2617.6500000000001,6482.2700000000004,-3384.8499999999999,-84.473699999999994,-233.59899999999999
170115.0,9045.6599999999999,10463.9,2626.75,6544.5500000000002,-3429.3299999999999,142.77199999999999,-372.17899999999997
170116.0,9135.0,10545.4,2678.8000000000002,6650.3299999999999,-3455.1500000000001,376.25900000000001,-514.85699999999997
170117.0,9190.1900000000005,10537.5,2687.77,6714.0600000000004,-3456.1900000000001,608.452,-655.45100000000002
170118.0,9219.6599999999999,10490.5,2703.6900000000001,6790.0600000000004,-3438.0900000000001,842.04899999999998,-795.91200000000003
170119.0,9220.7099999999991,10386.9,2708.23,6863.8199999999997,-3398.3400000000001,1070.71,-933.68700000000001
170120.0,9204.0300000000007,10231.299999999999,2703.04,6948.8599999999997,-3343.8600000000001,1292.3599999999999,-1067.9100000000001
170121.0,9177.0100000000002,10051.299999999999,2707.5500000000002,7074.8000000000002,-3279.4499999999998,1497.1300000000001,-1196.9200000000001
170122.0,7680.3999999999996,9211.4400000000005,2631.7199999999998,5741.1499999999996,-2649.5300000000002,-1272.98,433.988
170123.0,7978.6999999999998,9296.2600000000002,2368.73,5665.1599999999999,-2839.9899999999998,-1024.98,311.04899999999998
170124.0,8230.4599999999991,9840.9300000000003,2644.0100000000002,6001.1899999999996,-2989.8400000000001,-798.01300000000003,189.26300000000001
170125.0,8439.7099999999991,9916.8700000000008,2502.79,5961.4399999999996,-3108.1300000000001,-562.26599999999996,59.740499999999997
170126.0,8611.3999999999996,10260.700000000001,2685.9099999999999,6180.6499999999996,-3198.7399999999998,-329.62700000000001,-73.290700000000001
170127.0,8751.8299999999999,10308.6,2614.1599999999999,6174.3500000000004,-3263.5999999999999,-88.460800000000006,-209.661
170128.0,8858.3099999999995,10503.299999999999,2742.5300000000002,6336.2700000000004,-3305.5599999999999,154.452,-348.01299999999998
170129.0,8935.9899999999998,10469.200000000001,2686.8699999999999,6334.25,-3325.29,401.77800000000002,-487.32999999999998
170130.0,8980.9400000000005,10525.299999999999,2772.8899999999999,6460.8199999999997,-3321.75,650.02499999999998,-626.32899999999995
170131.0,8998.7199999999993,10414.5,2739.29,6485.5900000000001,-3297.4099999999999,898.00400000000002,-763.43299999999999
170132.0,8989.2700000000004,10344.299999999999,2795.6700000000001,6602.6599999999999,-3252.3099999999999,1142.21,-898.80399999999997
170133.0,8964.4300000000003,10132.0,2752.7600000000002,6650.6499999999996,-3193.8000000000002,1377.54,-1030.21
170134.0,8934.5300000000007,9952.8799999999992,2776.8400000000001,6796.5600000000004,-3127.9400000000001,1596.4100000000001,-1157.5899999999999
170135.0,7471.8800000000001,8808.6000000000004,2377.8800000000001,5191.0299999999997,-2515.9299999999998,-1301.5899999999999,439.51299999999998
170136.0,7757.1599999999999,9402.1200000000008,2636.6300000000001,5565.21,-2691.0100000000002,-1091.6400000000001,335.99299999999999
170137.0,8021.9399999999996,9596.0300000000007,2528.7600000000002,5573.5600000000004,-2856.9499999999998,-825.44899999999996,201.83199999999999
170138.0,8214.4500000000007,9957.3700000000008,2677.2800000000002,5776.7299999999996,-2963.1700000000001,-597.60599999999999,86.881699999999995
170139.0,8386.2800000000007,10094.299999999999,2646.4299999999998,5802.5799999999999,-3057.5700000000002,-341.154,-53.708399999999997
170140.0,8509.3199999999997,10284.299999999999,2729.0100000000002,5916.7600000000002,-3115.8600000000001,-94.581699999999998,-179.46899999999999
170141.0,8608.3299999999999,10339.6,2724.5900000000001,5949.7700000000004,-3155.9200000000001,166.41200000000001,-321.58999999999997
170142.0,8668.2800000000007,10404.299999999999,2782.4099999999999,6038.46,-3167.73,425.03899999999999,-452.89299999999997
170143.0,8701.4300000000003,10365.700000000001,2788.8000000000002,6082.9399999999996,-3158.8400000000001,689.33399999999995,-592.44299999999998
170144.0,8702.75,10286.700000000001,2806.6399999999999,6143.4399999999996,-3126.9099999999999,950.58500000000004,-723.05499999999995
170145.0,8681.3299999999999,10144.700000000001,2811.6900000000001,6206.2799999999997,-3075.3200000000002,1209.1800000000001,-856.798
170146.0,8644.6000000000004,9951.2600000000002,2807.1700000000001,6286.0600000000004,-3009.5599999999999,1458.0,-981.90599999999995
170147.0,8609.5599999999995,9739.0100000000002,2814.4699999999998,6420.2600000000002,-2938.1799999999998,1690.3099999999999,-1106.3099999999999
170148.0,7194.21,8534.2099999999991,2351.3699999999999,4821.5500000000002,-2342.2199999999998,-1368.71,455.37
170149.0,7504.4899999999998,9309.9099999999999,2741.8400000000001,5260.6700000000001,-2529.8600000000001,-1126.3800000000001,351.37900000000002
170150.0,7751.5100000000002,9403.3199999999997,2533.6900000000001,5214.5200000000004,-2689.2199999999998,-870.66600000000005,226.327
170151.0,7941.9099999999999,9836.8500000000004,2752.02,5444.5900000000001,-2800.1900000000001,-618.47799999999995,107.751
170152.0,8094.9499999999998,9916.7099999999991,2666.6300000000001,5427.6700000000001,-2884.8299999999999,-360.81900000000002,-23.781400000000001
170153.0,8206.1599999999999,10152.0,2800.9499999999998,5565.8500000000004,-2937.6399999999999,-94.333200000000005,-150.12200000000001
170154.0,8286.0499999999993,10174.700000000001,2773.7199999999998,5573.9499999999998,-2968.3000000000002,174.119,-285.072
170155.0,8330.1200000000008,10230.299999999999,2840.0700000000002,5649.4899999999998,-2973.2800000000002,450.59199999999998,-414.03300000000002
170156.0,8344.6700000000001,10161.299999999999,2833.79,5673.4300000000003,-2955.8000000000002,724.86599999999999,-547.40300000000002
170157.0,8328.8299999999999,10077.9,2871.3800000000001,5737.4099999999999,-2915.5900000000001,1002.1,-673.64499999999998
170158.0,8291.1299999999992,9906.9099999999999,2870.6599999999999,5786.7399999999998,-2856.1199999999999,1271.53,-801.29399999999998
170159.0,8241.8999999999996,9691.2600000000002,2871.5,5861.75,-2784.6199999999999,1534.04,-921.75099999999998
170160.0,8199.6900000000005,9435.9099999999999,2858.4299999999998,5974.1000000000004,-2710.0799999999999,1776.5599999999999,-1041.7
170161.0,6893.6700000000001,8585.1800000000003,2707.0599999999999,4679.9200000000001,-2134.4699999999998,-1451.4100000000001,478.62299999999999
170162.0,7200.2200000000003,8878.2600000000002,2570.2600000000002,4702.4799999999996,-2350.6100000000001,-1152.1400000000001,364.06299999999999
170163.0,7431.3199999999997,9333.1900000000005,2729.9499999999998,4945.3699999999999,-2492.48,-914.58799999999997,255.41499999999999
170164.0,7613.4899999999998,9525.3799999999992,2695.1199999999999,4965.2799999999997,-2607.1199999999999,-638.59900000000005,129.45699999999999
170165.0,7744.6000000000004,9774.1399999999994,2793.3600000000001,5081.46,-2680.5799999999999,-377.62,11.347099999999999
170166.0,7839.5799999999999,9848.2299999999996,2779.9699999999998,5078.4799999999996,-2732.04,-96.490399999999994,-118.006
170167.0,7896.04,9944.0799999999999,2845.9899999999998,5144.7700000000004,-2752.0100000000002,182.346,-242.59800000000001
170168.0,7920.5100000000002,9915.4599999999991,2848.29,5150.8999999999996,-2749.71,471.12299999999999,-370.58100000000002
170169.0,7912.5699999999997,9874.8700000000008,2895.27,5202.7700000000004,-2721.25,758.15200000000004,-494.90600000000001
170170.0,7877.7299999999996,9713.8600000000006,2881.5900000000001,5205.79,-2672.46,1046.5999999999999,-617.58799999999997
170171.0,7821.8500000000004,9545.3400000000001,2911.21,5267.8299999999999,-2603.1199999999999,1328.3599999999999,-736.64200000000005
170172.0,7758.8900000000003,9281.2199999999993,2888.9099999999999,5313.5299999999997,-2522.6500000000001,1601.47,-851.15099999999995
170173.0,7707.7799999999997,9040.4099999999999,2912.4000000000001,5457.2799999999997,-2440.3099999999999,1855.5699999999999,-962.85199999999998
170174.0,6561.54,8306.8899999999994,2778.5999999999999,4216.1300000000001,-1915.29,-1485.8599999999999,498.03100000000001
170175.0,6853.3199999999997,8573.8099999999995,2597.1199999999999,4277.1499999999996,-2136.4000000000001,-1201.3800000000001,384.34800000000001
170176.0,7066.2200000000003,9065.2299999999996,2792.27,4503.0100000000002,-2272.8200000000002,-940.52999999999997,280.11599999999999
170177.0,7229.6099999999997,9211.5900000000001,2717.6799999999998,4496.5600000000004,-2385.8299999999999,-666.01599999999996,159.785
170178.0,7336.6099999999997,9474.5200000000004,2843.7199999999998,4606.0100000000002,-2448.04,-388.59199999999998,45.912599999999998
170179.0,7409.79,9534.6700000000001,2825.23,4593.7200000000003,-2488.4899999999998,-101.389,-77.124600000000001
170180.0,7440.54,9625.7099999999991,2910.1700000000001,4651.0600000000004,-2496.5500000000002,192.11799999999999,-195.31
170181.0,7441.6199999999999,9556.5300000000007,2894.1599999999999,4624.29,-2483.5700000000002,489.48899999999998,-316.68000000000001
170182.0,7409.5200000000004,9493.9899999999998,2949.9000000000001,4661.1499999999996,-2443.5999999999999,789.40599999999995,-433.27300000000002
170183.0,7353.2299999999996,9306.25,2938.6199999999999,4649.9799999999996,-2383.5999999999999,1087.1199999999999,-548.20600000000002
170184.0,7277.8199999999997,9108.2700000000004,2973.2800000000002,4698.0900000000001,-2303.7399999999998,1379.8599999999999,-658.69799999999998
170185.0,7200.3500000000004,8805.1800000000003,2945.0300000000002,4723.4799999999996,-2215.4499999999998,1661.3299999999999,-765.50400000000002
170186.0,7140.0,8514.5100000000002,2950.6799999999998,4838.7799999999997,-2127.9299999999998,1924.3199999999999,-869.90700000000004
170187.0,6201.3500000000004,7876.2200000000003,2754.23,3681.9899999999998,-1680.0,-1510.97,515.39499999999998
170188.0,6468.21,8254.0,2687.71,3813.79,-1888.27,-1245.8,408.80599999999998
170189.0,6662.1700000000001,8667.4899999999998,2797.4000000000001,3974.8899999999999,-2031.0999999999999,-965.46299999999997,305.26999999999998
170190.0,6797.6999999999998,8880.5599999999995,2796.1199999999999,4011.6199999999999,-2126.48,-689.50999999999999,195.428
170191.0,6880.9799999999996,9069.8099999999995,2867.1700000000001,4055.6100000000001,-2185.8699999999999,-399.85500000000002,82.667699999999996
170192.0,6921.2399999999998,9122.1599999999999,2870.3200000000002,4032.29,-2213.3099999999999,-105.664,-30.086300000000001
170193.0,6926.2399999999998,9150.1299999999992,2920.0500000000002,4034.73,-2212.1500000000001,197.995,-144.30699999999999
170194.0,6898.5600000000004,9077.1700000000001,2931.8899999999999,4007.9099999999999,-2184.8499999999999,504.44600000000003,-255.66200000000001
170195.0,6842.9099999999999,8960.6800000000003,2967.2199999999998,4002.9400000000001,-2133.1500000000001,813.81799999999998,-365.50900000000001
170196.0,6764.3999999999996,8743.8799999999992,2963.0900000000001,3974.02,-2060.1199999999999,1120.3399999999999,-470.387
170197.0,6672.9799999999996,8494.6800000000003,2982.1999999999998,3987.5700000000002,-1969.0,1421.2,-572.22199999999998
170198.0,6583.7600000000002,8175.5600000000004,2971.0900000000001,4012.7199999999998,-1868.74,1710.8599999999999,-667.82100000000003
170199.0,6518.3599999999997,7865.5,2985.0,4127.2600000000002,-1771.8399999999999,1981.3299999999999,-762.56899999999996
170200.0,5827.1199999999999,7305.0299999999997,2670.7800000000002,3038.1900000000001,-1418.5899999999999,-1545.3199999999999,530.87199999999996
170201.0,6066.4399999999996,7903.5600000000004,2819.6399999999999,3333.1799999999998,-1614.99,-1278.73,436.82600000000002
170202.0,6227.3100000000004,8174.8199999999997,2783.2600000000002,3374.2600000000002,-1757.6900000000001,-991.03899999999999,333.01900000000001
170203.0,6330.0600000000004,8444.9699999999993,2865.9899999999998,3448.2600000000002,-1842.1900000000001,-709.34799999999996,233.48099999999999
170204.0,6382.6199999999999,8560.7199999999993,2876.9099999999999,3429.1500000000001,-1889.55,-411.46899999999999,125.039
170205.0,6394.5699999999997,8649.1800000000003,2941.9699999999998,3431.9899999999998,-1900.6700000000001,-108.892,22.489699999999999
170206.0,6369.9300000000003,8618.0100000000002,2961.9000000000001,3387.1199999999999,-1885.3299999999999,203.101,-84.652799999999999
170207.0,6315.54,8529.9699999999993,2996.6500000000001,3348.7800000000002,-1842.5699999999999,517.89200000000005,-185.31800000000001
170208.0,6237.2399999999998,8353.6200000000008,3009.8099999999999,3298.6999999999998,-1776.9400000000001,834.56500000000005,-285.85300000000001
170209.0,6141.1700000000001,8121.3299999999999,3032.0,3265.9000000000001,-1689.1099999999999,1148.54,-379.32400000000001
170210.0,6038.1700000000001,7814.8100000000004,3035.1399999999999,3241.0300000000002,-1585.3,1455.25,-470.18099999999998
170211.0,5944.1499999999996,7462.1000000000004,3033.73,3250.4000000000001,-1474.3399999999999,1750.3399999999999,-554.64300000000003
170212.0,5878.5799999999999,7075.71,3009.5599999999999,3310.3800000000001,-1370.04,2024.71,-639.62599999999998
170213.0,5474.2299999999996,6833.6199999999999,2770.4200000000001,2488.3299999999999,-1118.29,-1587.97,552.33500000000004
170214.0,5662.3900000000003,7355.3999999999996,2829.1700000000001,2693.6199999999999,-1321.5799999999999,-1299.25,461.93400000000003
170215.0,5783.3900000000003,7661.6499999999996,2838.8499999999999,2765.9899999999998,-1450.78,-1018.1900000000001,368.37900000000002
170216.0,5852.7799999999997,7907.04,2908.9000000000001,2811.3200000000002,-1526.04,-723.06100000000004,271.762
170217.0,5867.7200000000003,7991.3299999999999,2923.1599999999999,2764.5500000000002,-1558.1700000000001,-424.10899999999998,174.58099999999999
170218.0,5846.75,8014.29,2962.29,2710.4099999999999,-1556.6900000000001,-112.102,77.974000000000004
170219.0,5793.7200000000003,7942.9300000000003,2982.0599999999999,2632.3699999999999,-1524.77,203.453,-17.740300000000001
170220.0,5718.7600000000002,7805.2200000000003,3009.5799999999999,2555.3099999999999,-1466.8499999999999,526.03599999999994,-109.535
170221.0,5624.6599999999999,7591.4200000000001,3030.04,2480.29,-1384.53,847.04100000000005,-197.90700000000001
170222.0,5523.5600000000004,7295.6599999999999,3035.6900000000001,2399.5500000000002,-1281.8900000000001,1166.52,-280.36599999999999
170223.0,5424.6300000000001,6949.8999999999996,3044.52,2352.1999999999998,-1163.98,1476.7,-358.26299999999998
170224.0,5345.2399999999998,6556.0100000000002,3044.1999999999998,2337.46,-1039.5599999999999,1775.9200000000001,-429.60599999999999
170225.0,5297.5299999999997,6162.5900000000001,3048.3899999999999,2408.0799999999999,-924.08299999999997,2053.0599999999999,-501.52199999999999
170226.0,5185.5200000000004,6295.4700000000003,2883.04,1866.3599999999999,-796.39999999999998,-1615.9000000000001,579.01700000000005
170227.0,5288.2200000000003,6707.4300000000003,2820.4299999999998,1991.6800000000001,-998.83699999999999,-1321.1800000000001,489.48500000000001
170228.0,5368.25,7090.0299999999997,2925.02,2116.6799999999998,-1115.1700000000001,-1037.1500000000001,405.29399999999998
170229.0,5390.46,7217.6000000000004,2903.9699999999998,2061.8899999999999,-1179.6099999999999,-738.25999999999999,315.48700000000002
170230.0,5378.7299999999996,7333.96,2981.5700000000002,2039.76,-1194.8,-433.072,228.00800000000001
170231.0,5330.54,7298.4799999999996,2997.4000000000001,1939.0699999999999,-1175.1099999999999,-117.054,141.114
170232.0,5261.0200000000004,7211.71,3047.8099999999999,1851.4000000000001,-1124.24,204.75200000000001,56.7577
170233.0,5175.1499999999996,7012.1800000000003,3062.5799999999999,1728.5699999999999,-1047.25,530.005,-22.933800000000002
170234.0,5087.8100000000004,6752.0600000000004,3087.1100000000001,1619.04,-947.62900000000002,855.44200000000001,-98.314099999999996
170235.0,5004.75,6411.96,3099.4499999999998,1511.97,-827.92200000000003,1176.98,-167.28
170236.0,4939.3999999999996,6014.0100000000002,3107.9299999999998,1429.6900000000001,-694.31100000000004,1489.1400000000001,-230.94900000000001
170237.0,4903.9899999999998,5564.6199999999999,3103.3899999999999,1379.3699999999999,-557.23000000000002,1788.4200000000001,-288.221
170238.0,4901.0799999999999,5094.2700000000004,3076.3000000000002,1392.1199999999999,-431.59500000000003,2064.9499999999998,-347.56099999999998
170239.0,4982.8000000000002,5570.8000000000002,2883.6799999999998,1100.95,-448.72199999999998,-1627.1800000000001,603.30100000000004
170240.0,5005.3100000000004,6058.0200000000004,2902.3299999999999,1300.0699999999999,-645.17700000000002,-1342.3099999999999,521.87199999999996
170241.0,5027.8000000000002,6347.6899999999996,2929.4400000000001,1334.3699999999999,-752.07000000000005,-1050.1199999999999,444.44099999999997
170242.0,5012.1199999999999,6517.3699999999999,2981.1599999999999,1323.0799999999999,-799.28899999999999,-750.55999999999995,364.00799999999998
170243.0,4971.1800000000003,6535.6000000000004,3007.1300000000001,1215.21,-795.49300000000005,-441.48099999999999,286.17099999999999
170244.0,4910.5500000000002,6456.3000000000002,3030.5599999999999,1081.26,-757.57100000000003,-123.354,210.43700000000001
170245.0,4844.3900000000003,6296.5699999999997,3060.3699999999999,934.45600000000002,-687.58500000000004,200.26900000000001,137.96299999999999
170246.0,4782.7799999999997,6037.8100000000004,3068.5500000000002,764.29600000000005,-593.19299999999998,527.99099999999999,70.809399999999997
170247.0,4733.75,5728.8999999999996,3102.5,624.48699999999997,-473.673,854.06700000000001,8.9403500000000005
170248.0,4713.5799999999999,5312.1400000000003,3095.6399999999999,456.71199999999999,-336.61000000000001,1175.5699999999999,-44.994100000000003
170249.0,4726.6199999999999,4868.3900000000003,3113.6700000000001,348.30000000000001,-187.17500000000001,1486.6600000000001,-94.198300000000003
170250.0,4783.0500000000002,4365.6499999999996,3107.5700000000002,261.18599999999998,-35.175400000000003,1784.54,-134.71000000000001
170251.0,4862.2299999999996,3887.8800000000001,3118.02,284.71100000000001,103.508,2058.4099999999999,-179.244
170252.0,4942.8599999999997,4826.9499999999998,2956.4200000000001,352.19400000000002,-79.697000000000003,-1639.02,632.84500000000003
170253.0,4870.7700000000004,5250.1999999999998,2915.71,475.721,-265.31599999999997,-1352.4400000000001,555.69000000000005
170254.0,4834.2399999999998,5576.9200000000001,3006.5,557.94500000000005,-356.887,-1061.0999999999999,487.74299999999999
170255.0,4791.3299999999999,5636.8100000000004,2986.1599999999999,441.22300000000001,-388.81599999999997,-760.08299999999997,417.04399999999998
170256.0,4747.9300000000003,5652.4499999999998,3052.1700000000001,340.416,-368.16199999999998,-448.64299999999997,349.279
170257.0,4704.6099999999997,5516.3000000000002,3071.6999999999998,162.26499999999999,-307.67899999999997,-129.87200000000001,286.08100000000002
170258.0,4679.5799999999999,5309.4099999999999,3114.1999999999998,-16.382400000000001,-214.875,194.99199999999999,226.64400000000001
170259.0,4680.3299999999999,5004.21,3141.9499999999998,-213.126,-95.682299999999998,520.60400000000004,175.44900000000001
170260.0,4725.0699999999997,4615.96,3156.5100000000002,-418.315,42.745199999999997,845.471,128.75
170261.0,4815.0900000000001,4159.5900000000001,3172.5500000000002,-604.68899999999996,198.625,1165.04,90.7012
170262.0,4953.4200000000001,3646.1700000000001,3181.8899999999999,-764.95100000000002,366.23700000000002,1471.76,58.199100000000001
170263.0,5136.1300000000001,3085.48,3177.52,-890.06200000000001,532.26099999999997,1765.1199999999999,34.848300000000002
170264.0,5322.3100000000004,2518.1399999999999,3149.79,-939.34199999999998,682.72400000000005,2032.3699999999999,4.6111700000000004
170265.0,5122.1199999999999,3942.6500000000001,2973.5,-520.78200000000004,322.04899999999998,-1641.52,659.66800000000001
170266.0,4952.4799999999996,4418.9700000000003,2998.6799999999998,-335.82299999999998,144.23500000000001,-1358.03,594.36400000000003
170267.0,4875.4399999999996,4636.2399999999998,3004.9000000000001,-361.25700000000001,62.851300000000002,-1067.3399999999999,534.42200000000003
170268.0,4820.75,4723.3299999999999,3062.7399999999998,-435.41000000000003,54.290500000000002,-764.72199999999998,473.55200000000002
170269.0,4804.4099999999999,4643.54,3095.9899999999998,-613.51199999999994,102.16500000000001,-456.78800000000001,419.96100000000001
170270.0,4819.4099999999999,4435.0100000000002,3106.3400000000001,-848.29100000000005,183.31899999999999,-138.63900000000001,369.41300000000001
170271.0,4881.0,4163.9899999999998,3148.6300000000001,-1073.5799999999999,296.50799999999998,181.83600000000001,324.649
170272.0,4995.54,3747.5700000000002,3124.9099999999999,-1368.9000000000001,431.24299999999999,507.00599999999997,286.47899999999998
170273.0,5166.7799999999997,3330.02,3182.8299999999999,-1578.51,592.74000000000001,827.37699999999995,255.02099999999999
170274.0,5401.96,2767.3000000000002,3160.6300000000001,-1854.8599999999999,768.73500000000001,1140.8900000000001,235.369
170275.0,5680.21,2209.6900000000001,3190.1799999999998,-2037.4400000000001,952.38999999999999,1441.8,218.78800000000001
170276.0,5998.1599999999999,1580.5599999999999,3178.8899999999999,-2214.6300000000001,1134.9300000000001,1727.3699999999999,214.58799999999999
170277.0,6293.1899999999996,1005.45,3198.2199999999998,-2253.6700000000001,1300.25,1986.1199999999999,201.45099999999999
170278.0,5542.6800000000003,3033.54,3060.1199999999999,-1383.02,737.673,-1635.21,693.54600000000005
170279.0,5297.8999999999996,3403.5799999999999,2996.9299999999998,-1297.0999999999999,578.27499999999998,-1354.74,634.65300000000002
170280.0,5201.79,3682.21,3112.27,-1244.8199999999999,521.81500000000005,-1068.29,584.71900000000005
170281.0,5174.25,3629.4499999999998,3069.4299999999998,-1451.6800000000001,527.35900000000004,-770.87,538.44799999999998
170282.0,5217.75,3509.3400000000001,3113.8800000000001,-1658.9000000000001,586.97199999999998,-461.65699999999998,492.83600000000001
170283.0,5324.04,3257.6500000000001,3150.0,-1914.3399999999999,694.779,-148.66200000000001,457.029
170284.0,5507.4700000000003,2887.9699999999998,3170.3699999999999,-2218.73,836.226,169.202,427.50799999999998
170285.0,5759.2600000000002,2484.23,3246.4000000000001,-2472.5999999999999,1005.35,484.35899999999998,409.89999999999998
170286.0,6077.5,1922.9300000000001,3227.8899999999999,-2814.8800000000001,1185.6300000000001,798.73199999999997,396.88200000000001
170287.0,6448.4700000000003,1345.9200000000001,3264.1300000000001,-3077.98,1379.9300000000001,1106.1800000000001,392.79199999999997
170288.0,6864.8500000000004,690.24699999999996,3267.4299999999998,-3341.7199999999998,1584.04,1394.9000000000001,396.47699999999998
170289.0,7303.0299999999997,15.111700000000001,3275.8000000000002,-3546.4400000000001,1780.8199999999999,1671.8,410.63299999999998
170290.0,7693.1499999999996,-676.428,3236.6599999999999,-3685.5,1957.5599999999999,1917.9000000000001,413.05000000000001
170291.0,6191.5200000000004,1941.97,3034.9099999999999,-2394.5999999999999,1192.3399999999999,-1609.53,720.68799999999999
170292.0,5932.8500000000004,2420.2199999999998,3121.46,-2193.9400000000001,1048.5,-1352.1600000000001,682.58299999999997
170293.0,5821.3999999999996,2492.8000000000002,3049.21,-2340.2399999999998,987.39499999999998,-1063.0899999999999,636.76999999999998
170294.0,5859.9399999999996,2496.4499999999998,3157.8000000000002,-2458.3499999999999,1033.0,-768.98199999999997,605.346
170295.0,6005.6899999999996,2300.1300000000001,3218.3600000000001,-2708.8499999999999,1134.97,-474.11399999999998,576.47299999999996
170296.0,6232.8599999999997,1924.6800000000001,3200.5599999999999,-3075.0500000000002,1267.3699999999999,-166.21299999999999,560.61400000000003
170297.0,6537.1300000000001,1534.25,3268.0599999999999,-3382.46,1422.72,141.02699999999999,546.88900000000001
170298.0,6911.46,906.54499999999996,3177.6100000000001,-3854.7600000000002,1595.1300000000001,457.29199999999997,537.44899999999996
170299.0,7353.7399999999998,375.34899999999999,3280.8699999999999,-4122.6199999999999,1800.3599999999999,761.71100000000001,538.61800000000005
170300.0,7867.2600000000002,-347.04399999999998,3248.7800000000002,-4524.0299999999997,2019.6700000000001,1052.8599999999999,558.02999999999997
170301.0,8392.0499999999993,-1045.29,3274.6500000000001,-4806.9200000000001,2236.6500000000001,1335.8199999999999,578.41200000000003
170302.0,8938.8799999999992,-1797.1199999999999,3278.2399999999998,-5071.3100000000004,2451.5999999999999,1597.1199999999999,611.80999999999995
170303.0,9421.5300000000007,-2498.3899999999999,3293.1399999999999,-5202.6000000000004,2645.2399999999998,1830.4100000000001,634.005
170304.0,7030.6700000000001,788.54499999999996,3012.6599999999999,-3424.0500000000002,1639.0,-1588.99,760.44100000000003
170305.0,6808.3199999999997,1208.0699999999999,3099.52,-3297.7399999999998,1530.76,-1333.48,727.22000000000003
170306.0,6737.6199999999999,1339.97,3182.4499999999998,-3314.4099999999999,1524.23,-1055.8,694.74099999999999
170307.0,6864.4799999999996,1187.6400000000001,3166.0599999999999,-3611.6799999999998,1573.95,-778.51599999999996,689.99199999999996
170308.0,7060.7700000000004,835.13800000000003,3106.9899999999998,-4005.54,1661.6500000000001,-477.93099999999998,657.05700000000002
170309.0,7406.8599999999997,484.29000000000002,3205.6700000000001,-4318.3100000000004,1819.03,-181.21299999999999,657.23800000000006
170310.0,7859.3400000000001,-102.188,3195.2600000000002,-4785.2399999999998,2014.3599999999999,124.476,659.17499999999995
170311.0,8399.8600000000006,-547.84900000000005,3422.9200000000001,-5021.0600000000004,2246.2399999999998,409.57600000000002,677.98299999999995
170312.0,8973.2700000000004,-1338.75,3316.5900000000001,-5566.5799999999999,2470.3299999999999,703.16899999999998,707.10699999999997
170313.0,9580.0900000000001,-2040.8,3380.7600000000002,-5903.8999999999996,2703.2600000000002,993.846,737.41200000000003
170314.0,10226.700000000001,-2845.75,3391.4299999999998,-6277.7600000000002,2943.0900000000001,1247.3199999999999,784.447
170315.0,10870.299999999999,-3637.73,3419.1199999999999,-6577.3299999999999,3168.6599999999999,1502.8399999999999,832.91499999999996
170316.0,11421.4,-4482.4300000000003,3353.71,-6820.6099999999997,3371.9699999999998,1720.0899999999999,869.197
170317.0,8064.71,-419.09899999999999,3014.5,-4488.9799999999996,2131.1399999999999,-1552.2,787.05399999999997
170318.0,7882.5900000000001,40.674799999999998,3211.4499999999998,-4286.5699999999997,2038.98,-1327.29,791.26900000000001
170319.0,7822.7299999999996,-178.10499999999999,2963.6399999999999,-4678.8900000000003,1989.76,-1055.6800000000001,754.17600000000004
170320.0,8078.6199999999999,-266.99700000000001,3172.46,-4825.8100000000004,2120.9299999999998,-775.34900000000005,746.80100000000004
170321.0,8504.4599999999991,-547.61199999999997,3349.21,-5105.4799999999996,2312.5500000000002,-512.91399999999999,768.62800000000004
170322.0,8993.3700000000008,-1149.73,3318.25,-5638.8299999999999,2496.02,-218.756,790.50800000000004
170323.0,9534.0900000000001,-1605.3699999999999,3474.52,-5972.8400000000001,2699.1799999999998,53.365000000000002,809.76700000000005
170324.0,10126.0,-2556.98,3165.0799999999999,-6775.0500000000002,2909.3000000000002,370.26600000000002,829.09699999999998
170325.0,10791.299999999999,-3183.8400000000001,3379.8099999999999,-7019.6400000000003,3159.5999999999999,655.72199999999998,864.18700000000001
170326.0,11551.6,-4057.8499999999999,3382.4099999999999,-7547.8199999999997,3414.8499999999999,880.89400000000001,935.13099999999997
170327.0,12270.6,-4910.6000000000004,3369.3099999999999,-8003.0500000000002,3648.0799999999999,1155.71,984.70000000000005
170328.0,12985.1,-5776.8500000000004,3408.0700000000002,-8302.5499999999993,3894.1700000000001,1402.04,1045.8800000000001
170329.0,13627.6,-6615.3999999999996,3419.46,-8530.3600000000006,4118.5100000000002,1587.26,1108.3399999999999
170330.0,9129.1700000000001,-1684.6600000000001,2992.6999999999998,-5541.6499999999996,2541.9000000000001,-1535.01,835.58399999999995
170331.0,9129.0300000000007,-1503.3199999999999,3101.23,-5595.3000000000002,2543.7399999999998,-1305.6600000000001,821.61300000000006
170332.0,9333.5799999999999,-1390.3,3444.21,-5501.8400000000001,2667.8299999999999,-1083.9000000000001,833.625
170333.0,9656.1499999999996,-1858.25,3260.6500000000001,-6122.6400000000003,2745.4400000000001,-845.60199999999998,869.19100000000003
170334.0,10001.299999999999,-2524.3699999999999,2977.1799999999998,-6844.0600000000004,2843.04,-545.67700000000002,855.077
170335.0,10569.799999999999,-2937.9499999999998,3102.6900000000001,-7208.2600000000002,3096.1700000000001,-225.12100000000001,873.61500000000001
170336.0,11331.9,-3863.6399999999999,3047.0100000000002,-7870.5799999999999,3377.7600000000002,77.962100000000007,942.28999999999996
170337.0,12239.700000000001,-4215.8999999999996,3850.2600000000002,-7799.8299999999999,3650.9499999999998,256.10500000000002,967.61300000000006
170338.0,13031.200000000001,-5268.1700000000001,3564.2800000000002,-8664.0900000000001,3928.0100000000002,443.24900000000002,1064.1500000000001
170339.0,13803.0,-6092.6700000000001,3479.3600000000001,-9279.4500000000007,4176.8500000000004,774.303,1169.3800000000001
170340.0,14596.299999999999,-6947.5699999999997,3619.8000000000002,-9566.1599999999999,4440.54,1054.45,1205.98
170341.0,15383.9,-7911.0299999999997,3618.1399999999999,-9963.6299999999992,4694.1800000000003,1246.46,1303.6900000000001
170342.0,16078.5,-8883.3099999999995,3537.6100000000001,-10322.799999999999,4916.6800000000003,1437.9100000000001,1361.6600000000001
170343.0,10285.9,-2836.3699999999999,3160.8600000000001,-6309.7600000000002,3070.6100000000001,-1472.74,845.59400000000005
170344.0,10539.9,-2639.8899999999999,3479.3299999999999,-6387.1000000000004,3070.1900000000001,-1410.0899999999999,899.94299999999998
170345.0,10688.700000000001,-3512.0900000000001,2661.71,-7534.7399999999998,3103.52,-1130.96,891.15099999999995
170346.0,11351.5,-3731.7399999999998,3235.9000000000001,-7583.1999999999998,3379.54,-784.35199999999998,918.40700000000004
170347.0,12204.5,-4016.5599999999999,3882.1100000000001,-7596.6000000000004,3709.1199999999999,-701.83000000000004,951.48000000000002
170348.0,13170.4,-4863.0,4176.6499999999996,-8378.5599999999995,3788.75,-431.08499999999998,1152.24
170349.0,13963.0,-5419.4099999999999,4374.6899999999996,-8848.6499999999996,4136.6700000000001,-156.49000000000001,872.78300000000002
170350.0,14204.0,-7069.5,2546.27,-10310.9,4603.4300000000003,101.745,1156.1700000000001
170351.0,15223.799999999999,-7621.9200000000001,2998.8699999999999,-10794.4,4735.5799999999999,464.90199999999999,1557.6300000000001
170352.0,16274.4,-8348.0499999999993,3695.1900000000001,-11073.799999999999,4940.9899999999998,682.59299999999996,1280.7
170353.0,16978.200000000001,-9504.3999999999996,3444.5999999999999,-11570.299999999999,5194.1199999999999,906.93200000000002,1432.99
170354.0,17884.5,-10444.299999999999,3529.8600000000001,-12016.5,5460.6400000000003,1118.1800000000001,1519.9100000000001
170355.0,18633.799999999999,-11341.4,3600.8899999999999,-12194.6,5710.9700000000003,1276.52,1605.96
170356.0,21531.700000000001,-14005.799999999999,3726.5100000000002,-14218.1,6611.4300000000003,1082.3,1890.3399999999999
170357.0,24424.299999999999,-16781.200000000001,3822.1199999999999,-16264.5,7448.2200000000003,922.18100000000004,2117.2199999999998
170358.0,28039.599999999999,-19907.5,4129.9200000000001,-18483.900000000001,8581.8299999999999,722.20100000000002,2456.6300000000001
170359.0,31303.299999999999,-23561.0,3782.25,-21201.799999999999,9474.75,588.02099999999996,2635.2399999999998
170360.0,36486.900000000001,-27209.700000000001,4778.8100000000004,-23707.700000000001,11206.6,406.00999999999999,3190.1100000000001
170361.0,40346.400000000001,-32579.700000000001,3278.0599999999999,-28485.200000000001,12078.9,259.91500000000002,3376.9000000000001
170362.0,49445.900000000001,-36885.400000000001,5868.3599999999997,-32783.599999999999,15374.4,-1170.6300000000001,4558.0699999999997
170363.0,57549.199999999997,-51102.0,-5559.3999999999996,-45309.099999999999,21124.5,888.37800000000004,6505.2299999999996
170364.0,103272.0,-72441.300000000003,21216.5,-54441.300000000003,30469.700000000001,-9848.5599999999995,7725.1700000000001
170365.0,136412.0,-147854.0,-168369.0,-191812.0,68935.5,4674.1800000000003,30740.900000000001
170366.0,139118.0,-330112.0,-472408.0,-424690.0,-2315.54,26574.799999999999,22240.5
170367.0,112854.0,-386574.0,-410122.0,-406540.0,-62133.599999999999,13795.799999999999,5785.9399999999996
170368.0,55767.800000000003,-296359.0,-242064.0,-262797.0,-15039.0,4164.3900000000003,6516.5900000000001
170369.0,20795.099999999999,-12652.4,4105.8299999999999,-13618.4,6377.3800000000001,936.495,1810.55
170370.0,23515.799999999999,-16015.4,3483.8699999999999,-16293.200000000001,7146.8599999999997,822.22400000000005,2001.4100000000001
170371.0,27216.700000000001,-18189.599999999999,4742.4700000000003,-17713.0,8316.3099999999995,542.82500000000005,2394.8400000000001
170372.0,30144.799999999999,-22806.200000000001,3216.5999999999999,-21441.799999999999,9050.0499999999993,547.577,2487.0700000000002
170373.0,35493.400000000001,-24708.599999999999,5990.6300000000001,-22299.599999999999,10887.799999999999,-19.125499999999999,3154.5799999999999
170374.0,38546.400000000001,-32677.700000000001,1340.22,-29173.599999999999,11615.200000000001,54.7926,3203.4200000000001
170375.0,49377.0,-33608.800000000003,10341.4,-27665.099999999999,14747.299999999999,-2431.52,4552.4200000000001
170376.0,53500.199999999997,-51603.199999999997,-14806.299999999999,-50957.900000000001,21115.799999999999,125.59,8039.6899999999996
170377.0,112074.0,-60438.199999999997,47194.0,-42045.699999999997,24921.5,-14350.1,6739.3900000000003
170378.0,156909.0,-138085.0,-148128.0,-163060.0,81450.0,2667.0,37518.300000000003
170379.0,185087.0,-417592.0,-611902.0,-486741.0,7243.4899999999998,35221.5,20626.5
170380.0,158340.0,-497611.0,-557312.0,-490493.0,-81085.0,11849.799999999999,-17186.700000000001
170381.0,66167.800000000003,-324308.0,-269076.0,-278796.0,-21517.599999999999,-9389.1399999999994,-6231.7700000000004
170382.0,19842.099999999999,-11903.200000000001,3759.3600000000001,-13445.0,6096.1899999999996,692.45899999999995,1726.1600000000001
170383.0,22572.400000000001,-14692.700000000001,3650.5500000000002,-15734.700000000001,6856.6499999999996,596.11699999999996,1891.0899999999999
170384.0,26194.900000000001,-17333.900000000001,4425.1000000000004,-17533.099999999999,8023.9099999999999,346.721,2223.5
170385.0,29080.799999999999,-21411.5,3269.1300000000001,-21006.200000000001,8740.0900000000001,266.40100000000001,2381.5799999999999
170386.0,34316.300000000003,-23726.700000000001,5777.8100000000004,-21922.400000000001,10520.9,-181.11500000000001,2881.1999999999998
170387.0,37315.699999999997,-30688.400000000001,1891.5,-28257.700000000001,11219.200000000001,-240.75700000000001,2972.6100000000001
170388.0,47382.900000000001,-33721.5,8884.3999999999996,-26214.599999999999,14546.4,-1652.4100000000001,4097.9899999999998
170389.0,53642.800000000003,-49547.599999999999,-10591.5,-47142.400000000001,20584.099999999999,-3270.9200000000001,6944.3800000000001
170390.0,108884.0,-68607.399999999994,31203.900000000001,-44548.099999999999,27080.5,-15739.200000000001,16048.9
170391.0,157166.0,-178343.0,-207612.0,-185269.0,77588.600000000006,14493.200000000001,42067.599999999999
170392.0,184958.0,-447112.0,-635311.0,-496161.0,573.61500000000001,42330.199999999997,-8934.7399999999998
170393.0,158934.0,-469386.0,-509750.0,-464981.0,-71856.399999999994,1331.1700000000001,-51439.699999999997
170394.0,70613.800000000003,-286769.0,-231555.0,-261537.0,-9666.2800000000007,-21880.200000000001,-18052.299999999999
170395.0,19033.5,-10582.799999999999,4113.3400000000001,-12692.1,5870.2700000000004,489.44999999999999,1499.9300000000001
170396.0,21786.400000000001,-13756.299999999999,3578.2600000000002,-15371.200000000001,6664.5699999999997,297.24200000000002,1829.73
170397.0,25102.099999999999,-16197.5,4332.25,-17134.0,7653.4499999999998,123.14400000000001,2063.4299999999998
170398.0,28438.900000000001,-19776.400000000001,3952.5999999999999,-20091.0,8600.4899999999998,-60.238500000000002,2325.5599999999999
170399.0,32624.5,-23231.0,4503.25,-22304.599999999999,9975.7099999999991,-226.59299999999999,2665.0599999999999
170400.0,37077.300000000003,-28206.799999999999,4186.3599999999997,-26179.299999999999,10972.6,-791.76199999999994,2822.75
170401.0,43388.599999999999,-33725.900000000001,3674.3200000000002,-28760.599999999999,14205.200000000001,-137.935,3625.0
170402.0,57320.300000000003,-45304.900000000001,5199.6599999999999,-35158.300000000003,18419.5,-4962.6999999999998,4190.71
170403.0,94655.100000000006,-85254.0,-14401.1,-51382.699999999997,37288.099999999999,-9283.5,15940.5
170404.0,133317.0,-243936.0,-307911.0,-238783.0,58966.5,21066.799999999999,22818.0
170405.0,144806.0,-413201.0,-548718.0,-446538.0,-16797.0,31898.799999999999,-26527.5
170406.0,113715.0,-345809.0,-343308.0,-359392.0,-48362.800000000003,-3363.5700000000002,-43419.0
170407.0,73163.600000000006,-213554.0,-154743.0,-217675.0,2437.6599999999999,-18481.5,-14050.700000000001
170408.0,17534.200000000001,-10448.1,3017.5,-12713.5,5237.3199999999997,433.56799999999998,1595.3800000000001
170409.0,20893.400000000001,-12606.4,4109.3500000000004,-14083.9,6379.3299999999999,-76.577299999999994,1646.55
170410.0,23977.0,-15712.299999999999,3410.6799999999998,-17097.599999999999,7459.3999999999996,-327.29399999999998,2125.0999999999999
170411.0,27499.400000000001,-18460.099999999999,4178.5299999999997,-19363.0,8285.3299999999999,-533.73400000000004,2284.5500000000002
170412.0,31520.900000000001,-22105.799999999999,4026.0999999999999,-22622.5,9620.6499999999996,-543.89400000000001,2474.1700000000001
170413.0,36365.400000000001,-26094.200000000001,5571.2299999999996,-24506.900000000001,10717.1,-756.39099999999996,2658.29
170414.0,40742.199999999997,-33028.0,898.31500000000005,-31054.599999999999,13419.200000000001,-224.48099999999999,3246.1100000000001
170415.0,56370.400000000001,-42473.300000000003,10703.200000000001,-28627.099999999999,16811.400000000001,-2261.3400000000001,3227.0799999999999
170416.0,84001.600000000006,-82937.300000000003,-24256.599999999999,-55498.400000000001,38537.900000000001,-237.15299999999999,2191.9200000000001
170417.0,100266.0,-193599.0,-238602.0,-210570.0,48603.800000000003,17659.299999999999,-12664.0
170418.0,101332.0,-291751.0,-369540.0,-341242.0,-8403.0400000000009,17477.700000000001,-38683.199999999997
170419.0,78508.399999999994,-254340.0,-235297.0,-279481.0,-26663.099999999999,-4330.75,-28874.0
170420.0,66525.800000000003,-168112.0,-112319.0,-179276.0,4037.1900000000001,-11304.5,-6660.1499999999996
170421.0,15908.200000000001,-10254.5,1362.48,-13017.700000000001,4958.8199999999997,95.253299999999996,1236.1199999999999
170422.0,19653.900000000001,-11745.1,4387.0699999999997,-13136.0,5692.9399999999996,-325.77199999999999,1170.45
170423.0,24293.700000000001,-13225.200000000001,6032.3999999999996,-14626.9,7717.1300000000001,-1109.8,1634.55
170424.0,26748.299999999999,-17268.900000000001,3358.4099999999999,-19318.200000000001,8595.4799999999996,-1005.21,2505.4699999999998
170425.0,30079.400000000001,-21365.900000000001,3183.3400000000001,-22745.099999999999,8897.3500000000004,-896.16800000000001,2969.02
170426.0,35079.099999999999,-26610.599999999999,3439.9899999999998,-26417.799999999999,10158.4,-762.875,2704.23
170427.0,40990.800000000003,-28951.700000000001,5584.5,-28214.299999999999,12689.0,-1084.1600000000001,2935.71
170428.0,49834.699999999997,-41881.0,2117.4200000000001,-34852.599999999999,16144.5,1496.75,2505.0900000000001
170429.0,74480.100000000006,-58865.800000000003,4144.6499999999996,-44816.0,27063.0,4738.0500000000002,-311.38
170430.0,79970.5,-107619.0,-106024.0,-136197.0,40458.599999999999,14368.9,342.048
170431.0,67397.300000000003,-186676.0,-225764.0,-251420.0,3432.5300000000002,16247.4,-13243.700000000001
170432.0,75444.0,-177276.0,-150012.0,-218953.0,-15309.9,684.14099999999996,-21374.400000000001
170433.0,71599.5,-127445.0,-71593.100000000006,-146655.0,7839.54,-4370.7200000000003,-10383.4
170434.0,15617.700000000001,-7881.7399999999998,2516.0100000000002,-11419.799999999999,5234.3999999999996,-32.397399999999998,1196.3599999999999
170435.0,18183.400000000001,-11329.5,3553.46,-13312.9,4917.96,-423.52800000000002,927.58600000000001
170436.0,25040.299999999999,-10057.299999999999,10791.700000000001,-10533.4,7457.6400000000003,-1627.5599999999999,1569.1600000000001
170437.0,26317.0,-15942.299999999999,2209.0999999999999,-18242.5,9658.6800000000003,-1263.7,3235.5999999999999
170438.0,25970.799999999999,-25297.700000000001,-4174.3000000000002,-25973.299999999999,7786.2700000000004,-1112.3299999999999,3053.3200000000002
170439.0,33248.599999999999,-28336.0,333.416,-27673.299999999999,9190.9400000000005,-2112.3200000000002,3429.8200000000002
170440.0,41120.699999999997,-29493.5,4622.2399999999998,-29830.299999999999,12230.0,-2119.5599999999999,4212.1300000000001
170441.0,46273.300000000003,-35775.699999999997,315.976,-40176.400000000001,14305.799999999999,865.08299999999997,3838.5700000000002
170442.0,63473.400000000001,-45318.699999999997,10404.700000000001,-42617.300000000003,18313.900000000001,3970.1100000000001,2123.0300000000002
170443.0,70695.300000000003,-79460.100000000006,-52104.400000000001,-94272.199999999997,34107.699999999997,5679.5699999999997,3564.4499999999998
170444.0,57737.800000000003,-155221.0,-189557.0,-209050.0,15144.5,11137.1,3884.6300000000001
170445.0,60427.300000000003,-168362.0,-162071.0,-211391.0,-19483.799999999999,9845.9500000000007,4472.3500000000004
170446.0,70880.5,-118945.0,-57081.099999999999,-133097.0,-2396.3600000000001,5227.5699999999997,2706.21
170447.0,14586.299999999999,-6956.9399999999996,2545.3699999999999,-10553.1,4822.5799999999999,-54.216099999999997,1364.23
170448.0,17614.900000000001,-9523.3099999999995,4754.3599999999997,-11838.9,4637.3999999999996,-836.46199999999999,681.91099999999994
170449.0,24664.5,-8410.8600000000006,12121.5,-8965.7999999999993,7248.1700000000001,-1909.6900000000001,1473.4300000000001
170450.0,26870.700000000001,-13032.700000000001,5368.7600000000002,-15222.299999999999,10214.6,-1576.53,2440.0100000000002
170451.0,23593.900000000001,-25689.900000000001,-8091.0900000000001,-27395.400000000001,8262.2399999999998,-841.96699999999998,1539.6400000000001
170452.0,32615.0,-29218.799999999999,173.37100000000001,-26546.400000000001,8617.4200000000001,-3571.48,1843.75
170453.0,41014.0,-33161.300000000003,-2031.6700000000001,-33044.900000000001,13747.299999999999,-4324.8699999999999,5586.5100000000002
170454.0,46344.300000000003,-39724.800000000003,-7144.4700000000003,-47747.699999999997,13146.299999999999,-4311.5600000000004,7880.8000000000002
170455.0,59735.699999999997,-45395.699999999997,-2598.96,-60150.5,15732.299999999999,559.745,6932.5200000000004
170456.0,85893.199999999997,-50068.699999999997,10907.299999999999,-71154.800000000003,25337.099999999999,767.94100000000003,710.56899999999996
170457.0,84139.800000000003,-106081.0,-119261.0,-165746.0,36467.699999999997,6560.54,2118.1799999999998
170458.0,61982.400000000001,-197220.0,-232152.0,-258190.0,-12930.0,13035.1,-2755.4699999999998
170459.0,79534.5,-149348.0,-83539.300000000003,-156065.0,-20623.5,7380.4799999999996,-4775.1700000000001
170460.0,13626.9,-7011.4099999999999,1756.4200000000001,-10989.200000000001,4241.1099999999997,-600.86099999999999,1012.58
170461.0,17194.599999999999,-7071.7200000000003,6760.5699999999997,-9361.6000000000004,4546.29,-906.94899999999996,988.303
170462.0,22143.200000000001,-9095.1499999999996,9208.8400000000001,-9057.2299999999996,6783.7399999999998,-1333.6600000000001,2048.0599999999999
170463.0,26047.0,-13626.799999999999,6245.7700000000004,-13250.299999999999,9151.6000000000004,-1964.4000000000001,3057.0799999999999
170464.0,23543.0,-23390.700000000001,-8147.9300000000003,-26590.900000000001,8859.1399999999994,-865.27099999999996,2898.96
170465.0,31403.5,-27773.400000000001,1905.1900000000001,-24658.5,7339.8100000000004,-2604.8299999999999,1429.6600000000001
170466.0,42576.900000000001,-34227.599999999999,-1279.9200000000001,-29227.900000000001,15445.299999999999,-5425.7200000000003,4582.04
170467.0,43906.699999999997,-57030.699999999997,-32113.400000000001,-55214.199999999997,16481.700000000001,-6896.0799999999999,11420.5
170468.0,54170.199999999997,-83064.300000000003,-60030.300000000003,-93327.800000000003,13312.200000000001,-7152.6599999999999,21424.0
170469.0,99566.199999999997,-82043.100000000006,-13664.6,-103236.0,16353.6,-9897.3199999999997,27345.900000000001
170470.0,124671.0,-98908.800000000003,-99071.300000000003,-174455.0,42593.300000000003,11233.9,36636.199999999997
170471.0,100597.0,-213321.0,-263126.0,-301787.0,-11621.1,31865.700000000001,15997.700000000001
170472.0,99365.899999999994,-195117.0,-123652.0,-201758.0,-33456.900000000001,17144.599999999999,1598.4000000000001
170473.0,13654.6,-5249.5100000000002,3881.6999999999998,-8880.5900000000001,4029.3200000000002,-1219.53,1089.1500000000001
170474.0,15120.5,-7975.0,2657.02,-10983.9,4641.0799999999999,-845.44299999999998,1610.52
170475.0,18831.099999999999,-9921.0,6764.5900000000001,-9373.4699999999993,5185.2799999999997,-1050.73,596.029
170476.0,25341.900000000001,-12196.299999999999,8556.0799999999999,-8790.9799999999996,9135.7900000000009,-2530.1599999999999,585.89200000000005
170477.0,22469.700000000001,-24007.900000000001,-11859.9,-24807.099999999999,10026.5,-2262.48,3163.4000000000001
170478.0,22822.799999999999,-34812.199999999997,-12907.799999999999,-30928.599999999999,5213.0699999999997,-1902.5,2495.1799999999998
170479.0,43467.400000000001,-32793.199999999997,7173.0100000000002,-21527.599999999999,12925.200000000001,-5848.5699999999997,1970.49
170480.0,45276.099999999999,-58942.0,-41635.400000000001,-50538.300000000003,23617.799999999999,-4730.1999999999998,5313.4200000000001
170481.0,40820.199999999997,-122673.0,-106451.0,-107593.0,14491.299999999999,-14386.6,7515.4499999999998
170482.0,96183.600000000006,-170920.0,-143556.0,-153315.0,27663.200000000001,-24530.099999999999,39044.300000000003
170483.0,176975.0,-293969.0,-394846.0,-327268.0,30348.200000000001,12857.4,81925.199999999997
170484.0,173986.0,-422823.0,-531973.0,-448064.0,-50642.300000000003,39595.199999999997,51890.599999999999
170485.0,109982.0,-317717.0,-268715.0,-280263.0,-52130.199999999997,18313.700000000001,17967.0
170486.0,13136.5,-4658.8599999999997,4521.8100000000004,-7435.8199999999997,3924.98,-1381.3900000000001,1022.46
170487.0,13845.200000000001,-8049.5900000000001,391.971,-11641.5,4795.21,-1245.3699999999999,1091.24
170488.0,18583.599999999999,-8247.4899999999998,7649.9399999999996,-10328.799999999999,4050.5900000000001,-1405.29,133.81200000000001
170489.0,27451.200000000001,-3109.8000000000002,20295.700000000001,-2414.79,8485.4899999999998,-1294.1900000000001,-407.30900000000003
170490.0,26911.0,-12848.6,3724.48,-12546.200000000001,12119.5,-1720.1600000000001,-1282.1199999999999
170491.0,21586.700000000001,-31749.900000000001,-15166.700000000001,-30096.900000000001,7501.5100000000002,-3306.4299999999998,-2163.7800000000002
170492.0,41741.0,-27605.900000000001,12810.4,-16087.4,10538.299999999999,-6013.6700000000001,93.939300000000003
170493.0,47113.300000000003,-44274.599999999999,-21548.0,-40827.900000000001,24220.900000000001,-1698.55,580.05999999999995
170494.0,54292.800000000003,-87732.699999999997,-45473.400000000001,-69507.0,18533.200000000001,-10118.799999999999,-9350.2299999999996
170495.0,102618.0,-179660.0,-166458.0,-141835.0,51757.300000000003,-20883.0,5163.4099999999999
170496.0,189029.0,-441081.0,-620697.0,-445976.0,35980.5,-912.73400000000004,12101.0
170497.0,207400.0,-574862.0,-738680.0,-569500.0,-69016.0,6691.2600000000002,-16804.599999999999
170498.0,118739.0,-401220.0,-376032.0,-348795.0,-61406.199999999997,-5272.3400000000001,-14618.6
170499.0,12081.0,-4876.0299999999997,3041.02,-7966.6899999999996,3741.5599999999999,-1248.8800000000001,926.07100000000003
170500.0,14110.200000000001,-5920.0600000000004,3754.04,-9064.5300000000007,4287.8299999999999,-1633.05,825.39499999999998
170501.0,17219.200000000001,-7535.0299999999997,5142.3299999999999,-10466.1,4584.9300000000003,-1875.03,2339.8699999999999
170502.0,21646.200000000001,-9875.2000000000007,8384.3799999999992,-10133.6,5156.3500000000004,-23.168099999999999,4106.6899999999996
170503.0,27170.599999999999,-7039.8900000000003,17415.900000000001,-4871.9799999999996,7841.9499999999998,750.06500000000005,874.952
170504.0,32620.200000000001,-8365.2399999999998,17415.200000000001,-8041.6700000000001,11112.6,-2741.6999999999998,-2211.1799999999998
170505.0,39135.0,-19146.200000000001,13883.4,-15186.4,12797.299999999999,-4630.9200000000001,-136.42699999999999
170506.0,44099.599999999999,-30190.799999999999,470.887,-29744.599999999999,18102.099999999999,-2427.7399999999998,2407.0999999999999
170507.0,60196.800000000003,-55369.300000000003,-2957.4400000000001,-44193.400000000001,21090.900000000001,-801.71400000000006,601.41600000000005
170508.0,97777.100000000006,-119019.0,-67124.300000000003,-100856.0,48979.099999999999,-1040.8199999999999,-9658.0100000000002
170509.0,135659.0,-282705.0,-379375.0,-327508.0,53774.699999999997,3353.0,-29851.599999999999
170510.0,152059.0,-454532.0,-595363.0,-517831.0,-32666.0,-4102.1599999999999,-40598.300000000003
170511.0,108611.0,-386891.0,-374042.0,-380847.0,-56194.400000000001,-18212.900000000001,-20032.099999999999
170512.0,11410.0,-4066.9699999999998,2783.9699999999998,-7686.6999999999998,3490.25,-1461.53,893.83299999999997
170513.0,13525.200000000001,-5210.0299999999997,4494.1400000000003,-7748.3900000000003,3816.6199999999999,-1880.78,1060.24
170514.0,15080.5,-8236.1700000000001,1844.8499999999999,-9916.1399999999994,5201.6099999999997,-2483.1500000000001,1456.8499999999999
170515.0,12321.200000000001,-16532.200000000001,-8507.4699999999993,-16997.200000000001,4813.8100000000004,-1456.3,1590.46
170516.0,18516.700000000001,-17054.200000000001,2516.5999999999999,-12566.9,2672.9200000000001,-967.67499999999995,1047.8299999999999
170517.0,34186.400000000001,-2626.3499999999999,29959.700000000001,4050.48,9149.4899999999998,-2392.7600000000002,1961.0699999999999
170518.0,38973.699999999997,-8924.4099999999999,20599.599999999999,-6961.1599999999999,14731.5,-3222.9200000000001,2528.5599999999999
170519.0,40240.400000000001,-26535.5,2929.46,-25348.799999999999,15192.700000000001,-3939.2800000000002,3901.0799999999999
170520.0,49596.400000000001,-54503.400000000001,-17022.299999999999,-48902.300000000003,19807.299999999999,442.34100000000001,4318.6999999999998
170521.0,80481.0,-88928.0,-27250.0,-80709.699999999997,31274.700000000001,5869.3800000000001,4989.6999999999998
170522.0,100938.0,-173899.0,-196748.0,-213167.0,51337.199999999997,16638.200000000001,9740.9899999999998
170523.0,96810.199999999997,-340612.0,-445231.0,-416328.0,-2351.7199999999998,10310.299999999999,-9660.5699999999997
170524.0,84119.800000000003,-359678.0,-375450.0,-384796.0,-42944.400000000001,-14385.6,-12098.700000000001
170525.0,2179.8299999999999,2518.8800000000001,635.80600000000004,1747.28,-648.85000000000002,493.56999999999999,152.178
170526.0,2208.54,2460.96,641.52800000000002,1819.0999999999999,-676.73400000000004,539.12400000000002,160.50200000000001
170527.0,2226.3299999999999,2361.9899999999998,608.97699999999998,1826.8299999999999,-699.03499999999997,575.25199999999995,159.71600000000001
170528.0,2230.73,2345.4099999999999,657.17600000000004,1908.01,-710.96500000000003,604.99000000000001,139.86699999999999
170529.0,2223.52,2272.0599999999999,674.84400000000005,1951.9400000000001,-720.00999999999999,635.43799999999999,108.248
170530.0,2229.3400000000001,2203.6300000000001,713.95500000000004,2019.53,-734.18600000000004,672.84400000000005,72.946299999999994
170531.0,2240.9200000000001,2084.3499999999999,697.14300000000003,2044.29,-739.48900000000003,708.64200000000005,37.782899999999998
170532.0,2243.3200000000002,1992.55,716.90899999999999,2111.8600000000001,-733.46600000000001,735.94500000000005,-0.40476800000000002
170533.0,2239.6599999999999,1854.98,701.851,2151.1500000000001,-717.798,754.24599999999998,-39.919199999999996
170534.0,2228.98,1764.52,741.93700000000001,2250.5599999999999,-691.44799999999998,760.78200000000004,-79.081800000000001
170535.0,2212.52,1580.55,703.34199999999998,2268.8400000000001,-657.87699999999995,755.29200000000003,-113.196
170536.0,2190.4499999999998,1393.0699999999999,668.36400000000003,2289.6100000000001,-616.67700000000002,734.49000000000001,-141.512
170537.0,2164.0700000000002,1235.9300000000001,655.49400000000003,2336.5100000000002,-566.524,695.26199999999994,-166.529
170538.0,2446.8499999999999,2498.96,453.25999999999999,1915.02,-750.13499999999999,477.91399999999999,306.85599999999999
170539.0,2478.52,2418.3600000000001,442.44099999999997,1951.9200000000001,-784.99099999999999,514.33299999999997,316.55900000000003
170540.0,2492.52,2394.5,496.036,2022.29,-818.27200000000005,540.63499999999999,311.45299999999997
170541.0,2500.6300000000001,2370.9000000000001,541.98599999999999,2087.1700000000001,-846.38400000000001,562.31399999999996,288.072
170542.0,2496.54,2368.0500000000002,615.53200000000004,2177.5799999999999,-865.56299999999999,585.19600000000003,247.63
170543.0,2493.4400000000001,2338.2399999999998,679.65200000000004,2259.7399999999998,-882.38900000000001,615.24900000000002,199.12299999999999
170544.0,2497.52,2247.9099999999999,689.19200000000001,2294.3200000000002,-894.80399999999997,648.22900000000004,153.69999999999999
170545.0,2494.73,2139.2600000000002,691.25599999999997,2325.5700000000002,-896.91600000000005,676.67200000000003,108.687
170546.0,2483.8800000000001,1996.0999999999999,673.31899999999996,2341.8499999999999,-888.81799999999998,698.00199999999995,61.721400000000003
170547.0,2465.6599999999999,1822.3099999999999,635.89300000000003,2344.23,-869.94200000000001,709.26800000000003,15.3491
170548.0,2440.48,1666.53,625.70600000000002,2377.6199999999999,-841.29100000000005,707.37699999999995,-28.304200000000002
170549.0,2408.9099999999999,1542.5599999999999,653.28800000000001,2450.6599999999999,-803.51400000000001,690.21799999999996,-67.716099999999997
170550.0,2372.3800000000001,1334.0599999999999,596.39599999999996,2439.7399999999998,-757.67100000000005,656.38199999999995,-101.946
170551.0,2601.2600000000002,2551.1500000000001,460.53399999999999,2048.79,-804.74400000000003,491.96199999999999,418.27300000000002
170552.0,2623.3400000000001,2555.0500000000002,534.86000000000001,2162.5599999999999,-840.77499999999998,516.98299999999995,415.14999999999998
170553.0,2629.1900000000001,2506.0700000000002,566.13,2200.98,-875.09500000000003,538.13199999999995,400.78800000000001
170554.0,2634.1900000000001,2494.3299999999999,635.875,2273.71,-912.13699999999994,556.92899999999997,374.154
170555.0,2640.8499999999999,2421.0500000000002,631.47299999999996,2286.3699999999999,-943.20799999999997,576.29600000000005,331.21199999999999
170556.0,2644.8899999999999,2356.9000000000001,646.76800000000003,2325.48,-966.59400000000005,601.33399999999995,280.41899999999998
170557.0,2649.9099999999999,2261.96,646.93700000000001,2347.4400000000001,-984.68899999999996,632.37599999999998,230.81700000000001
170558.0,2647.75,2173.0900000000001,667.66399999999999,2390.5799999999999,-993.01199999999994,661.64700000000005,180.774
170559.0,2637.46,2054.1900000000001,673.70799999999997,2424.8600000000001,-990.81600000000003,684.70899999999995,128.75800000000001
170560.0,2619.0500000000002,1956.73,714.53599999999994,2499.6199999999999,-977.49699999999996,698.30700000000002,77.179599999999994
170561.0,2592.7399999999998,1789.0899999999999,692.59900000000005,2517.96,-952.91499999999996,698.40200000000004,26.777899999999999
170562.0,2558.9899999999998,1603.4400000000001,657.15999999999997,2526.6799999999998,-917.82299999999998,682.78700000000003,-19.9438
170563.0,2520.3099999999999,1453.22,661.32899999999995,2574.29,-875.10799999999995,651.11199999999997,-60.6873
170564.0,2740.5300000000002,2677.6500000000001,485.16199999999998,2273.8800000000001,-842.23400000000004,472.721,457.255
170565.0,2765.1500000000001,2667.9699999999998,536.97000000000003,2368.8899999999999,-883.476,484.72000000000003,449.55900000000003
170566.0,2768.3600000000001,2670.8800000000001,608.923,2448.3699999999999,-917.53999999999996,496.62299999999999,430.46100000000001
170567.0,2767.0,2675.0100000000002,696.11500000000001,2525.1700000000001,-957.98000000000002,510.70299999999997,399.46300000000002
170568.0,2780.25,2644.3099999999999,734.31100000000004,2567.0,-997.74800000000005,531.01700000000005,360.98000000000002
170569.0,2791.2399999999998,2615.3499999999999,781.68899999999996,2624.7399999999998,-1029.1700000000001,557.17399999999998,317.524
170570.0,2796.9099999999999,2521.98,779.35599999999999,2632.5599999999999,-1052.6199999999999,588.72500000000002,269.07499999999999
170571.0,2794.5999999999999,2435.46,798.52599999999995,2665.1300000000001,-1065.8299999999999,619.90300000000002,216.56299999999999
170572.0,2783.7399999999998,2292.6399999999999,775.41700000000003,2663.1799999999998,-1067.5599999999999,645.63499999999999,161.39099999999999
170573.0,2763.77,2140.3499999999999,756.27999999999997,2672.8699999999999,-1057.3099999999999,662.08100000000002,105.502
170574.0,2736.5100000000002,1980.4400000000001,741.76700000000005,2692.1799999999998,-1036.75,666.63499999999999,52.445399999999999
170575.0,2702.0,1855.21,769.82899999999995,2757.6199999999999,-1006.33,655.93899999999996,3.32606
170576.0,2661.4400000000001,1652.4000000000001,718.86900000000003,2748.0500000000002,-966.19399999999996,627.89099999999996,-41.559100000000001
170577.0,2907.8400000000001,2878.5900000000001,584.19500000000005,2591.8800000000001,-888.87800000000004,451.12299999999999,511.88799999999998
170578.0,2931.1599999999999,2783.0799999999999,547.85400000000004,2591.2399999999998,-934.21199999999999,453.29899999999998,500.92099999999999
170579.0,2935.0500000000002,2871.6599999999999,698.73500000000001,2745.5100000000002,-971.47699999999998,456.49200000000002,481.20499999999998
170580.0,2933.8699999999999,2774.0700000000002,678.76400000000001,2708.79,-1016.91,464.10199999999998,447.71100000000001
170581.0,2947.0100000000002,2810.3800000000001,779.10500000000002,2801.2399999999998,-1061.47,482.57100000000003,407.62900000000002
170582.0,2956.8699999999999,2649.79,689.44899999999996,2707.04,-1097.6800000000001,508.06099999999998,363.13200000000001
170583.0,2961.9200000000001,2673.4299999999998,797.51700000000005,2813.6199999999999,-1126.05,539.51300000000003,313.11500000000001
170584.0,2959.9499999999998,2493.4299999999998,719.12099999999998,2738.3699999999999,-1145.1800000000001,572.65899999999999,258.46499999999997
170585.0,2949.1500000000001,2480.5100000000002,823.57500000000005,2853.9099999999999,-1152.4100000000001,602.16399999999999,201.64400000000001
170586.0,2929.3400000000001,2285.5300000000002,763.38499999999999,2812.1300000000001,-1148.5599999999999,623.33600000000001,143.744
170587.0,2900.21,2216.5300000000002,836.95500000000004,2913.5,-1131.3299999999999,632.05499999999995,86.627799999999993
170588.0,2863.3699999999999,1953.5,724.35799999999995,2834.0799999999999,-1103.79,625.077,31.909500000000001
170589.0,2821.3699999999999,1882.95,807.51599999999996,2953.2600000000002,-1067.6099999999999,601.88099999999997,-16.4057
170590.0,3063.9200000000001,2970.6399999999999,577.91399999999999,2800.9200000000001,-928.85199999999998,425.36399999999998,550.351
170591.0,3087.98,2874.6999999999998,536.17999999999995,2789.2199999999998,-977.27200000000005,417.60300000000001,538.875
170592.0,3089.1700000000001,2989.5999999999999,710.73599999999999,2956.2199999999998,-1017.23,413.33300000000003,518.947
170593.0,3087.9299999999998,2897.1399999999999,692.13800000000003,2909.29,-1067.0699999999999,416.80399999999997,486.22699999999998
170594.0,3102.2199999999998,2980.8200000000002,835.19600000000003,3032.9400000000001,-1116.8,433.33499999999998,447.392
170595.0,3114.3099999999999,2856.5100000000002,777.02200000000005,2956.8600000000001,-1159.5699999999999,458.68200000000002,404.536
170596.0,3120.3299999999999,2883.73,882.64099999999996,3049.4899999999998,-1193.6600000000001,490.779,353.96899999999999
170597.0,3119.3800000000001,2708.9400000000001,803.91700000000003,2964.5999999999999,-1218.4400000000001,526.06200000000001,297.238
170598.0,3108.5900000000001,2684.52,890.35400000000004,3055.3400000000001,-1229.8399999999999,558.35000000000002,237.09200000000001
170599.0,3088.1500000000001,2446.02,780.86300000000006,2958.6399999999999,-1229.7,582.92999999999995,174.75299999999999
170600.0,3058.8899999999999,2394.6900000000001,870.5,3069.79,-1216.9000000000001,596.33500000000004,114.783
170601.0,3022.3899999999999,2164.29,792.27300000000002,3018.3499999999999,-1194.54,594.55799999999999,57.447299999999998
170602.0,2979.4000000000001,2073.9899999999998,852.66099999999994,3112.54,-1161.1099999999999,575.50199999999995,4.9217599999999999
170603.0,3236.3600000000001,3160.8800000000001,667.17999999999995,3121.71,-971.26900000000001,395.834,592.01999999999998
170604.0,3258.6300000000001,3033.54,591.41700000000003,3065.46,-1022.39,377.97199999999998,580.59400000000005
170605.0,3257.6799999999998,3169.7199999999998,782.55700000000002,3238.1199999999999,-1065.29,365.46899999999999,559.97400000000005
170606.0,3255.73,3057.1399999999999,737.73400000000004,3153.5799999999999,-1118.8199999999999,364.33100000000002,527.13999999999999
170607.0,3270.0900000000001,3138.71,872.19500000000005,3257.2600000000002,-1173.1700000000001,377.81799999999998,488.69
170608.0,3283.2800000000002,2973.7800000000002,764.529,3120.1900000000001,-1221.5599999999999,401.34800000000001,445.10300000000001
170609.0,3290.7199999999998,3041.8899999999999,902.72500000000002,3233.9000000000001,-1261.72,433.96800000000002,393.42399999999998
170610.0,3291.02,2850.1999999999998,800.846,3115.48,-1292.49,471.85500000000002,335.34100000000001
170611.0,3281.3699999999999,2871.04,928.97500000000002,3237.8000000000002,-1310.0899999999999,508.28800000000001,273.80500000000001
170612.0,3261.9200000000001,2656.6500000000001,842.44500000000005,3154.46,-1316.2,538.11400000000003,209.78399999999999
170613.0,3232.3099999999999,2615.3600000000001,939.12199999999996,3266.3899999999999,-1307.71,556.32799999999997,146.17599999999999
170614.0,3195.0599999999999,2347.46,819.78599999999994,3169.52,-1288.8599999999999,559.23099999999999,84.262600000000006
170615.0,3152.1500000000001,2290.0100000000002,913.79899999999998,3292.3499999999999,-1260.0699999999999,545.37400000000002,28.2532
170616.0,3408.5100000000002,3218.71,626.04300000000001,3314.5999999999999,-1010.17,362.81099999999998,627.69200000000001
170617.0,3427.1700000000001,3149.8099999999999,607.572,3303.0599999999999,-1063.3199999999999,334.55500000000001,616.89300000000003
170618.0,3422.7399999999998,3251.1399999999999,758.83000000000004,3422.02,-1109.6500000000001,313.33100000000002,594.40999999999997
170619.0,3418.0999999999999,3195.6999999999998,761.23099999999999,3374.1500000000001,-1164.3699999999999,307.601,559.56200000000001
170620.0,3433.0599999999999,3270.0700000000002,883.03300000000002,3453.2399999999998,-1223.0799999999999,318.64800000000002,524.35299999999995
170621.0,3450.54,3186.8800000000001,851.37400000000002,3377.8400000000001,-1280.05,341.346,484.43099999999998
170622.0,3461.1599999999999,3206.8499999999999,933.19799999999998,3423.4299999999998,-1327.49,375.34899999999999,432.589
170623.0,3463.4099999999999,3081.8099999999999,889.89300000000003,3354.23,-1364.1900000000001,415.71800000000002,373.21800000000002
170624.0,3455.5100000000002,3042.0500000000002,950.32100000000003,3401.0999999999999,-1387.5899999999999,455.61399999999998,308.92399999999998
170625.0,3436.9200000000001,2855.8800000000001,884.66099999999994,3332.6500000000001,-1398.23,489.70999999999998,241.517
170626.0,3408.3200000000002,2777.23,941.80999999999995,3398.23,-1395.29,513.23099999999999,174.83799999999999
170627.0,3372.0300000000002,2583.9299999999998,895.83699999999999,3368.9400000000001,-1381.47,522.02200000000005,110.40000000000001
170628.0,3329.5500000000002,2468.1599999999999,929.18600000000004,3427.8699999999999,-1356.75,513.03300000000002,50.021700000000003
170629.0,3585.5599999999999,3353.9899999999998,666.58900000000006,3591.9099999999999,-1047.9200000000001,327.55700000000002,663.798
170630.0,3597.8600000000001,3346.0,709.69799999999998,3626.1799999999998,-1102.5799999999999,288.09199999999998,653.52599999999995
170631.0,3591.8499999999999,3371.6100000000001,777.28399999999999,3651.5900000000001,-1153.8,256.47899999999998,625.83199999999999
170632.0,3593.9899999999998,3386.8499999999999,828.80399999999997,3655.1599999999999,-1210.0,243.85499999999999,589.947
170633.0,3607.9099999999999,3375.9000000000001,859.33299999999997,3627.9899999999998,-1271.76,251.87899999999999,560.80499999999995
170634.0,3623.4099999999999,3370.3000000000002,902.99599999999998,3606.02,-1336.54,274.96499999999997,522.32600000000002
170635.0,3636.6700000000001,3338.3000000000002,924.548,3578.71,-1391.46,311.09800000000001,469.84899999999999
170636.0,3641.46,3286.4400000000001,945.08000000000004,3563.7600000000002,-1434.29,354.173,409.94400000000002
170637.0,3636.4400000000001,3202.2600000000002,955.94200000000001,3551.1900000000001,-1465.1600000000001,398.61599999999999,344.19900000000001
170638.0,3620.0100000000002,3115.5300000000002,984.93399999999997,3569.1700000000001,-1481.97,438.322,275.48200000000003
170639.0,3593.02,2967.02,968.90200000000004,3555.1199999999999,-1484.9300000000001,467.233,205.24199999999999
170640.0,3557.6599999999999,2830.1399999999999,974.048,3573.0700000000002,-1475.21,481.58800000000002,137.23099999999999
170641.0,3516.8000000000002,2659.6399999999999,952.66099999999994,3572.4200000000001,-1456.1199999999999,478.17899999999997,72.879599999999996
170642.0,3758.2600000000002,3393.1100000000001,616.47299999999996,3775.9699999999998,-1080.97,289.08600000000001,694.96400000000006
170643.0,3760.75,3494.04,771.41600000000005,3903.0300000000002,-1137.1199999999999,237.96000000000001,683.29899999999998
170644.0,3766.25,3416.8800000000001,724.68600000000004,3815.3600000000001,-1197.1099999999999,196.84800000000001,655.66300000000001
170645.0,3783.5100000000002,3524.7600000000002,848.10699999999997,3891.4400000000001,-1257.8599999999999,178.49100000000001,630.43100000000004
170646.0,3788.1700000000001,3478.4499999999998,840.14499999999998,3799.5500000000002,-1321.8199999999999,182.75700000000001,604.83600000000001
170647.0,3796.2600000000002,3595.8600000000001,1000.99,3874.96,-1391.22,205.83500000000001,560.529
170648.0,3812.02,3472.5500000000002,920.47500000000002,3735.4699999999998,-1452.6199999999999,243.75399999999999,506.55599999999998
170649.0,3820.6500000000001,3540.8699999999999,1050.1099999999999,3820.6999999999998,-1502.1500000000001,289.51799999999997,446.23099999999999
170650.0,3819.4200000000001,3352.4899999999998,948.476,3687.7399999999998,-1540.3299999999999,338.06799999999998,378.44099999999997
170651.0,3805.8699999999999,3354.3899999999999,1056.9000000000001,3779.4000000000001,-1562.71,382.80900000000003,307.29500000000002
170652.0,3781.4499999999998,3121.4000000000001,953.07600000000002,3670.7399999999998,-1572.3900000000001,417.64499999999998,234.04900000000001
170653.0,3748.3200000000002,3097.0999999999999,1066.97,3792.52,-1568.02,438.43799999999999,163.626
170654.0,3709.6999999999998,2833.6500000000001,949.96299999999997,3692.75,-1554.3199999999999,440.63400000000001,94.959000000000003
170655.0,3926.3400000000001,3532.02,671.96900000000005,4063.3899999999999,-1110.2,245.54400000000001,720.11099999999999
170656.0,3921.1599999999999,3651.6599999999999,844.83399999999995,4195.3599999999997,-1167.6800000000001,182.69999999999999,703.56600000000003
170657.0,3934.6100000000001,3534.1900000000001,752.99800000000005,4052.3000000000002,-1233.75,138.41399999999999,686.274
170658.0,3950.75,3697.3400000000001,927.70100000000002,4154.6400000000003,-1298.0599999999999,117.286,674.71299999999997
170659.0,3951.3200000000002,3601.3800000000001,859.46900000000005,3985.6100000000001,-1366.9300000000001,114.001,645.28999999999996
170660.0,3965.98,3768.6700000000001,1048.0599999999999,4089.6799999999998,-1441.75,132.96199999999999,594.94100000000003
170661.0,3987.8099999999999,3630.7800000000002,938.43100000000004,3914.5700000000002,-1510.2,171.55199999999999,541.25999999999999
170662.0,4001.5999999999999,3732.6199999999999,1089.46,4012.4699999999998,-1567.25,220.40700000000001,480.95999999999998
170663.0,4005.04,3542.8499999999999,978.221,3861.1199999999999,-1613.5599999999999,273.71100000000001,412.298
170664.0,3995.8600000000001,3594.7800000000002,1129.25,3988.3699999999999,-1643.1900000000001,324.45100000000002,339.964
170665.0,3974.96,3339.7199999999998,997.90099999999995,3846.25,-1659.74,365.31799999999998,263.81700000000001
170666.0,3944.8099999999999,3336.9000000000001,1127.3199999999999,3979.9000000000001,-1660.8,392.35000000000002,190.149
170667.0,3909.4099999999999,3058.8400000000001,993.30899999999997,3859.04,-1653.3099999999999,400.803,117.803
170668.0,4094.54,3614.8800000000001,677.88999999999999,4303.2299999999996,-1137.8299999999999,197.102,740.12199999999996
170669.0,4090.1199999999999,3728.6799999999998,839.18200000000002,4415.9499999999998,-1197.3699999999999,124.271,724.40899999999999
170670.0,4095.6999999999998,3630.8200000000002,761.721,4265.1599999999999,-1262.1199999999999,75.349900000000005,712.91099999999994
170671.0,4097.8800000000001,3796.04,934.05999999999995,4337.8299999999999,-1325.97,47.8399,701.447
170672.0,4103.2399999999998,3771.6199999999999,925.35500000000002,4218.6099999999997,-1403.04,38.930900000000001,671.61500000000001
170673.0,4131.7200000000003,3927.6300000000001,1084.02,4290.3599999999997,-1487.3699999999999,56.386000000000003,625.99199999999996
170674.0,4161.3100000000004,3814.6100000000001,983.88599999999997,4117.3000000000002,-1563.8099999999999,95.844800000000006,574.73599999999999
170675.0,4181.5600000000004,3933.3400000000001,1138.74,4210.8599999999997,-1629.1700000000001,147.85599999999999,514.75900000000001
170676.0,4191.1899999999996,3748.46,1020.6799999999999,4045.8600000000001,-1683.6700000000001,205.702,445.125
170677.0,4187.1800000000003,3795.0300000000002,1156.47,4152.2399999999998,-1720.6099999999999,262.13499999999999,370.935
170678.0,4170.8999999999996,3558.27,1036.5999999999999,4016.0599999999999,-1744.49,309.505,292.38799999999998
170679.0,4144.9099999999999,3563.9099999999999,1169.6600000000001,4148.9300000000003,-1752.24,343.38499999999999,216.137
170680.0,4113.4700000000003,3296.52,1041.28,4030.8400000000001,-1750.73,358.30000000000001,140.167
170681.0,4255.79,3731.9099999999999,731.84699999999998,4581.1300000000001,-1161.99,148.22200000000001,758.48500000000001
170682.0,4247.5699999999997,3847.3899999999999,890.66800000000001,4676.0100000000002,-1221.9300000000001,66.6036,746.17200000000003
170683.0,4247.8299999999999,3753.8600000000001,806.12800000000004,4503.1300000000001,-1285.52,8.0457400000000003,736.44799999999998
170684.0,4249.3500000000004,3964.0999999999999,1010.05,4596.8900000000003,-1351.9000000000001,-28.8201,724.67899999999997
170685.0,4259.46,3897.0,944.68100000000004,4411.1499999999996,-1435.9000000000001,-41.896599999999999,696.14999999999998
170686.0,4294.04,4085.96,1120.9400000000001,4490.1400000000003,-1527.48,-24.6251,654.30899999999997
170687.0,4331.6300000000001,3988.4899999999998,1020.78,4308.0799999999999,-1612.78,16.045100000000001,605.85000000000002
170688.0,4359.3500000000004,4107.7299999999996,1161.3399999999999,4379.8699999999999,-1686.71,71.292299999999997,546.67999999999995
170689.0,4376.6700000000001,3961.9000000000001,1070.04,4234.9300000000003,-1750.4200000000001,134.20099999999999,476.92200000000003
170690.0,4379.4099999999999,4016.7199999999998,1204.3199999999999,4333.7799999999997,-1795.95,196.84399999999999,401.99799999999999
170691.0,4369.1700000000001,3799.8099999999999,1095.9400000000001,4204.5299999999997,-1827.76,250.929,321.22000000000003
170692.0,4348.29,3796.4000000000001,1212.95,4317.9099999999999,-1842.3900000000001,291.60700000000003,242.08199999999999
170693.0,4321.9700000000003,3550.04,1100.6199999999999,4212.9700000000003,-1847.72,313.45299999999997,162.851
170694.0,4404.4799999999996,3768.96,716.78499999999997,4778.9499999999998,-1179.6800000000001,96.890699999999995,769.80999999999995
170695.0,4388.6599999999999,3948.23,935.61599999999999,4915.75,-1238.49,5.8271899999999999,759.81299999999999
170696.0,4386.21,3807.1799999999998,793.51199999999994,4671.1400000000003,-1302.28,-62.063899999999997,754.35500000000002
170697.0,4388.8800000000001,4073.8099999999999,1041.5699999999999,4797.4799999999996,-1372.2,-106.818,745.38499999999999
170698.0,4406.3900000000003,4019.1500000000001,970.971,4599.2799999999997,-1463.0999999999999,-124.55500000000001,719.12900000000002
170699.0,4449.7700000000004,4261.8400000000001,1181.27,4706.2399999999998,-1561.8599999999999,-108.78700000000001,680.79399999999998
170700.0,4496.04,4130.3599999999997,1029.96,4464.7799999999997,-1656.3,-67.095299999999995,635.01199999999994
170701.0,4533.6800000000003,4340.1000000000004,1243.96,4604.1099999999997,-1739.8499999999999,-8.6535200000000003,577.255
170702.0,4559.8400000000001,4132.4700000000003,1076.3900000000001,4377.3599999999997,-1813.0,59.206299999999999,507.50200000000001
170703.0,4570.5299999999997,4258.9899999999998,1269.6600000000001,4530.8299999999999,-1867.23,127.932,431.40800000000002
170704.0,4567.6700000000001,3996.1799999999998,1106.02,4342.1999999999998,-1907.73,189.047,348.93200000000002
170705.0,4553.0799999999999,4062.3000000000002,1285.1900000000001,4514.3100000000004,-1930.0799999999999,236.97900000000001,267.36599999999999
170706.0,4532.9499999999998,3771.4899999999998,1121.6900000000001,4356.21,-1942.51,265.99900000000002,184.99100000000001
170707.0,4540.0100000000002,3887.5599999999999,795.58000000000004,5057.54,-1191.4100000000001,42.798299999999998,774.82399999999996
170708.0,4516.6300000000001,4025.8400000000001,968.76400000000001,5132.4700000000003,-1248.03,-58.113900000000001,766.745
170709.0,4510.3000000000002,3939.5700000000002,870.38300000000004,4918.0900000000001,-1311.02,-136.28200000000001,763.78499999999997
170710.0,4513.2399999999998,4195.6700000000001,1093.5799999999999,5008.3999999999996,-1383.6199999999999,-189.096,755.91099999999994
170711.0,4540.2200000000003,4144.4799999999996,1007.03,4788.71,-1480.8699999999999,-210.471,735.27999999999997
170712.0,4596.0100000000002,4387.9799999999996,1198.54,4871.0,-1589.0799999999999,-196.363,703.73299999999995
170713.0,4653.3800000000001,4321.9700000000003,1092.75,4668.6800000000003,-1693.4000000000001,-153.916,661.40800000000002
170714.0,4701.9399999999996,4483.3100000000004,1240.21,4736.1300000000001,-1787.1800000000001,-92.054599999999994,605.31700000000001
170715.0,4739.0100000000002,4372.96,1153.29,4585.6300000000001,-1870.54,-19.109300000000001,536.69299999999998
170716.0,4759.75,4450.4799999999996,1284.98,4673.3199999999997,-1935.1900000000001,56.070900000000002,460.26100000000002
170717.0,4765.3000000000002,4266.6499999999996,1188.6199999999999,4548.8100000000004,-1984.4400000000001,124.483,376.49000000000001
170718.0,4758.5,4275.2299999999996,1301.8199999999999,4652.3800000000001,-2015.4000000000001,179.642,292.19499999999999
170719.0,4745.7399999999998,4059.7600000000002,1205.5599999999999,4560.04,-2035.3699999999999,216.25700000000001,207.322
170720.0,4659.3100000000004,4004.04,885.52599999999995,5331.3999999999996,-1196.2,-14.0914,772.34000000000003
170721.0,4627.5699999999997,4006.4000000000001,919.38300000000004,5250.0799999999999,-1249.55,-123.798,767.82799999999997
170722.0,4622.9799999999996,4066.1100000000001,955.88199999999995,5162.4899999999998,-1313.72,-213.12299999999999,768.67399999999998
170723.0,4637.3500000000004,4171.5299999999997,1006.14,5078.9099999999999,-1391.3699999999999,-276.06599999999997,764.51499999999999
170724.0,4671.6199999999999,4347.0699999999997,1123.04,5056.6800000000003,-1492.5899999999999,-301.47500000000002,748.82500000000005
170725.0,4732.0799999999999,4443.6999999999998,1152.52,4963.5100000000002,-1608.5,-287.44799999999998,723.43100000000004
170726.0,4801.2600000000002,4547.5900000000001,1196.22,4904.1400000000003,-1723.51,-243.58600000000001,685.28999999999996
170727.0,4863.1300000000001,4614.4700000000003,1229.3299999999999,4853.3500000000004,-1828.72,-178.55699999999999,631.625
170728.0,4912.5200000000004,4627.1700000000001,1245.76,4803.7200000000003,-1922.26,-100.557,564.245
170729.0,4944.6599999999999,4611.0799999999999,1269.27,4779.9799999999996,-1997.95,-19.061499999999999,487.346
170730.0,4960.6800000000003,4550.8800000000001,1282.46,4763.46,-2056.6399999999999,56.767699999999998,402.82100000000003
170731.0,4963.0200000000004,4467.54,1295.05,4763.8500000000004,-2097.3099999999999,119.557,316.28199999999998
170732.0,4958.4099999999999,4365.5200000000004,1302.21,4774.3599999999997,-2124.8000000000002,164.01400000000001,229.023
170733.0,4757.3000000000002,4039.4699999999998,912.13,5519.2399999999998,-1193.5699999999999,-72.419899999999998,762.58199999999999
170734.0,4717.8999999999996,4103.4799999999996,1002.46,5480.9799999999996,-1241.9400000000001,-190.77500000000001,760.86500000000001
170735.0,4715.7600000000002,4119.6700000000001,988.12,5333.7299999999996,-1307.1199999999999,-289.44600000000003,770.04399999999998
170736.0,4742.6300000000001,4313.6599999999999,1110.05,5316.0200000000004,-1392.76,-360.69499999999999,775.44200000000001
170737.0,4789.9099999999999,4391.1400000000003,1099.49,5164.7700000000004,-1499.53,-392.38200000000001,764.98599999999999
170738.0,4857.54,4600.25,1217.5599999999999,5154.5900000000001,-1621.0699999999999,-380.92899999999997,742.01300000000003
170739.0,4937.6000000000004,4680.4399999999996,1215.02,5044.4399999999996,-1745.8199999999999,-336.22800000000001,705.70100000000002
170740.0,5014.3999999999996,4789.3000000000002,1267.0799999999999,5010.75,-1862.47,-268.01400000000001,655.05999999999995
170741.0,5078.6800000000003,4822.5200000000004,1283.24,4959.3000000000002,-1967.8099999999999,-185.029,589.95500000000004
170742.0,5124.2200000000003,4833.1400000000003,1316.9000000000001,4943.6499999999996,-2055.3800000000001,-96.939999999999998,513.5
170743.0,5152.0900000000001,4782.7299999999996,1324.9100000000001,4921.0100000000002,-2124.3800000000001,-13.525,428.42599999999999
170744.0,5164.9899999999998,4720.0900000000001,1346.8199999999999,4929.4799999999996,-2175.0,57.016399999999997,339.81200000000001
170745.0,5170.21,4624.0100000000002,1349.5799999999999,4935.4499999999998,-2211.21,109.45,250.434
170746.0,4829.8500000000004,4107.1800000000003,989.13,5731.6700000000001,-1182.29,-132.11600000000001,742.78399999999999
170747.0,4784.0900000000001,4074.8200000000002,978.96199999999999,5581.4200000000001,-1224.26,-257.40600000000001,746.97500000000002
170748.0,4779.7600000000002,4193.0699999999997,1061.2,5518.6499999999996,-1287.9000000000001,-365.221,764.322
170749.0,4813.0500000000002,4287.9799999999996,1070.1199999999999,5377.6899999999996,-1379.6300000000001,-444.13600000000002,777.78700000000003
170750.0,4877.4700000000003,4544.9200000000001,1210.9100000000001,5377.4700000000003,-1495.04,-481.58300000000003,775.46400000000006
170751.0,4962.6499999999996,4662.9700000000003,1205.49,5248.1199999999999,-1624.5599999999999,-475.22399999999999,755.64700000000005
170752.0,5059.75,4853.8199999999997,1284.2,5222.4700000000003,-1759.03,-431.012,722.75800000000004
170753.0,5154.6599999999999,4940.29,1288.99,5141.8000000000002,-1888.6400000000001,-360.02999999999997,676.37800000000004
170754.0,5235.2200000000003,5028.6099999999997,1336.52,5121.6700000000001,-2005.99,-272.20699999999999,613.57600000000002
170755.0,5296.2600000000002,5030.8599999999997,1342.4400000000001,5078.25,-2106.0700000000002,-177.69800000000001,537.76300000000003
170756.0,5338.0,5028.4799999999996,1381.75,5086.9700000000003,-2186.4400000000001,-86.625,452.69900000000001
170757.0,5363.1899999999996,4950.8500000000004,1375.76,5067.3400000000001,-2247.8200000000002,-8.0791299999999993,362.50099999999998
170758.0,5379.1999999999998,4898.3100000000004,1410.23,5105.5,-2293.0999999999999,52.502099999999999,271.02300000000002
170759.0,4870.1499999999996,4119.4200000000001,1031.7,5876.0,-1160.76,-191.21299999999999,712.54300000000001
170760.0,4816.9099999999999,4116.3199999999997,1048.4400000000001,5743.5900000000001,-1193.21,-322.09399999999999,722.94200000000001
170761.0,4817.0200000000004,4233.9099999999999,1121.96,5667.5,-1256.26,-442.46100000000001,748.58600000000001
170762.0,4860.0,4397.9200000000001,1178.8800000000001,5570.7700000000004,-1353.0699999999999,-531.21699999999998,767.55600000000004
170763.0,4938.8100000000004,4589.2200000000003,1225.8599999999999,5476.96,-1475.1600000000001,-574.02499999999998,772.21400000000006
170764.0,5047.1899999999996,4775.8500000000004,1258.3699999999999,5390.2299999999996,-1616.8,-571.12900000000002,762.07799999999997
170765.0,5167.2799999999997,4982.21,1319.4000000000001,5353.5200000000004,-1762.9200000000001,-527.83699999999999,736.47400000000005
170766.0,5280.5,5079.5,1307.97,5257.6300000000001,-1905.22,-454.565,694.30399999999997
170767.0,5380.6700000000001,5231.9200000000001,1393.77,5277.8299999999999,-2036.28,-361.822,635.03399999999999
170768.0,5459.1899999999996,5219.1300000000001,1363.29,5199.1499999999996,-2149.77,-260.91500000000002,560.70600000000002
170769.0,5516.5200000000004,5274.3100000000004,1441.3199999999999,5248.0,-2242.1999999999998,-162.11500000000001,475.78800000000001
170770.0,5555.5900000000001,5184.4799999999996,1408.3099999999999,5202.2700000000004,-2314.98,-75.451400000000007,384.334
170771.0,5584.0100000000002,5174.8299999999999,1472.8499999999999,5271.5500000000002,-2370.2800000000002,-6.5182099999999998,291.14299999999997
170772.0,4871.3199999999997,4113.6700000000001,1080.02,5986.3900000000003,-1127.01,-247.22,669.48800000000006
170773.0,4819.4799999999996,4068.4499999999998,1050.8399999999999,5810.79,-1148.9400000000001,-384.85199999999998,688.81600000000003
170774.0,4824.7299999999996,4240.5100000000002,1173.46,5779.8599999999997,-1211.3800000000001,-519.80100000000004,722.822
170775.0,4887.0500000000002,4357.0100000000002,1154.6900000000001,5612.2299999999996,-1315.6099999999999,-620.17899999999997,749.85799999999995
170776.0,4986.0600000000004,4680.8999999999996,1301.8199999999999,5624.6099999999997,-1445.21,-668.74800000000005,764.97799999999995
170777.0,5113.5600000000004,4834.9200000000001,1271.77,5478.3100000000004,-1597.49,-668.80499999999995,763.375
170778.0,5255.2299999999996,5103.6300000000001,1362.47,5474.96,-1755.8499999999999,-625.81299999999999,746.13
170779.0,5390.9399999999996,5232.8599999999997,1352.5999999999999,5385.0699999999997,-1912.27,-550.89599999999996,709.76199999999994
170780.0,5512.5500000000002,5393.7600000000002,1418.02,5389.1599999999999,-2057.46,-453.71499999999997,653.94100000000003
170781.0,5610.79,5437.1400000000003,1419.26,5345.1400000000003,-2185.0799999999999,-346.517,581.59799999999996
170782.0,5686.04,5486.4399999999996,1470.8499999999999,5370.4200000000001,-2290.8200000000002,-240.053,497.38499999999999
170783.0,5740.8000000000002,5436.1599999999999,1460.3099999999999,5349.29,-2375.6799999999998,-145.07300000000001,405.22199999999998
170784.0,5782.9200000000001,5424.4200000000001,1508.3800000000001,5404.1499999999996,-2441.5300000000002,-67.739699999999999,310.30599999999998
170785.0,4816.6999999999998,4078.52,1128.27,6039.6499999999996,-1076.25,-294.71800000000002,613.50199999999995
170786.0,4769.6000000000004,4070.4200000000001,1144.72,5918.2799999999997,-1087.25,-437.589,644.90200000000004
170787.0,4804.5799999999999,4206.0,1213.8,5852.3900000000003,-1154.0699999999999,-595.41099999999994,691.53499999999997
170788.0,4888.25,4429.1199999999999,1269.3599999999999,5764.5799999999999,-1266.6500000000001,-707.87400000000002,728.29899999999998
170789.0,5006.3999999999996,4668.4200000000001,1296.9100000000001,5665.1000000000004,-1402.54,-762.19500000000005,752.56500000000005
170790.0,5156.25,4925.2299999999996,1336.26,5595.1499999999996,-1565.75,-766.46900000000005,760.69000000000005
170791.0,5322.96,5180.9300000000003,1377.8699999999999,5551.0500000000002,-1737.22,-724.80799999999999,751.92100000000005
170792.0,5483.1199999999999,5364.8199999999997,1388.5,5488.2799999999997,-1908.0899999999999,-648.89099999999996,721.49699999999996
170793.0,5628.71,5563.04,1460.51,5504.79,-2068.79,-547.46799999999996,670.40099999999995
170794.0,5749.46,5617.0299999999997,1444.9000000000001,5449.1999999999998,-2211.5999999999999,-434.13999999999999,600.779
170795.0,5844.3599999999997,5710.3500000000004,1517.6800000000001,5499.75,-2331.3699999999999,-320.04500000000002,517.54999999999995
170796.0,5916.7200000000003,5673.9899999999998,1501.8800000000001,5477.0100000000002,-2429.0799999999999,-216.72300000000001,425.00799999999998
170797.0,5974.2299999999996,5688.25,1560.1500000000001,5544.8800000000001,-2506.3800000000001,-130.82400000000001,328.82600000000002
170798.0,4670.1300000000001,4024.4499999999998,1198.01,6029.3900000000003,-997.20399999999995,-323.92599999999999,528.11099999999999
170799.0,4667.21,3932.1399999999999,1138.2,5884.6099999999997,-1000.54,-480.22399999999999,581.50699999999995
170800.0,4739.0,4180.3999999999996,1304.6199999999999,5929.5299999999997,-1078.9000000000001,-667.25599999999997,650.80200000000002
170801.0,4852.4200000000001,4315.7600000000002,1228.76,5723.6000000000004,-1202.4000000000001,-792.36400000000003,699.40300000000002
170802.0,4996.2399999999998,4722.3699999999999,1386.4100000000001,5769.8000000000002,-1346.4300000000001,-853.14099999999996,734.90899999999999
170803.0,5173.1000000000004,4918.04,1324.78,5612.6400000000003,-1520.27,-863.64700000000005,752.73900000000003
170804.0,5366.6899999999996,5294.4099999999999,1448.6199999999999,5661.6000000000004,-1705.3699999999999,-824.245,753.06299999999999
170805.0,5554.9799999999996,5461.2700000000004,1405.22,5554.1599999999999,-1892.4200000000001,-747.71000000000004,730.27499999999998
170806.0,5727.3599999999997,5720.3599999999997,1503.0699999999999,5605.6700000000001,-2069.0799999999999,-642.95699999999999,684.14499999999998
170807.0,5872.7799999999997,5802.54,1485.6500000000001,5554.9799999999996,-2228.1500000000001,-523.62099999999998,617.73199999999997
170808.0,5989.9300000000003,5925.7299999999996,1562.54,5615.9399999999996,-2362.9499999999998,-402.09699999999998,536.048
170809.0,6081.6000000000004,5897.7399999999998,1534.1400000000001,5585.21,-2474.3800000000001,-290.27199999999999,443.65699999999998
170810.0,6155.8000000000002,5946.8299999999999,1609.4200000000001,5674.1499999999996,-2563.4899999999998,-195.727,346.29899999999998
170811.0,4418.7299999999996,3932.4400000000001,1248.75,5924.6499999999996,-866.83699999999999,-327.91399999999999,378.93400000000003
170812.0,4486.9099999999999,3871.1399999999999,1275.4400000000001,5934.6099999999997,-873.43899999999996,-504.19200000000001,493.04700000000003
170813.0,4635.3400000000001,4043.1399999999999,1320.8800000000001,5891.5900000000001,-984.85699999999997,-741.57100000000003,596.46500000000003
170814.0,4773.8800000000001,4361.2600000000002,1376.0799999999999,5830.1099999999997,-1119.0899999999999,-871.52999999999997,658.41399999999999
170815.0,4950.5200000000004,4641.5799999999999,1372.6300000000001,5739.6400000000003,-1273.3800000000001,-941.34400000000005,707.94200000000001
170816.0,5161.9799999999996,4985.8299999999999,1412.24,5702.8400000000001,-1460.1600000000001,-959.572,739.505
170817.0,5384.7600000000002,5299.6800000000003,1433.4200000000001,5663.4899999999998,-1659.6700000000001,-923.37400000000002,749.96699999999998
170818.0,5604.2600000000002,5583.8000000000002,1465.3900000000001,5644.4099999999999,-1863.47,-847.36500000000001,735.17499999999995
170819.0,5805.7200000000003,5842.3999999999996,1525.6700000000001,5668.8999999999996,-2057.5900000000001,-739.55499999999995,695.04899999999998
170820.0,5978.79,5969.8000000000002,1519.6199999999999,5639.1700000000001,-2233.8000000000002,-614.64099999999996,632.70399999999995
170821.0,6120.1000000000004,6117.9700000000003,1593.6099999999999,5704.7799999999997,-2384.6700000000001,-485.70299999999997,552.81600000000003
170822.0,6233.3699999999999,6136.1599999999999,1587.46,5702.9899999999998,-2510.5300000000002,-365.50700000000001,461.12299999999999
170823.0,6326.29,6189.6400000000003,1647.8299999999999,5782.0100000000002,-2612.6199999999999,-262.32600000000002,362.95499999999998
170824.0,4111.46,3643.79,1104.6600000000001,5592.5799999999999,-679.03700000000003,-280.93900000000002,174.012
170825.0,4284.29,3547.52,1206.1199999999999,5778.7799999999997,-689.40200000000004,-524.74199999999996,373.42000000000002
170826.0,4495.7299999999996,3977.77,1446.6400000000001,5908.9200000000001,-876.904,-822.94299999999998,531.97699999999998
170827.0,4658.3400000000001,4166.2200000000003,1304.21,5689.2399999999998,-1014.21,-941.45100000000002,601.56799999999998
170828.0,4870.3599999999997,4634.2799999999997,1469.1800000000001,5786.1199999999999,-1181.9200000000001,-1028.23,675.16700000000003
170829.0,5120.3400000000001,4909.0900000000001,1380.74,5645.75,-1384.7,-1051.95,719.91800000000001
170830.0,5373.4099999999999,5386.2799999999997,1525.9200000000001,5747.3199999999997,-1597.9300000000001,-1022.09,742.274
170831.0,5629.0699999999997,5624.46,1464.3,5651.5600000000004,-1821.1500000000001,-946.70799999999997,736.55200000000002
170832.0,5861.8500000000004,5971.7299999999996,1572.8099999999999,5738.0200000000004,-2032.8800000000001,-837.32299999999998,703.13900000000001
170833.0,6065.5299999999997,6130.2600000000002,1560.25,5713.2799999999997,-2227.7800000000002,-706.85000000000002,645.35199999999998
170834.0,6233.4099999999999,6310.6899999999996,1635.8299999999999,5790.4399999999996,-2395.6399999999999,-570.98400000000004,567.79300000000001
170835.0,6370.0200000000004,6342.8800000000001,1617.24,5784.1099999999997,-2536.6500000000001,-442.17700000000002,477.30399999999997
170836.0,6482.6000000000004,6430.9899999999998,1691.27,5882.8500000000004,-2652.04,-330.37799999999999,378.35199999999998
170837.0,3724.1700000000001,3348.1999999999998,951.41399999999999,5166.0500000000002,-151.148,-121.619,-341.73099999999999
170838.0,4080.5100000000002,3301.98,1364.05,5796.3500000000004,-462.85000000000002,-563.17999999999995,285.77999999999997
170839.0,4316.2200000000003,3726.0900000000001,1390.8299999999999,5678.6400000000003,-763.72699999999998,-902.346,451.52199999999999
170840.0,4490.3299999999999,4168.7299999999996,1481.3299999999999,5760.4399999999996,-877.58399999999995,-993.471,534.91800000000001
170841.0,4758.8500000000004,4435.1400000000003,1407.6099999999999,5633.3599999999997,-1074.9300000000001,-1115.3800000000001,637.35199999999998
170842.0,5041.4200000000001,4986.7600000000002,1535.77,5745.8900000000003,-1289.3699999999999,-1138.23,691.96900000000005
170843.0,5332.9399999999996,5257.7399999999998,1431.8399999999999,5615.2600000000002,-1520.74,-1120.29,731.21100000000001
170844.0,5626.4300000000003,5774.0600000000004,1595.0799999999999,5769.0,-1762.97,-1045.1900000000001,733.16899999999998
170845.0,5893.6000000000004,5991.6700000000001,1531.0699999999999,5695.6499999999996,-1994.5899999999999,-935.92100000000005,708.84699999999998
170846.0,6130.3299999999999,6319.6800000000003,1645.6099999999999,5814.4399999999996,-2208.5799999999999,-799.75699999999995,655.24199999999996
170847.0,6327.0100000000002,6422.4899999999998,1610.5899999999999,5791.3900000000003,-2394.79,-657.44799999999998,581.18499999999995
170848.0,6489.5200000000004,6614.0500000000002,1721.6400000000001,5925.54,-2551.8000000000002,-520.11400000000003,491.94600000000003
170849.0,6623.8500000000004,6606.5500000000002,1677.51,5912.9300000000003,-2681.71,-399.779,393.08999999999997
170850.0,5331.0600000000004,1988.8900000000001,-1291.3099999999999,3991.71,1028.1500000000001,-135.292,-1133.3299999999999
170851.0,3811.7800000000002,2837.3000000000002,1635.3599999999999,5661.4399999999996,-253.53999999999999,-665.69299999999998,253.29900000000001
170852.0,4078.8400000000001,3602.0900000000001,1400.1800000000001,5467.4499999999998,-646.80899999999997,-933.52499999999998,332.71100000000001
170853.0,4261.3599999999997,3829.6199999999999,1414.74,5534.3100000000004,-684.31399999999996,-1042.7,461.31
170854.0,4619.75,4368.8000000000002,1500.6400000000001,5592.7600000000002,-964.19299999999998,-1193.24,590.67499999999995
170855.0,4919.4899999999998,4809.54,1478.6300000000001,5600.8199999999997,-1164.8499999999999,-1221.2,658.26499999999999
170856.0,5263.4200000000001,5317.2799999999997,1554.9100000000001,5669.8000000000002,-1430.53,-1214.8599999999999,714.29200000000003
170857.0,5592.3900000000003,5739.1300000000001,1569.8599999999999,5705.0500000000002,-1685.8399999999999,-1143.48,726.66800000000001
170858.0,5900.3500000000004,6087.6199999999999,1587.05,5727.8299999999999,-1942.6300000000001,-1034.3900000000001,711.221
170859.0,6171.46,6440.71,1681.1800000000001,5846.1300000000001,-2175.21,-893.69200000000001,663.17399999999998
170860.0,6399.71,6586.2200000000003,1652.3599999999999,5840.9899999999998,-2381.6799999999998,-744.71000000000004,592.68799999999999
170861.0,6589.1400000000003,6791.3999999999996,1744.8499999999999,5969.4799999999996,-2554.6599999999999,-599.21699999999998,505.12
170862.0,6746.8800000000001,6828.4799999999996,1720.1600000000001,5984.3000000000002,-2699.7800000000002,-470.06999999999999,406.53100000000001
170863.0,8389.3400000000001,921.303,-4408.6300000000001,2927.1199999999999,2721.7600000000002,-471.60300000000001,-1206.5699999999999
170864.0,3346.29,2960.21,2961.7800000000002,5990.0799999999999,-28.641200000000001,-812.89099999999996,111.70999999999999
170865.0,3803.8800000000001,2980.6599999999999,823.51900000000001,4714.4099999999999,-508.839,-859.077,162.91900000000001
170866.0,3997.7600000000002,3798.48,1784.3,5650.8299999999999,-424.44099999999997,-1118.8199999999999,394.69099999999997
170867.0,4445.9099999999999,4069.5599999999999,1374.01,5303.71,-851.65099999999995,-1246.02,521.76199999999994
170868.0,4752.3500000000004,4816.4499999999998,1659.5999999999999,5645.8000000000002,-1005.42,-1305.25,624.37300000000005
170869.0,5163.8599999999997,5118.6899999999996,1450.5599999999999,5471.3100000000004,-1327.6900000000001,-1301.73,688.15700000000004
170870.0,5525.5799999999999,5814.1099999999997,1686.5899999999999,5752.6499999999996,-1587.27,-1243.27,718.81200000000001
170871.0,5880.3299999999999,6087.3100000000004,1571.3599999999999,5664.71,-1876.6500000000001,-1131.3399999999999,709.22900000000004
170872.0,6184.9799999999996,6550.9200000000001,1727.8099999999999,5865.1899999999996,-2125.5599999999999,-988.51300000000003,669.13499999999999
170873.0,6449.1599999999999,6701.1400000000003,1662.4400000000001,5839.4700000000003,-2354.9699999999998,-832.27499999999998,601.85000000000002
170874.0,6667.2600000000002,6995.9399999999996,1810.53,6037.4300000000003,-2544.8499999999999,-679.34199999999998,517.10599999999999
170875.0,6850.1599999999999,7014.5799999999999,1739.5,6015.8800000000001,-2705.7600000000002,-541.14599999999996,419.16899999999998
170876.0,11295.1,-2006.5999999999999,-10148.299999999999,-961.64499999999998,3937.5599999999999,-1297.23,-208.72900000000001
170877.0,3232.25,2877.2600000000002,3955.9699999999998,5780.4200000000001,411.25200000000001,-985.90300000000002,-433.47899999999998
170878.0,3465.5599999999999,2370.1999999999998,390.822,4125.7600000000002,-287.09500000000003,-653.95799999999997,-40.805599999999998
170879.0,3776.29,3384.9499999999998,1840.1300000000001,5345.4200000000001,-128.01400000000001,-1238.98,340.37400000000002
170880.0,4212.3500000000004,3932.1999999999998,1448.76,5189.96,-715.697,-1264.01,424.66399999999999
170881.0,4552.5600000000004,4459.1199999999999,1527.1099999999999,5322.3900000000003,-818.35900000000004,-1389.0899999999999,592.99300000000005
170882.0,5028.2799999999997,5213.5799999999999,1678.5999999999999,5582.54,-1204.74,-1381.0799999999999,650.851
170883.0,5427.25,5602.9899999999998,1552.05,5512.0100000000002,-1469.1800000000001,-1343.3199999999999,710.90599999999995
170884.0,5830.3100000000004,6227.96,1724.5599999999999,5747.3900000000003,-1793.47,-1227.01,702.10500000000002
170885.0,6172.0600000000004,6531.8800000000001,1669.26,5752.9099999999999,-2060.8600000000001,-1083.8,674.53999999999996
170886.0,6472.6000000000004,6908.5100000000002,1785.45,5929.9499999999998,-2313.3099999999999,-920.149,608.32000000000005
170887.0,6721.3900000000003,7058.9799999999996,1751.55,5960.2600000000002,-2520.8600000000001,-759.89999999999998,527.85400000000004
170888.0,6930.3599999999997,7277.46,1850.5,6120.6899999999996,-2697.8499999999999,-612.90999999999997,430.30700000000002
170889.0,11206.799999999999,-1994.23,-11295.4,-3492.9499999999998,3203.4000000000001,-1861.1300000000001,1788.6900000000001
170890.0,3928.9299999999998,2824.4699999999998,3797.2600000000002,5101.6400000000003,1179.29,-1013.85,-1192.2
170891.0,3212.1300000000001,1143.74,-143.125,3359.5799999999999,173.89400000000001,-434.31400000000002,-285.02100000000002
170892.0,3603.5300000000002,3355.8400000000001,2214.8899999999999,5259.9799999999996,119.13,-1365.8499999999999,286.43700000000001
170893.0,3895.3299999999999,3462.0100000000002,1285.8199999999999,4791.5,-502.44,-1257.03,305.142
170894.0,4330.8900000000003,4425.21,1760.76,5315.7399999999998,-625.09799999999996,-1459.8299999999999,555.55899999999997
170895.0,4849.8000000000002,4860.4200000000001,1509.71,5266.3900000000003,-1045.0699999999999,-1458.8499999999999,607.45399999999995
170896.0,5302.7799999999997,5657.8800000000001,1718.21,5537.1599999999999,-1337.6900000000001,-1440.0999999999999,699.90499999999997
170897.0,5746.8999999999996,6121.4399999999996,1663.3599999999999,5588.3500000000004,-1688.71,-1323.1700000000001,692.13999999999999
170898.0,6130.0,6631.6899999999996,1755.6700000000001,5757.6099999999997,-1980.1099999999999,-1177.9400000000001,676.77999999999997
170899.0,6468.0699999999997,6937.1999999999998,1752.98,5841.9200000000001,-2255.1900000000001,-1008.73,613.19899999999996
170900.0,6750.0900000000001,7264.2799999999997,1854.8199999999999,6022.9499999999998,-2482.6799999999998,-840.34100000000001,537.23599999999999
170901.0,6985.9700000000003,7385.9700000000003,1824.8800000000001,6068.8699999999999,-2675.5700000000002,-685.35599999999999,440.69
170902.0,9431.8799999999992,-1565.1700000000001,-9354.8099999999995,-8847.6800000000003,2031.49,-1994.45,-1597.99
170903.0,9029.9300000000003,1656.4300000000001,518.98299999999995,1956.26,3620.3699999999999,-635.654,-3618.54
170904.0,3894.0500000000002,391.27699999999999,484.584,3572.8000000000002,1109.6500000000001,-501.21199999999999,-542.24300000000005
170905.0,3320.3699999999999,2753.3699999999999,1835.21,4373.6099999999997,176.21700000000001,-1394.48,217.69999999999999
170906.0,3514.21,3174.1399999999999,1466.5,4635.0100000000002,-142.92599999999999,-1244.46,180.27600000000001
170907.0,4094.9000000000001,3958.3299999999999,1595.8900000000001,4891.3100000000004,-445.46100000000001,-1503.49,495.24900000000002
170908.0,4635.9899999999998,4820.2299999999996,1713.1099999999999,5277.8000000000002,-835.80899999999997,-1542.45,569.79399999999998
170909.0,5151.9399999999996,5416.46,1627.49,5274.3199999999997,-1196.4300000000001,-1530.4400000000001,679.08900000000006
170910.0,5629.0299999999997,6140.6199999999999,1762.3599999999999,5556.04,-1558.1099999999999,-1420.3900000000001,682.84900000000005
170911.0,6059.75,6597.6499999999996,1739.6600000000001,5632.4799999999996,-1885.3699999999999,-1270.6700000000001,675.78599999999994
170912.0,6433.2399999999998,7053.3599999999997,1832.6900000000001,5839.5699999999997,-2178.6599999999999,-1097.4200000000001,616.95399999999995
170913.0,6750.3000000000002,7313.3000000000002,1824.9200000000001,5928.5200000000004,-2428.5799999999999,-920.73800000000006,544.505
170914.0,7014.8100000000004,7584.6800000000003,1908.71,6104.5799999999999,-2637.5999999999999,-757.83799999999997,449.98500000000001
170915.0,24320.0,-14674.200000000001,-30309.099999999999,-20661.099999999999,-1013.87,-4459.1899999999996,-10677.700000000001
170916.0,19970.099999999999,-6654.8699999999999,-17620.5,-6200.6300000000001,7138.54,-1739.3900000000001,-6094.3199999999997
170917.0,5940.6000000000004,360.54000000000002,1886.4100000000001,4313.7399999999998,2448.8099999999999,-1224.5999999999999,-540.91899999999998
170918.0,2475.73,2267.73,1677.99,3441.0100000000002,96.370199999999997,-1107.8199999999999,-33.183399999999999
170919.0,3307.6599999999999,2604.5799999999999,1498.23,4243.8699999999999,375.85000000000002,-1260.6700000000001,89.596400000000003
170920.0,3823.8099999999999,3793.27,1796.02,4822.9200000000001,-269.81200000000001,-1509.1900000000001,393.50299999999999
170921.0,4410.2799999999997,4295.7299999999996,1491.5899999999999,4803.2299999999996,-575.31100000000004,-1634.9000000000001,546.21400000000006
170922.0,4971.4300000000003,5444.8599999999997,1853.9000000000001,5301.1400000000003,-1041.96,-1613.8,644.30999999999995
170923.0,5482.4200000000001,5900.6999999999998,1637.6500000000001,5263.1300000000001,-1402.8,-1518.05,677.72900000000004
170924.0,5955.6000000000004,6686.29,1881.9300000000001,5635.25,-1772.24,-1362.72,667.99099999999999
170925.0,6369.4200000000001,6983.6499999999996,1752.8199999999999,5650.3699999999999,-2084.3499999999999,-1185.04,621.29999999999995
170926.0,6719.1499999999996,7497.6400000000003,1958.3,5970.1400000000003,-2357.5900000000001,-1001.65,549.59699999999998
170927.0,7015.7799999999997,7622.4099999999999,1853.1099999999999,5977.7399999999998,-2583.5900000000001,-829.33399999999995,458.93299999999999
170928.0,32751.299999999999,-28099.299999999999,-52618.300000000003,-23141.5,-8762.2000000000007,-4108.54,-3845.3600000000001
170929.0,25043.799999999999,-12583.700000000001,-33176.199999999997,-11105.299999999999,6661.9899999999998,-3070.4699999999998,1739.6500000000001
170930.0,7331.9499999999998,934.072,3207.9200000000001,3909.8099999999999,3221.3299999999999,-2260.8400000000001,105.498
170931.0,2051.5599999999999,1054.5,1016.64,2144.7399999999998,366.72899999999998,-556.15899999999999,-740.75999999999999
170932.0,3392.8800000000001,2000.98,1577.54,3777.4400000000001,919.87,-1274.76,59.8596
170933.0,3554.3099999999999,3276.8899999999999,1757.99,4514.8999999999996,-15.4947,-1497.3399999999999,249.102
170934.0,4212.1599999999999,3953.6599999999999,1499.8,4496.0100000000002,-300.60000000000002,-1728.46,536.05600000000004
170935.0,4758.3800000000001,5292.1700000000001,1954.8499999999999,5175.9300000000003,-852.49800000000005,-1695.5699999999999,598.26999999999998
170936.0,5312.3000000000002,5665.0299999999997,1556.6400000000001,4970.4099999999999,-1230.5599999999999,-1613.21,673.97299999999996
170937.0,5817.8900000000003,6725.3500000000004,2013.0,5597.4099999999999,-1636.8900000000001,-1454.96,657.16899999999998
170938.0,6274.8500000000004,6908.3800000000001,1698.45,5454.8000000000002,-1972.6199999999999,-1270.9000000000001,624.84199999999998
170939.0,6654.8299999999999,7600.3900000000003,2038.8,5930.6099999999997,-2267.27,-1082.6500000000001,552.548
170940.0,6985.6300000000001,7677.0500000000002,1840.22,5867.6499999999996,-2512.1900000000001,-900.10699999999997,466.815
170941.0,32634.200000000001,-25968.200000000001,-37148.199999999997,-22958.700000000001,-11487.200000000001,2204.77,12739.0
170942.0,23439.599999999999,-10642.1,-23072.299999999999,-16808.700000000001,3115.2199999999998,-1367.5899999999999,11529.700000000001
170943.0,7182.46,1290.1900000000001,4158.9700000000003,624.46500000000003,3010.3600000000001,-2137.23,195.523
170944.0,3665.9200000000001,-194.084,523.572,1419.3199999999999,1328.52,-29.9815,-1435.4000000000001
170945.0,3626.04,1308.3800000000001,1720.5699999999999,3258.25,1400.29,-1167.6900000000001,-48.427599999999998
170946.0,3472.8200000000002,2616.3699999999999,1696.77,4149.04,383.738,-1523.4300000000001,131.608
170947.0,4022.1900000000001,3589.29,1553.6600000000001,4180.0100000000002,-33.8673,-1800.5,501.30799999999999
170948.0,4540.6700000000001,4936.3800000000001,1900.2,4857.29,-612.71900000000005,-1784.9400000000001,562.39300000000003
170949.0,5114.5600000000004,5573.8299999999999,1674.99,4834.6599999999999,-1046.3499999999999,-1702.74,660.99000000000001
170950.0,5653.25,6538.3800000000001,1949.3099999999999,5334.2600000000002,-1474.8399999999999,-1547.8900000000001,648.65099999999995
170951.0,6144.7600000000002,6937.8599999999997,1790.47,5368.2299999999996,-1843.3599999999999,-1355.8499999999999,624.30200000000002
170952.0,6560.9399999999996,7578.5299999999997,2021.01,5767.0600000000004,-2157.6599999999999,-1162.1600000000001,556.00599999999997
170953.0,6919.1999999999998,7771.6599999999999,1901.1400000000001,5798.5100000000002,-2422.27,-970.93899999999996,473.28100000000001
170954.0,26266.400000000001,-5472.0,2317.3699999999999,-15805.200000000001,-5516.04,3578.0100000000002,10203.0
170955.0,19052.299999999999,-299.44,637.84100000000001,-16308.0,1306.0599999999999,326.005,5335.2600000000002
170956.0,9434.6700000000001,-298.85899999999998,2173.1100000000001,-5081.75,3260.6399999999999,-338.89100000000002,-2306.75
170957.0,6355.2399999999998,-2291.9299999999998,-324.952,-97.213200000000001,2891.6999999999998,470.94400000000002,-1850.1500000000001
170958.0,4367.2200000000003,292.91000000000003,1721.28,2759.3000000000002,1945.24,-968.60199999999998,-319.24599999999998
170959.0,3709.6500000000001,1595.3199999999999,1392.29,3418.4299999999998,894.87599999999998,-1592.8399999999999,64.659000000000006
170960.0,3888.0700000000002,3367.5100000000002,1824.9100000000001,4068.71,254.41200000000001,-1862.22,434.483
170961.0,4337.71,4404.4399999999996,1720.1500000000001,4352.7200000000003,-337.62799999999999,-1873.29,540.63199999999995
170962.0,4896.1000000000004,5472.1499999999996,1840.99,4713.6800000000003,-836.51099999999997,-1793.25,637.40099999999995
170963.0,5465.6300000000001,6286.5500000000002,1859.04,5003.9300000000003,-1293.1800000000001,-1637.25,644.26999999999998
170964.0,5979.2299999999996,6953.1499999999996,1910.25,5273.79,-1691.0799999999999,-1441.9100000000001,619.80700000000002
170965.0,6435.6000000000004,7481.5699999999997,1960.3599999999999,5529.8000000000002,-2029.6700000000001,-1238.6600000000001,559.29100000000005
170966.0,6815.7799999999997,7864.71,1993.5799999999999,5728.0299999999997,-2310.8600000000001,-1041.99,478.435
170967.0,26924.599999999999,7494.2200000000003,20385.700000000001,-8161.4499999999998,-1946.21,-3167.1199999999999,-4843.04
170968.0,27768.400000000001,3436.1799999999998,4522.6800000000003,-17334.599999999999,1342.98,-10.575699999999999,-10173.4
170969.0,18064.0,-3387.0,-3705.79,-10814.299999999999,6179.4300000000003,2550.79,-6815.0100000000002
170970.0,10205.4,-4416.0600000000004,-407.58199999999999,-1424.8099999999999,4866.4700000000003,1168.01,-2308.29
170971.0,5958.6599999999999,-1313.8499999999999,1369.4100000000001,2009.0699999999999,2775.3499999999999,-746.95500000000004,-682.78999999999996
170972.0,4352.7299999999996,816.96000000000004,1527.8699999999999,2974.7600000000002,1488.1099999999999,-1700.29,28.430800000000001
170973.0,3855.0900000000001,2742.02,1726.5999999999999,3556.6300000000001,577.33799999999997,-1911.4000000000001,355.70299999999997
170974.0,4161.3699999999999,4016.4200000000001,1785.3699999999999,4029.8099999999999,-18.726299999999998,-1958.3099999999999,517.46900000000005
170975.0,4691.3900000000003,5157.9200000000001,1828.55,4381.6599999999999,-605.22000000000003,-1885.6800000000001,616.47900000000004
170976.0,5245.6599999999999,6128.3400000000001,1921.6400000000001,4779.6800000000003,-1085.52,-1725.23,635.28599999999994
170977.0,5792.04,6794.3500000000004,1888.26,5005.0,-1518.96,-1526.51,617.14599999999996
170978.0,6270.4099999999999,7468.8000000000002,2029.6199999999999,5382.9300000000003,-1880.23,-1314.1800000000001,560.053
170979.0,6680.21,7818.1199999999999,1977.3800000000001,5518.8800000000001,-2179.4699999999998,-1110.5699999999999,484.214
170980.0,44539.699999999997,-5874.3999999999996,7835.0,-16431.599999999999,-6178.3599999999997,-12446.4,-17892.200000000001
170981.0,55240.400000000001,-14863.0,-29227.0,-40047.900000000001,660.625,-4022.77,-28998.900000000001
170982.0,41522.900000000001,-6992.9899999999998,-17499.799999999999,-19601.099999999999,15157.6,4568.9300000000003,-16687.200000000001
170983.0,19510.299999999999,-7614.0900000000001,-612.79600000000005,-3254.6300000000001,9367.2199999999993,2272.8499999999999,-4633.8299999999999
170984.0,8009.0900000000001,-4331.3900000000003,-350.928,437.23099999999999,3671.3600000000001,-760.98299999999995,-888.63199999999995
170985.0,5438.9899999999998,94.498400000000004,1824.3699999999999,2468.8299999999999,2195.4400000000001,-1879.7,11.616400000000001
170986.0,3909.3000000000002,2000.0999999999999,1608.4100000000001,3018.3699999999999,942.23800000000006,-1903.5599999999999,230.55699999999999
170987.0,4145.1199999999999,3466.9699999999998,1756.0599999999999,3556.2800000000002,353.68700000000001,-2073.9299999999998,521.26999999999998
170988.0,4476.25,4894.1000000000004,1933.26,4123.04,-355.35700000000003,-1964.0699999999999,579.39999999999998
170989.0,5029.04,5772.1800000000003,1828.77,4358.1499999999996,-848.36199999999997,-1820.3299999999999,637.03099999999995
170990.0,5571.7200000000003,6741.0,2023.8299999999999,4850.6099999999997,-1327.8800000000001,-1606.0999999999999,607.59900000000005
170991.0,6076.2799999999997,7271.7200000000003,1948.9200000000001,5051.04,-1706.8299999999999,-1388.9400000000001,562.87
170992.0,6504.3199999999997,7849.6000000000004,2084.6999999999998,5395.5500000000002,-2026.74,-1177.72,487.51799999999997
170993.0,63529.900000000001,-35651.099999999999,-17236.900000000001,-28407.700000000001,-16264.700000000001,-19258.900000000001,-24976.900000000001
170994.0,89408.0,-58460.599999999999,-99021.5,-75995.5,-9600.6900000000005,-13282.0,-44521.900000000001
170995.0,80951.100000000006,-38571.5,-84309.699999999997,-54959.800000000003,24815.200000000001,-101.90600000000001,-32117.900000000001
170996.0,39320.400000000001,-12389.299999999999,-11033.9,-5528.3500000000004,20202.799999999999,1445.1300000000001,-9587.5799999999999
170997.0,10879.6,-6213.6000000000004,1430.6700000000001,610.43100000000004,4518.8900000000003,-1075.6199999999999,-515.00400000000002
170998.0,6178.0799999999999,-1319.78,847.97299999999996,734.19799999999998,2764.7600000000002,-1890.1900000000001,-132.874
170999.0,4576.8999999999996,1601.0999999999999,2283.8299999999999,3166.0100000000002,1614.6400000000001,-1935.1500000000001,123.648
171000.0,4208.8599999999997,2409.6799999999998,1174.5699999999999,2474.73,643.80899999999997,-2163.6599999999999,521.73800000000006
171001.0,4309.1599999999999,4919.7399999999998,2446.29,4237.5600000000004,-7.1334400000000002,-2063.5100000000002,547.27099999999996
171002.0,4835.4799999999996,5095.9499999999998,1443.9200000000001,3588.8899999999999,-622.51300000000003,-1905.1800000000001,639.11599999999999
171003.0,5318.9799999999996,6855.5100000000002,2386.5799999999999,4884.1599999999999,-1095.3199999999999,-1690.98,596.22400000000005
171004.0,5860.9799999999996,6847.6499999999996,1679.74,4491.1899999999996,-1520.7,-1456.9100000000001,566.70600000000002
171005.0,6288.6800000000003,7984.4399999999996,2340.75,5381.8000000000002,-1847.29,-1245.26,490.42899999999997
171006.0,70572.800000000003,-66457.399999999994,-41098.699999999997,-33936.400000000001,-25934.400000000001,-17100.799999999999,-20078.400000000001
171007.0,106073.0,-120908.0,-175359.0,-105857.0,-32239.900000000001,-16526.400000000001,-33180.300000000003
171008.0,107297.0,-87898.100000000006,-184141.0,-93113.399999999994,16865.299999999999,-8288.9899999999998,-23560.0
171009.0,61703.300000000003,-24908.299999999999,-47161.199999999997,-18270.5,31312.0,-4246.25,-6452.5200000000004
171010.0,18195.700000000001,-6001.6999999999998,7281.3999999999996,1810.5699999999999,7573.1400000000003,-2100.8499999999999,-2007.01
171011.0,6109.0299999999997,-3777.2600000000002,-1547.01,-1665.1900000000001,2950.5900000000001,-1353.8,-571.39700000000005
171012.0,6412.6800000000003,233.834,2131.2399999999998,2244.73,2693.1900000000001,-2263.5799999999999,233.04900000000001
171013.0,4096.8500000000004,2409.0,1788.27,2645.4299999999998,853.57299999999998,-2128.3400000000001,374.56099999999998
171014.0,4430.4200000000001,3629.4000000000001,1658.9300000000001,2958.5799999999999,431.62200000000001,-2230.6199999999999,614.24099999999999
171015.0,4595.0799999999999,5494.8100000000004,2236.0,3955.3400000000001,-396.14800000000002,-1969.1199999999999,588.41399999999999
171016.0,5098.3599999999997,5924.3699999999999,1714.3499999999999,3843.9000000000001,-832.48199999999997,-1777.8699999999999,615.88
171017.0,5592.21,7221.4899999999998,2292.0700000000002,4754.5100000000002,-1310.9100000000001,-1524.55,553.85799999999995
171018.0,6058.8100000000004,7381.3599999999997,1878.23,4625.2200000000003,-1646.6800000000001,-1305.1400000000001,500.32100000000003
171019.0,63419.199999999997,-78522.100000000006,-48599.800000000003,-34091.800000000003,-27815.200000000001,-5079.5799999999999,-5279.1300000000001
171020.0,101145.0,-142254.0,-174630.0,-101950.0,-44943.900000000001,-1246.45,7922.3299999999999
171021.0,104502.0,-110826.0,-206277.0,-108199.0,-5555.3199999999997,-4831.1099999999997,21522.0
171022.0,68112.5,-39813.800000000003,-82524.300000000003,-44836.0,28412.599999999999,-10140.9,9558.0300000000007
171023.0,27026.299999999999,-7008.7399999999998,2661.7399999999998,-581.31100000000004,13213.6,-4643.2200000000003,-4805.3199999999997
171024.0,8136.6599999999999,-6059.9099999999999,-1866.3199999999999,-2165.52,3853.9499999999998,-738.78099999999995,-1093.6099999999999
171025.0,7834.6800000000003,-1069.9300000000001,1597.55,683.86699999999996,3497.71,-2484.8200000000002,463.46800000000002
171026.0,4591.4700000000003,1914.0699999999999,2280.8600000000001,2801.0799999999999,1404.1300000000001,-2194.77,199.935
171027.0,4649.8599999999997,2692.0100000000002,1189.99,1854.1300000000001,751.89099999999996,-2362.7199999999998,701.97699999999998
171028.0,4416.04,5452.9099999999999,2677.8899999999999,3958.3899999999999,-67.256699999999995,-2067.8200000000002,539.51599999999996
171029.0,4887.4200000000001,5312.7799999999997,1406.6099999999999,3102.0599999999999,-587.37,-1838.3,633.47299999999996
171030.0,5307.0200000000004,7191.4700000000003,2550.29,4622.8199999999997,-1055.0,-1604.27,543.85400000000004
171031.0,5794.3699999999999,7018.6700000000001,1717.26,4125.6000000000004,-1433.9300000000001,-1353.75,506.91800000000001
171032.0,50179.599999999999,-63869.900000000001,-35225.199999999997,-31208.799999999999,-20655.0,7413.4399999999996,6364.5
171033.0,85724.399999999994,-100388.0,-94879.600000000006,-76505.600000000006,-29343.099999999999,16064.200000000001,34265.099999999999
171034.0,87602.199999999997,-91912.600000000006,-124068.0,-103681.0,-15416.799999999999,4505.2299999999996,45115.199999999997
171035.0,51971.800000000003,-43146.699999999997,-80400.100000000006,-65982.5,12496.5,-9579.4799999999996,17307.900000000001
171036.0,33299.199999999997,-12336.4,-17415.099999999999,-13369.1,17412.799999999999,-6527.5100000000002,-4073.5100000000002
171037.0,15528.4,-7224.4200000000001,-136.50399999999999,-2146.3400000000001,7609.8900000000003,-1276.3800000000001,-2737.48
171038.0,8563.7199999999993,-2760.1799999999998,452.17899999999997,-783.83799999999997,4164.3199999999997,-2116.27,-11.1957
171039.0,6301.8699999999999,270.52699999999999,1700.05,1647.0,2325.8099999999999,-2647.3000000000002,404.24799999999999
171040.0,4669.5299999999997,2906.9699999999998,2003.3,2052.3299999999999,947.19399999999996,-2392.6999999999998,622.67200000000003
171041.0,4482.75,4165.46,1859.72,2606.8899999999999,344.26799999999997,-2201.27,591.83600000000001
171042.0,4640.0900000000001,5653.1499999999996,2172.5599999999999,3381.4699999999998,-333.75,-1893.1600000000001,598.86000000000001
171043.0,5059.4700000000003,6307.3400000000001,1956.1800000000001,3609.6199999999999,-776.89099999999996,-1670.51,560.84199999999998
171044.0,5480.5200000000004,7235.8299999999999,2227.5599999999999,4228.7200000000003,-1188.29,-1411.8800000000001,501.58699999999999
171045.0,35375.0,-36922.0,-13658.4,-25323.900000000001,-10298.299999999999,11312.1,6914.6700000000001
171046.0,55162.800000000003,-42024.699999999997,-20240.900000000001,-45207.699999999997,-5770.0299999999997,15248.299999999999,23745.299999999999
171047.0,54009.400000000001,-49810.0,-31624.0,-67690.699999999997,-11248.0,3358.3699999999999,22568.400000000001
171048.0,29058.799999999999,-45704.900000000001,-67522.600000000006,-72420.899999999994,-2738.1100000000001,-6715.5699999999997,5155.8000000000002
171049.0,38720.099999999999,-28142.799999999999,-50617.599999999999,-40307.800000000003,17042.900000000001,-7375.75,-5321.75
171050.0,26933.099999999999,-11402.700000000001,-9882.4899999999998,-7471.5699999999997,13642.700000000001,-3796.77,-6109.6800000000003
171051.0,11765.6,-5163.7200000000003,-2114.9899999999998,-1266.7,6045.0699999999997,-2219.8200000000002,-687.39499999999998
171052.0,8049.9499999999998,-868.40899999999999,1691.76,326.18200000000002,3030.0,-3159.25,893.15200000000004
171053.0,4919.6999999999998,2630.3600000000001,2430.6900000000001,1991.3,1264.5599999999999,-2477.96,470.67099999999999
171054.0,4674.0200000000004,3271.1300000000001,1464.1700000000001,1546.99,723.47400000000005,-2293.6599999999999,676.09000000000003
171055.0,4471.9899999999998,5531.4200000000001,2546.0900000000001,3227.6599999999999,-22.971,-1976.0699999999999,559.93600000000004
171056.0,4812.21,5686.8400000000001,1688.01,2875.9099999999999,-494.48700000000002,-1710.23,576.66700000000003
171057.0,5170.2299999999996,7115.0299999999997,2447.5700000000002,3984.0999999999999,-906.43799999999999,-1475.98,502.13299999999998
171058.0,25035.299999999999,-17263.5,1518.7,-18989.799999999999,-2632.6300000000001,8430.5,1235.0799999999999
171059.0,31282.799999999999,-15017.9,5424.1199999999999,-24028.599999999999,3902.9299999999998,6952.7200000000003,5905.6000000000004
171060.0,33784.199999999997,-33785.5,-4951.7799999999997,-37191.599999999999,-8108.5100000000002,-988.29999999999995,31.6538
171061.0,28539.799999999999,-56457.199999999997,-68769.600000000006,-65920.300000000003,-13113.299999999999,-5348.3199999999997,-5422.1400000000003
171062.0,40921.599999999999,-49339.699999999997,-87607.5,-59818.800000000003,8486.9300000000003,-8147.3100000000004,-5358.1000000000004
171063.0,35873.400000000001,-21829.5,-37633.400000000001,-18939.200000000001,16285.5,-6992.5500000000002,-3686.1999999999998
171064.0,17533.799999999999,-7647.4399999999996,-6293.2700000000004,-2793.7399999999998,8991.1100000000006,-3879.9099999999999,557.33600000000001
171065.0,9383.0900000000001,-1275.3099999999999,2507.1199999999999,-375.36500000000001,3553.79,-3462.48,908.32399999999996
171066.0,5659.1999999999998,1473.76,1979.55,930.22199999999998,1729.5799999999999,-2675.4299999999998,500.762
171067.0,4903.7399999999998,3000.7199999999998,1807.96,1172.26,1062.3,-2354.5799999999999,693.80499999999995
171068.0,4452.4799999999996,4777.9300000000003,2298.9200000000001,2396.6500000000001,330.92599999999999,-2052.73,560.40999999999997
171069.0,4585.1999999999998,5496.0500000000002,1951.0799999999999,2605.8600000000001,-188.43899999999999,-1756.27,574.375
171070.0,4883.4300000000003,6555.96,2264.8299999999999,3306.4299999999998,-604.03099999999995,-1521.22,510.50799999999998
171071.0,23382.599999999999,-10899.700000000001,5287.6999999999998,-17178.299999999999,1447.04,4797.1000000000004,-4772.8999999999996
171072.0,24624.299999999999,-15280.799999999999,3313.9899999999998,-20367.799999999999,4802.8000000000002,3639.9099999999999,-3223.3699999999999
171073.0,26913.299999999999,-36627.5,-9903.1299999999992,-28594.5,-5867.1400000000003,1068.48,-4226.3800000000001
171074.0,31273.5,-64372.0,-64896.400000000001,-54111.900000000001,-16972.400000000001,397.18799999999999,903.01900000000001
171075.0,40700.199999999997,-59890.400000000001,-95132.199999999997,-58559.300000000003,-4226.3500000000004,-3266.4299999999998,9665.1100000000006
171076.0,38625.0,-32037.599999999999,-57662.599999999999,-31878.799999999999,11301.0,-7012.3100000000004,10008.4
171077.0,22012.0,-9790.5,-11249.0,-7707.3699999999999,10171.299999999999,-6113.6000000000004,4184.5100000000002
171078.0,10838.200000000001,-1620.9000000000001,2511.6199999999999,-704.31500000000005,4264.6400000000003,-3960.79,755.46799999999996
171079.0,6613.9499999999998,167.56299999999999,1505.8099999999999,-539.32000000000005,2204.2399999999998,-2866.73,652.505
171080.0,5281.1899999999996,2888.4299999999998,2378.3600000000001,1008.1799999999999,1415.7,-2429.3600000000001,667.49400000000003
171081.0,4561.9300000000003,3800.1900000000001,1872.9200000000001,1325.1199999999999,699.721,-2101.6100000000001,583.62099999999998
171082.0,4450.4499999999998,5311.0699999999997,2296.27,2343.1199999999999,150.87,-1809.5599999999999,567.072
171083.0,4626.9300000000003,5889.71,2038.74,2551.8899999999999,-282.89800000000002,-1553.6400000000001,519.58399999999995
171084.0,25392.700000000001,-14239.700000000001,-939.78099999999995,-21768.5,3201.5900000000001,2942.0300000000002,-9208.1800000000003
171085.0,24341.5,-18649.900000000001,-2175.25,-21390.900000000001,5125.5600000000004,3915.8600000000001,-6918.7700000000004
171086.0,22831.200000000001,-33182.699999999997,-10657.299999999999,-25118.400000000001,-1412.72,5808.1999999999998,-2786.6700000000001
171087.0,31669.5,-51043.199999999997,-38311.800000000003,-39119.900000000001,-9801.7999999999993,9085.8199999999997,10240.799999999999
171088.0,44868.599999999999,-49917.900000000001,-57210.099999999999,-48564.0,-6751.3900000000003,5783.7200000000003,23883.099999999999
171089.0,38432.5,-28245.400000000001,-40291.300000000003,-35449.0,4181.7299999999996,-2632.3899999999999,20765.299999999999
171090.0,22658.900000000001,-8982.7600000000002,-10379.1,-12205.0,8029.7700000000004,-6133.6499999999996,8150.6000000000004
171091.0,12418.0,-2587.4400000000001,1388.27,-2427.8000000000002,4798.0200000000004,-4559.0699999999997,1590.5999999999999
171092.0,7636.5799999999999,-344.07799999999997,1857.55,-1323.72,2649.8499999999999,-3043.8699999999999,705.529
171093.0,5844.9099999999999,1995.72,2209.8000000000002,40.714599999999997,1811.3399999999999,-2496.3200000000002,668.06200000000001
171094.0,4816.79,3338.8800000000001,2052.71,776.67600000000004,1074.3800000000001,-2140.04,598.79200000000003
171095.0,4451.2700000000004,4655.9499999999998,2217.5799999999999,1614.8199999999999,518.346,-1849.78,566.83600000000001
171096.0,4440.6199999999999,5457.29,2133.3000000000002,2048.1199999999999,65.5916,-1584.95,526.20899999999995
171097.0,27945.599999999999,-21874.200000000001,-12457.700000000001,-30881.799999999999,4435.5,2646.4099999999999,-12197.0
171098.0,25877.799999999999,-24331.400000000001,-10958.200000000001,-28252.700000000001,6568.0600000000004,4806.9899999999998,-8646.0599999999995
171099.0,23525.400000000001,-28991.400000000001,-12319.799999999999,-27282.700000000001,4024.0300000000002,8552.7000000000007,-3318.8899999999999
171100.0,30974.200000000001,-27968.900000000001,-10975.6,-26381.5,2869.9899999999998,11980.1,8940.6599999999999
171101.0,39729.800000000003,-25055.599999999999,-7999.0,-31100.599999999999,1306.1900000000001,8140.1599999999999,17738.599999999999
171102.0,30926.0,-16101.1,-8526.0699999999997,-28149.700000000001,2075.96,847.85299999999995,14691.5
171103.0,20169.299999999999,-8424.2800000000007,-5947.1599999999999,-16016.700000000001,5676.0500000000002,-3887.5700000000002,7793.5900000000001
171104.0,13746.700000000001,-3396.4299999999998,1136.4300000000001,-5340.9899999999998,4916.7799999999997,-4619.4499999999998,2535.48
171105.0,8610.8600000000006,-661.69399999999996,2225.5999999999999,-2016.8499999999999,3013.6300000000001,-3214.8099999999999,776.82899999999995
171106.0,6574.3400000000001,983.88400000000001,1958.24,-1104.5899999999999,2234.1399999999999,-2545.5100000000002,698.322
171107.0,5239.1599999999999,2863.98,2309.1900000000001,225.31,1466.79,-2169.52,596.49400000000003
171108.0,4607.6000000000004,3852.1799999999998,2046.78,750.42399999999998,904.06899999999996,-1871.1600000000001,575.56299999999999
171109.0,4386.5900000000001,5007.1499999999996,2291.73,1537.0999999999999,444.56999999999999,-1612.9000000000001,533.16200000000003
171110.0,31047.200000000001,-32544.200000000001,-28139.0,-44293.800000000003,6191.6000000000004,2722.27,-14346.6
171111.0,29541.400000000001,-31029.0,-20691.700000000001,-38161.400000000001,8369.7600000000002,5013.2600000000002,-10888.5
171112.0,27551.299999999999,-26318.200000000001,-16141.4,-31310.099999999999,8531.0499999999993,8729.1200000000008,-6654.7399999999998
171113.0,31774.299999999999,-15687.700000000001,-2019.5599999999999,-20183.200000000001,12063.200000000001,9844.3700000000008,2147.3499999999999
171114.0,31325.299999999999,-9849.7700000000004,13213.9,-14028.1,7959.2399999999998,4673.25,5162.4300000000003
171115.0,20319.400000000001,-8966.1499999999996,5480.3000000000002,-15663.9,2594.46,527.73400000000004,3720.5999999999999
171116.0,15719.1,-7531.8500000000004,-2625.9299999999998,-14572.9,4675.9399999999996,-2385.0500000000002,4329.9099999999999
171117.0,14192.0,-3170.5700000000002,2173.9400000000001,-6910.4200000000001,4789.1300000000001,-4127.8800000000001,2513.29
171118.0,9510.8199999999997,-1374.21,2216.4200000000001,-3407.3099999999999,3290.9099999999999,-3222.27,911.10299999999995
171119.0,7396.7399999999998,274.495,2053.4200000000001,-2011.3699999999999,2643.3699999999999,-2562.1799999999998,730.101
171120.0,5834.8400000000001,2074.3499999999999,2310.4099999999999,-634.71100000000001,1886.72,-2180.75,595.82299999999998
171121.0,4936.4099999999999,3216.8600000000001,2133.4400000000001,73.011799999999994,1308.0999999999999,-1877.23,580.61500000000001
171122.0,4512.6000000000004,4295.8100000000004,2256.1900000000001,781.71699999999998,851.15200000000004,-1629.3399999999999,542.97199999999998
171123.0,36103.300000000003,-44692.400000000001,-45538.900000000001,-61264.699999999997,8055.9200000000001,2573.9400000000001,-16608.799999999999
171124.0,34784.099999999999,-41088.5,-33772.800000000003,-51358.800000000003,9961.25,4874.3800000000001,-14222.6
171125.0,32167.700000000001,-32217.5,-28241.099999999999,-40713.699999999997,11356.1,8030.5200000000004,-10529.799999999999
171126.0,35324.199999999997,-16999.700000000001,-8351.3700000000008,-22305.900000000001,17053.799999999999,8178.0200000000004,-2934.0900000000001
171127.0,30615.099999999999,-9813.1599999999999,12700.9,-7703.1499999999996,11950.4,3811.4099999999999,692.01400000000001
171128.0,18317.799999999999,-8536.7600000000002,9300.5799999999999,-6295.3500000000004,3381.0,757.19799999999998,2331.9299999999998
171129.0,14019.6,-7551.5600000000004,543.02200000000005,-10828.299999999999,3395.23,-1745.03,4084.48
171130.0,13784.200000000001,-3719.98,2596.4299999999998,-8017.0500000000002,4207.2200000000003,-3451.5999999999999,2284.5799999999999
171131.0,10291.4,-1967.26,2382.1799999999998,-4748.1800000000003,3562.4699999999998,-2985.5700000000002,885.33799999999997
171132.0,8250.1100000000006,-556.93499999999995,2084.0599999999999,-3082.8499999999999,3021.3400000000001,-2515.75,745.17200000000003
171133.0,6568.5699999999997,1278.6300000000001,2357.3699999999999,-1506.99,2319.1199999999999,-2160.3899999999999,600.29700000000003
171134.0,5460.1700000000001,2398.4200000000001,2124.9200000000001,-765.47000000000003,1740.05,-1870.78,580.50900000000001
171135.0,4833.75,3596.79,2313.9099999999999,67.9726,1278.4000000000001,-1629.6500000000001,554.85599999999999
171136.0,47373.400000000001,-62951.0,-70222.300000000003,-86182.0,9463.6299999999992,1793.9100000000001,-22673.599999999999
171137.0,43077.5,-55712.199999999997,-53574.400000000001,-68909.600000000006,12289.4,5111.7200000000003,-19298.0
171138.0,37053.800000000003,-43216.099999999999,-44095.599999999999,-52479.400000000001,13702.9,7839.2700000000004,-13501.6
171139.0,39211.699999999997,-24993.700000000001,-21921.5,-30417.200000000001,19938.799999999999,7812.6099999999997,-5951.5299999999997
171140.0,36644.099999999999,-10970.700000000001,8580.8199999999997,-7539.6499999999996,17594.599999999999,5387.8900000000003,118.41
171141.0,28143.400000000001,-7064.1700000000001,18305.200000000001,-1419.48,7761.9499999999998,2414.9200000000001,4529.4399999999996
171142.0,20101.799999999999,-5712.1199999999999,11477.5,-6401.0200000000004,2788.4400000000001,-797.86900000000003,4866.5200000000004
171143.0,13825.6,-3968.3600000000001,5025.8199999999997,-7934.4799999999996,3014.0500000000002,-2548.8699999999999,2008.8
171144.0,10808.4,-2697.8299999999999,2449.3499999999999,-5919.4399999999996,3738.0799999999999,-2550.9899999999998,801.15599999999995
171145.0,9176.9200000000001,-1257.9300000000001,2364.8499999999999,-4022.1100000000001,3425.96,-2361.7399999999998,705.10900000000004
171146.0,7394.1700000000001,332.74000000000001,2330.0100000000002,-2512.8499999999999,2753.98,-2090.25,589.73199999999997
171147.0,6169.4899999999998,1608.4200000000001,2228.5900000000001,-1552.1400000000001,2198.71,-1844.4200000000001,583.154
171148.0,5363.1000000000004,2721.7800000000002,2284.4000000000001,-786.90800000000002,1732.49,-1616.6500000000001,562.74199999999996
171149.0,60856.400000000001,-92154.300000000003,-113003.0,-118364.0,8483.5900000000001,16.436699999999998,-31157.700000000001
171150.0,53449.699999999997,-76018.199999999997,-85181.5,-91315.399999999994,15811.4,5233.3699999999999,-24812.0
171151.0,43961.300000000003,-60124.800000000003,-65285.099999999999,-69534.300000000003,17154.700000000001,7966.1499999999996,-16255.799999999999
171152.0,43291.599999999999,-36674.400000000001,-38893.099999999999,-42372.199999999997,21992.099999999999,8100.21,-8197.8999999999996
171153.0,44261.199999999997,-13496.799999999999,-664.32399999999996,-11875.1,23792.700000000001,6150.6499999999996,-513.90899999999999
171154.0,38704.900000000001,-2411.3000000000002,27609.0,2988.3299999999999,15058.799999999999,2222.6500000000001,3399.29
171155.0,28057.599999999999,-2077.1100000000001,25229.0,-724.35299999999995,4608.3100000000004,-534.88199999999995,2011.8499999999999
171156.0,15880.4,-4026.46,9713.2800000000007,-6542.1499999999996,2245.52,-1456.47,583.75900000000001
171157.0,11269.1,-3999.04,2554.3299999999999,-7171.0100000000002,3662.3499999999999,-1965.1800000000001,676.52300000000002
171158.0,10071.0,-2230.3600000000001,2356.8400000000001,-5142.7700000000004,3826.5999999999999,-2119.8299999999999,614.226
171159.0,8332.7600000000002,-620.18299999999999,2404.75,-3453.9099999999999,3224.3000000000002,-1964.8699999999999,551.48199999999997
171160.0,7030.3299999999999,603.44899999999996,2201.8200000000002,-2521.2600000000002,2676.29,-1790.45,579.58699999999999
171161.0,6095.5600000000004,1861.6300000000001,2362.5500000000002,-1586.0899999999999,2217.02,-1588.72,569.63
171162.0,67666.300000000003,-125769.0,-162864.0,-152046.0,4261.8999999999996,-750.74599999999998,-33817.0
171163.0,62851.199999999997,-103703.0,-128451.0,-121317.0,18757.799999999999,4561.8500000000004,-27961.200000000001
171164.0,54070.0,-80353.899999999994,-92601.5,-89912.0,21436.400000000001,7453.8900000000003,-20445.299999999999
171165.0,49878.0,-52503.599999999999,-61111.300000000003,-57466.099999999999,24857.200000000001,8468.8700000000008,-11000.1
171166.0,51677.0,-21119.799999999999,-15565.4,-20672.0,29067.200000000001,5916.6499999999996,-859.78099999999995
171167.0,45901.800000000003,-3241.9099999999999,26202.200000000001,2522.3200000000002,21379.5,383.58499999999998,1268.8900000000001
171168.0,32870.199999999997,-1286.51,30589.5,3852.75,7778.5600000000004,-1625.95,-2026.76
171169.0,18766.900000000001,-4739.7399999999998,13347.9,-4213.2600000000002,2814.0700000000002,-1044.4000000000001,-1554.5999999999999
171170.0,12563.0,-4679.8500000000004,4464.5900000000001,-7218.8400000000001,3613.0300000000002,-1333.6700000000001,122.401
171171.0,10904.6,-3053.1999999999998,2681.3099999999999,-5936.6899999999996,4164.5600000000004,-1689.28,441.57400000000001
171172.0,9443.5400000000009,-1865.6900000000001,2286.1999999999998,-4584.8599999999997,3775.5599999999999,-1799.1600000000001,510.892
171173.0,8021.1599999999999,-277.04899999999998,2412.2800000000002,-3293.9899999999998,3174.1599999999999,-1708.0,551.81700000000001
171174.0,7007.3400000000001,705.49199999999996,2217.6900000000001,-2638.1199999999999,2733.8299999999999,-1545.8900000000001,574.24000000000001
171175.0,73976.199999999997,-163744.0,-211962.0,-191911.0,-481.411,-818.21000000000004,-35164.300000000003
171176.0,71670.300000000003,-138615.0,-180462.0,-158196.0,18739.299999999999,4338.9499999999998,-30063.799999999999
171177.0,64372.800000000003,-110768.0,-137645.0,-116775.0,24914.900000000001,7576.46,-22452.900000000001
171178.0,57630.5,-71950.300000000003,-90149.100000000006,-72599.600000000006,28710.900000000001,8295.8199999999997,-10361.299999999999
171179.0,57856.699999999997,-32796.300000000003,-33103.199999999997,-31846.900000000001,33072.199999999997,4647.1499999999996,-1.4168099999999999
171180.0,50541.300000000003,-9322.8899999999994,16863.900000000001,-2545.9299999999998,25799.099999999999,-918.375,549.88300000000004
171181.0,35774.5,-2133.2600000000002,30695.700000000001,7095.1400000000003,11329.4,-2400.0799999999999,-2416.9899999999998
171182.0,22247.5,-5476.5900000000001,16785.5,-1565.1099999999999,4119.5,-1500.6600000000001,-2118.5300000000002
171183.0,14599.4,-6603.9700000000003,5492.6700000000001,-7922.1899999999996,3722.9000000000001,-1099.3499999999999,-1143.6500000000001
171184.0,11788.0,-4622.4399999999996,2274.8200000000002,-7057.6700000000001,4640.96,-1158.22,-75.928600000000003
171185.0,10746.4,-3225.27,2166.5999999999999,-5688.7200000000003,4419.1700000000001,-1606.46,494.23200000000003
171186.0,9117.7700000000004,-1381.4400000000001,2484.0100000000002,-4186.5,3690.3899999999999,-1617.49,508.26799999999997
171187.0,8056.9099999999999,-452.24200000000002,2154.6199999999999,-3625.52,3269.4899999999998,-1492.1099999999999,585.44299999999998
171188.0,84880.899999999994,-201876.0,-263416.0,-229628.0,-6910.3999999999996,-2712.0500000000002,-37372.099999999999
171189.0,82666.5,-172980.0,-237104.0,-194658.0,16915.0,7134.9200000000001,-29614.099999999999
171190.0,75438.5,-132565.0,-177976.0,-135689.0,30164.299999999999,11683.0,-14396.700000000001
171191.0,64900.300000000003,-89948.199999999997,-113070.0,-85407.0,33346.800000000003,8444.4200000000001,-784.83299999999997
171192.0,60143.900000000001,-46668.900000000001,-49391.099999999999,-43944.0,34330.099999999999,2576.79,3626.5300000000002
171193.0,53269.5,-16264.799999999999,4765.7200000000003,-9471.5799999999999,28739.099999999999,-1576.0699999999999,1506.74
171194.0,40988.199999999997,-6314.6199999999999,27038.299999999999,3751.5599999999999,16088.1,-2791.0799999999999,-850.53899999999999
171195.0,28315.5,-7276.1999999999998,20693.400000000001,-1512.04,6095.5699999999997,-2402.5300000000002,-2495.3200000000002
171196.0,16714.5,-7285.6700000000001,7529.7200000000003,-6756.5500000000002,3756.8400000000001,-1146.8099999999999,-2655.25
171197.0,12516.200000000001,-6688.4099999999999,942.91800000000001,-8086.6199999999999,5273.5299999999997,-744.51300000000003,-482.98700000000002
171198.0,12266.700000000001,-4473.4099999999999,2276.48,-6480.1400000000003,5174.6899999999996,-1434.71,526.68499999999995
171199.0,10299.4,-2548.9099999999999,2586.8600000000001,-5017.8100000000004,4221.0600000000004,-1506.96,469.74400000000003
171200.0,9237.2199999999993,-1745.71,2052.7399999999998,-4669.1300000000001,3824.71,-1442.3399999999999,611.21900000000005
171201.0,93135.600000000006,-240481.0,-315465.0,-270045.0,-19730.400000000001,-5517.0900000000001,-32327.5
171202.0,99628.100000000006,-199894.0,-294310.0,-232219.0,16280.299999999999,12247.799999999999,-24313.0
171203.0,97667.699999999997,-152268.0,-214004.0,-162248.0,41918.800000000003,18004.799999999999,-222.28100000000001
171204.0,76105.5,-99172.800000000003,-114266.0,-94097.300000000003,39812.300000000003,9137.9300000000003,12333.1
171205.0,59151.900000000001,-54384.199999999997,-51714.199999999997,-50537.900000000001,32740.5,1423.51,9405.4699999999993
171206.0,53744.900000000001,-24726.900000000001,-7835.0,-18984.099999999999,29445.299999999999,-2058.3099999999999,4219.8999999999996
171207.0,45663.699999999997,-10212.1,21950.299999999999,-345.39699999999999,20192.0,-3978.8400000000001,183.74199999999999
171208.0,33024.400000000001,-10627.200000000001,20945.099999999999,-2310.0999999999999,8145.9399999999996,-3884.52,-3780.3400000000001
171209.0,18521.099999999999,-10491.1,6274.1499999999996,-7820.5600000000004,4004.6100000000001,-1456.72,-3878.25
171210.0,13923.9,-9124.2000000000007,-731.72400000000005,-9922.4599999999991,6163.5299999999997,-452.358,-712.45600000000002
171211.0,14132.9,-5765.9099999999999,2351.6300000000001,-7220.04,6172.3999999999996,-1279.0,490.57499999999999
171212.0,11561.4,-3977.75,2424.4099999999999,-5945.0600000000004,4803.9300000000003,-1450.45,471.66699999999997
171213.0,10450.0,-2936.6799999999998,2039.9000000000001,-5597.6099999999997,4351.4799999999996,-1411.1400000000001,666.77300000000002
171214.0,108653.0,-271718.0,-346146.0,-307344.0,-41243.099999999999,-10292.700000000001,-27249.400000000001
171215.0,124804.0,-214361.0,-345077.0,-273835.0,15594.200000000001,14587.299999999999,-21280.400000000001
171216.0,130679.0,-142945.0,-218777.0,-173980.0,60670.199999999997,22120.599999999999,8292.8099999999995
171217.0,92378.5,-94189.899999999994,-92521.800000000003,-94159.800000000003,49221.400000000001,9927.1000000000004,17955.299999999999
171218.0,60305.900000000001,-57207.199999999997,-41505.099999999999,-53435.300000000003,31528.200000000001,1899.02,12142.799999999999
171219.0,53506.099999999999,-30443.200000000001,-11618.9,-26570.900000000001,28321.200000000001,-2013.6099999999999,7023.96
171220.0,47664.599999999999,-13728.9,17109.200000000001,-4700.7200000000003,22000.299999999999,-4071.6999999999998,2313.6100000000001
171221.0,34756.099999999999,-12951.1,20512.0,-1188.0999999999999,9666.9500000000007,-4135.3500000000004,-1984.45
171222.0,18830.400000000001,-14709.9,3932.1199999999999,-8833.7700000000004,3733.4899999999998,-2092.8899999999999,-3006.3299999999999
171223.0,13922.6,-12850.5,-4822.04,-12709.4,6500.0600000000004,-825.09400000000005,-752.82399999999996
171224.0,15592.9,-7643.8699999999999,872.97400000000005,-8381.2299999999996,7235.1099999999997,-1365.8399999999999,616.928
171225.0,12980.700000000001,-4872.7600000000002,2864.4200000000001,-6314.2700000000004,5397.1700000000001,-1489.3399999999999,673.69200000000001
171226.0,11508.4,-4074.2199999999998,2047.24,-6470.3000000000002,4742.71,-1376.05,683.68499999999995
171227.0,2135.2199999999998,1080.97,645.86599999999999,2379.1100000000001,-513.11000000000001,639.80399999999997,-184.37299999999999
171228.0,2104.3499999999999,853.88199999999995,556.79600000000005,2334.1199999999999,-456.74000000000001,568.572,-194.50299999999999
171229.0,2071.77,801.15599999999995,618.06899999999996,2436.8899999999999,-395.36500000000001,481.26499999999999,-199.839
171230.0,2040.04,634.83299999999997,558.65099999999995,2403.2800000000002,-335.86900000000003,382.459,-197.14099999999999
171231.0,2011.01,497.91800000000001,526.53800000000001,2376.5300000000002,-281.37799999999999,274.83499999999998,-186.006
171232.0,1983.8699999999999,319.33800000000002,431.18799999999999,2274.3099999999999,-229.267,159.29900000000001,-169.47800000000001
171233.0,1958.28,290.16800000000001,458.62700000000001,2283.8400000000001,-179.66200000000001,38.592700000000001,-148.67699999999999
171234.0,1935.4300000000001,178.51400000000001,383.392,2176.3400000000001,-135.304,-83.950199999999995,-123.637
171235.0,1914.1099999999999,216.01300000000001,430.95800000000003,2180.5100000000002,-95.106700000000004,-205.22900000000001,-95.087500000000006
171236.0,1895.6400000000001,199.81399999999999,407.41199999999998,2099.2600000000002,-61.077800000000003,-323.09100000000001,-64.327200000000005
171237.0,1879.5999999999999,220.024,408.62099999999998,2026.3199999999999,-34.114400000000003,-435.45400000000001,-31.287400000000002
171238.0,1866.25,235.39699999999999,387.18799999999999,1920.9100000000001,-9.5794700000000006,-539.88699999999994,2.2455500000000002
171239.0,1854.1500000000001,293.476,395.19299999999998,1834.6099999999999,14.166499999999999,-633.57799999999997,38.008600000000001
171240.0,2333.1100000000001,1176.98,586.34199999999998,2473.5500000000002,-706.74000000000001,605.23000000000002,-129.47900000000001
171241.0,2291.8499999999999,1049.6700000000001,600.09500000000003,2523.5300000000002,-652.774,538.33000000000004,-150.38900000000001
171242.0,2249.4000000000001,820.16200000000003,501.69999999999999,2453.1199999999999,-595.75,456.87,-164.15899999999999
171243.0,2207.4299999999998,679.97000000000003,478.55099999999999,2447.4899999999998,-538.64400000000001,362.524,-170.655
171244.0,2166.8200000000002,584.66300000000001,483.52800000000002,2458.0900000000001,-482.959,257.39699999999999,-170.489
171245.0,2128.0599999999999,525.02499999999998,506.20600000000002,2472.98,-429.48000000000002,144.30799999999999,-164.59700000000001
171246.0,2091.7600000000002,401.70299999999997,446.20499999999998,2391.0599999999999,-379.44299999999998,26.180800000000001,-153.26599999999999
171247.0,2058.1199999999999,363.00099999999998,451.23599999999999,2359.75,-333.55700000000002,-94.257000000000005,-137.64400000000001
171248.0,2027.51,260.26499999999999,372.97500000000002,2230.8200000000002,-292.70800000000003,-214.54900000000001,-118.337
171249.0,1999.5599999999999,211.22399999999999,329.654,2122.98,-256.92000000000002,-331.63099999999997,-96.333500000000001
171250.0,1973.4300000000001,204.702,311.25,2026.3499999999999,-225.018,-444.00599999999997,-71.755399999999995
171251.0,1947.05,193.82300000000001,275.06900000000002,1897.52,-194.214,-547.97299999999996,-45.603700000000003
171252.0,1918.23,208.648,252.36199999999999,1767.21,-159.667,-642.78099999999995,-15.5418
171253.0,2477.1399999999999,1289.04,645.24800000000005,2601.0700000000002,-825.19600000000003,601.48000000000002,-95.693100000000001
171254.0,2432.4200000000001,1082.99,578.73400000000004,2572.0900000000001,-771.80899999999997,535.72000000000003,-123.893
171255.0,2387.71,1007.64,637.14300000000003,2658.4099999999999,-717.346,455.17399999999998,-143.67500000000001
171256.0,2342.75,856.00300000000004,602.77800000000002,2643.0500000000002,-661.67600000000004,361.06400000000002,-156.77000000000001
171257.0,2297.8800000000001,716.79700000000003,560.53800000000001,2609.75,-605.64400000000001,255.691,-163.54300000000001
171258.0,2254.71,558.71799999999996,482.64299999999997,2526.77,-551.84000000000003,142.31800000000001,-163.94399999999999
171259.0,2213.6900000000001,514.61000000000001,501.80000000000001,2525.4699999999998,-501.24900000000002,23.752700000000001,-158.61799999999999
171260.0,2175.3000000000002,414.43900000000002,445.85300000000001,2434.02,-454.916,-97.360699999999994,-148.762
171261.0,2140.0799999999999,426.22899999999998,484.61500000000001,2421.8099999999999,-413.47800000000001,-218.584,-134.75700000000001
171262.0,2106.7399999999998,416.94200000000001,484.04500000000002,2355.0700000000002,-376.52199999999999,-336.84800000000001,-118.16800000000001
171263.0,2075.4899999999998,407.72399999999999,466.12299999999999,2257.4299999999998,-343.00999999999999,-450.41800000000001,-98.809799999999996
171264.0,2039.8800000000001,424.71800000000002,463.40300000000002,2156.23,-309.04199999999997,-555.024,-76.963099999999997
171265.0,2002.0899999999999,432.80500000000001,439.56999999999999,2018.9300000000001,-270.173,-652.23699999999997,-51.7014
171266.0,2617.4299999999998,1498.1900000000001,714.505,2783.77,-920.41300000000001,581.94299999999998,-79.864900000000006
171267.0,2572.4000000000001,1362.51,720.048,2824.7800000000002,-871.43100000000004,520.11099999999999,-111.142
171268.0,2525.1500000000001,1155.73,640.39599999999996,2776.1199999999999,-818.27200000000005,441.863,-136.21799999999999
171269.0,2477.96,1018.73,618.34400000000005,2774.7199999999998,-764.65200000000004,350.447,-153.70699999999999
171270.0,2431.6199999999999,915.31399999999996,618.53599999999994,2781.3000000000002,-712.69000000000005,247.99000000000001,-164.04400000000001
171271.0,2386.0300000000002,851.25,639.17399999999998,2795.7399999999998,-661.58799999999997,137.16,-168.542
171272.0,2341.4499999999998,729.22799999999995,581.57399999999996,2718.3000000000002,-612.25900000000001,20.401299999999999,-167.95699999999999
171273.0,2298.9299999999998,691.46299999999997,588.46299999999997,2691.0,-566.16099999999994,-99.084199999999996,-162.58500000000001
171274.0,2258.2600000000002,595.32600000000002,516.41600000000005,2570.7199999999998,-523.29999999999995,-218.54300000000001,-153.43199999999999
171275.0,2218.8299999999999,549.14400000000001,476.84699999999998,2467.3899999999999,-483.97800000000001,-335.37400000000002,-140.839
171276.0,2180.96,537.01099999999997,458.63400000000001,2369.3400000000001,-447.65499999999997,-447.60500000000002,-125.404
171277.0,2136.4200000000001,516.55700000000002,422.78899999999999,2232.3299999999999,-409.88099999999997,-551.59199999999998,-106.462
171278.0,2090.5,497.63999999999999,382.97899999999998,2073.6199999999999,-367.02300000000002,-649.86900000000003,-84.662000000000006
171279.0,2775.0599999999999,1638.1400000000001,712.08600000000001,2895.0999999999999,-1024.4100000000001,559.88800000000003,-59.8264
171280.0,2727.7600000000002,1523.6099999999999,736.40899999999999,2954.1300000000001,-977.29300000000001,501.84399999999999,-95.976500000000001
171281.0,2680.9200000000001,1356.04,703.12,2947.5,-929.83799999999997,427.66800000000001,-124.747
171282.0,2632.6399999999999,1278.78,742.92100000000005,3006.8600000000001,-879.55100000000004,339.71899999999999,-146.40100000000001
171283.0,2583.0799999999999,1080.9400000000001,643.60699999999997,2917.04,-827.61300000000006,239.58600000000001,-163.02699999999999
171284.0,2534.02,995.73000000000002,639.80100000000004,2909.6100000000001,-776.58000000000004,131.36500000000001,-172.636
171285.0,2486.7399999999998,884.673,595.08500000000004,2845.4000000000001,-728.62099999999998,16.800599999999999,-177.25800000000001
171286.0,2440.7800000000002,843.05899999999997,600.66200000000003,2816.9400000000001,-683.17700000000002,-100.44499999999999,-176.55600000000001
171287.0,2397.6599999999999,784.30100000000004,573.375,2739.1399999999999,-642.37300000000005,-218.673,-172.40899999999999
171288.0,2355.1399999999999,820.65300000000002,623.10000000000002,2723.1300000000001,-604.36800000000005,-334.298,-164.64500000000001
171289.0,2312.48,749.12800000000004,549.64200000000005,2568.8099999999999,-567.53700000000003,-445.62700000000001,-154.34700000000001
171290.0,2260.8299999999999,803.54300000000001,593.25999999999999,2509.6700000000001,-527.54200000000003,-549.005,-139.49199999999999
171291.0,2205.3000000000002,753.28099999999995,524.80399999999997,2322.3499999999999,-479.85000000000002,-646.83500000000004,-122.078
171292.0,2933.48,1824.1800000000001,753.69299999999998,3047.5300000000002,-1122.53,537.77200000000005,-42.209099999999999
171293.0,2886.8299999999999,1779.0899999999999,848.11900000000003,3174.8200000000002,-1079.6700000000001,483.947,-81.593199999999996
171294.0,2838.8600000000001,1503.0,699.803,3055.8899999999999,-1033.4000000000001,412.73000000000002,-116.126
171295.0,2789.9899999999998,1458.77,769.59500000000003,3146.9000000000001,-985.25599999999997,328.065,-142.352
171296.0,2741.6999999999998,1264.6700000000001,679.99300000000005,3064.5500000000002,-938.62699999999995,231.251,-162.953
171297.0,2692.6100000000001,1275.8800000000001,776.46400000000006,3156.6700000000001,-891.22299999999996,126.029,-176.63800000000001
171298.0,2643.75,1081.1600000000001,648.88199999999995,3010.5500000000002,-844.798,13.8249,-186.52799999999999
171299.0,2595.77,1113.9100000000001,728.85299999999995,3058.0900000000001,-800.351,-101.15900000000001,-190.566
171300.0,2548.7399999999998,957.30799999999999,600.47500000000002,2882.54,-757.96400000000006,-217.18000000000001,-191.673
171301.0,2501.2199999999998,977.14099999999996,631.23900000000003,2850.5999999999999,-717.46900000000005,-330.59199999999998,-188.33699999999999
171302.0,2453.96,902.30799999999999,555.59000000000003,2695.3299999999999,-679.14200000000005,-440.226,-182.589
171303.0,2396.0799999999999,935.04999999999995,579.78300000000002,2617.2399999999998,-636.84400000000005,-542.36800000000005,-171.67699999999999
171304.0,2333.8000000000002,844.42499999999995,477.38999999999999,2394.6999999999998,-587.81100000000004,-639.64700000000005,-158.678
171305.0,3105.9099999999999,2037.4100000000001,809.63499999999999,3220.0999999999999,-1224.71,512.20600000000002,-23.306799999999999
171306.0,3059.3299999999999,1948.73,857.96600000000001,3300.4699999999998,-1185.0,462.52100000000002,-67.420900000000003
171307.0,3013.6599999999999,1759.9000000000001,800.89800000000002,3269.8299999999999,-1144.6800000000001,395.96699999999998,-105.42100000000001
171308.0,2965.9699999999998,1696.5,852.68299999999999,3342.1300000000001,-1100.72,315.19900000000001,-135.96199999999999
171309.0,2916.7199999999998,1502.1900000000001,757.35299999999995,3257.23,-1054.9100000000001,221.73400000000001,-162.35499999999999
171310.0,2866.5700000000002,1433.3800000000001,770.66800000000001,3268.6900000000001,-1008.5700000000001,119.73399999999999,-181.44499999999999
171311.0,2817.25,1312.9400000000001,718.15300000000002,3198.6500000000001,-964.30200000000002,10.7515,-196.34200000000001
171312.0,2767.6599999999999,1279.4400000000001,733.73599999999999,3182.5,-920.93899999999996,-101.408,-205.53700000000001
171313.0,2720.1599999999999,1204.3199999999999,692.45899999999995,3093.1900000000001,-881.17600000000004,-215.02600000000001,-211.71299999999999
171314.0,2671.5700000000002,1239.1199999999999,744.15200000000004,3081.04,-842.80799999999999,-326.54199999999997,-213.744
171315.0,2620.8499999999999,1155.4000000000001,663.10199999999998,2920.7199999999998,-803.88300000000004,-434.375,-213.19399999999999
171316.0,2558.0,1204.1400000000001,707.726,2863.0,-760.28800000000001,-535.05999999999995,-207.09700000000001
171317.0,2487.3200000000002,1144.5699999999999,639.077,2675.3899999999999,-707.38900000000001,-630.96299999999997,-198.72
171318.0,3284.6199999999999,2260.52,869.25099999999998,3396.8899999999999,-1325.99,485.09899999999999,-4.9291799999999997
171319.0,3239.8499999999999,2176.1399999999999,922.14599999999996,3479.6100000000001,-1291.1199999999999,440.11399999999998,-53.018300000000004
171320.0,3194.8800000000001,1958.5999999999999,829.99599999999998,3416.02,-1252.8199999999999,377.80099999999999,-96.042500000000004
171321.0,3148.6100000000001,1881.6500000000001,865.75199999999995,3473.3200000000002,-1212.0999999999999,300.92000000000002,-131.71600000000001
171322.0,3101.9200000000001,1724.48,810.59900000000005,3427.54,-1171.4000000000001,211.83699999999999,-162.071
171323.0,3053.5300000000002,1693.51,864.74800000000005,3479.4200000000001,-1129.1800000000001,113.42,-186.07400000000001
171324.0,3004.1999999999998,1544.0999999999999,782.84299999999996,3381.6500000000001,-1086.6900000000001,8.0377399999999994,-206.053
171325.0,2954.7600000000002,1535.1700000000001,823.62400000000002,3392.1500000000001,-1045.25,-101.158,-220.81999999999999
171326.0,2904.9899999999998,1425.1700000000001,744.77300000000002,3268.79,-1004.48,-211.47200000000001,-232.102
171327.0,2853.3600000000001,1408.3499999999999,743.11500000000001,3206.3499999999999,-964.49900000000002,-320.096,-239.47200000000001
171328.0,2800.46,1369.1400000000001,707.81700000000001,3093.9400000000001,-925.33900000000006,-425.27800000000002,-243.798
171329.0,2733.25,1362.0,699.00099999999998,2984.1399999999999,-880.12800000000004,-523.97799999999995,-242.71700000000001
171330.0,2657.1100000000001,1294.45,627.83100000000002,2794.3299999999999,-826.25,-618.27099999999996,-239.09800000000001
171331.0,3473.1700000000001,2528.04,964.68100000000004,3611.8600000000001,-1429.02,455.64699999999999,14.2492
171332.0,3430.6399999999999,2343.5999999999999,915.26700000000005,3591.1199999999999,-1398.6900000000001,415.29000000000002,-38.9437
171333.0,3389.0999999999999,2256.3699999999999,954.01099999999997,3656.8499999999999,-1365.97,358.36099999999999,-85.1541
171334.0,3346.0,2099.3099999999999,909.88400000000001,3633.8400000000001,-1330.2,285.82600000000002,-125.94
171335.0,3300.5,2012.8800000000001,919.88199999999995,3656.2600000000002,-1291.29,201.18600000000001,-161.33199999999999
171336.0,3253.6100000000001,1862.9200000000001,852.34000000000003,3588.7600000000002,-1251.4100000000001,106.583,-191.40199999999999
171337.0,3205.5100000000002,1828.0,884.69500000000005,3606.8200000000002,-1211.48,5.4629399999999997,-216.143
171338.0,3156.52,1717.3,824.63400000000001,3517.9200000000001,-1171.71,-100.256,-236.846
171339.0,3107.6900000000001,1712.6199999999999,854.88499999999999,3504.0500000000002,-1133.6199999999999,-207.00800000000001,-253.232
171340.0,3056.5,1667.8299999999999,830.32799999999997,3418.5799999999999,-1095.77,-312.99900000000002,-266.64600000000002
171341.0,3001.1100000000001,1651.1099999999999,819.851,3332.77,-1055.75,-415.21600000000001,-276.14699999999999
171342.0,2931.0599999999999,1623.1300000000001,794.41600000000005,3207.3499999999999,-1009.95,-511.61500000000001,-280.767
171343.0,2848.7199999999998,1621.04,791.94500000000005,3088.1900000000001,-953.40300000000002,-603.702,-282.01100000000002
171344.0,3668.5900000000001,2789.21,1046.22,3814.1199999999999,-1532.0,423.99200000000002,33.167499999999997
171345.0,3629.5999999999999,2558.2600000000002,949.20100000000002,3743.9499999999998,-1507.27,388.93799999999999,-24.563300000000002
171346.0,3590.5500000000002,2503.9200000000001,1014.53,3837.8699999999999,-1477.5599999999999,337.19499999999999,-75.118300000000005
171347.0,3551.1300000000001,2296.1799999999998,916.92499999999995,3762.3800000000001,-1446.1800000000001,269.267,-121.52200000000001
171348.0,3509.4000000000001,2275.48,992.93899999999996,3850.8499999999999,-1412.21,189.839,-160.86600000000001
171349.0,3466.0900000000001,2116.6399999999999,917.85400000000004,3776.21,-1376.8800000000001,99.604299999999995,-196.565
171350.0,3419.6500000000001,2099.04,966.03200000000004,3812.2399999999998,-1339.2,3.11463,-226.34
171351.0,3372.8000000000002,1969.4100000000001,887.57000000000005,3706.7600000000002,-1302.04,-98.727800000000002,-253.203
171352.0,3323.4499999999998,1981.3599999999999,932.08500000000004,3710.73,-1263.74,-201.166,-274.77600000000001
171353.0,3271.7199999999998,1857.29,826.99400000000003,3548.2800000000002,-1225.4300000000001,-303.40899999999999,-294.25599999999997
171354.0,3215.9200000000001,1918.3299999999999,896.34299999999996,3544.5999999999999,-1185.97,-402.03199999999998,-308.99799999999999
171355.0,3143.1300000000001,1810.29,793.23299999999995,3343.8800000000001,-1138.78,-495.54700000000003,-319.392
171356.0,3056.6300000000001,1827.0699999999999,814.33299999999997,3250.1199999999999,-1081.0599999999999,-585.04600000000005,-325.666
171357.0,3871.3299999999999,3048.5100000000002,1119.0899999999999,4008.4499999999998,-1635.6700000000001,390.101,52.348700000000001
171358.0,3836.4499999999998,2773.02,973.92100000000005,3889.27,-1616.27,360.60300000000001,-10.194100000000001
171359.0,3802.23,2788.5,1107.51,4050.6399999999999,-1592.3900000000001,314.68000000000001,-64.273200000000003
171360.0,3767.6900000000001,2547.6700000000001,974.93200000000002,3940.5300000000002,-1566.3800000000001,251.94499999999999,-115.919
171361.0,3729.4200000000001,2561.71,1080.5,4061.21,-1535.49,177.744,-160.25800000000001
171362.0,3689.6100000000001,2340.7800000000002,940.00199999999995,3923.7199999999998,-1503.3199999999999,92.3703,-202.03999999999999
171363.0,3646.2199999999998,2384.1300000000001,1048.3,4021.7600000000002,-1468.8499999999999,0.90138600000000002,-236.97499999999999
171364.0,3601.6500000000001,2208.7399999999998,923.61699999999996,3872.4699999999998,-1433.8599999999999,-96.312399999999997,-269.91199999999998
171365.0,3554.5599999999999,2267.0999999999999,1017.29,3926.7399999999998,-1398.3399999999999,-194.31899999999999,-297.166
171366.0,3504.4099999999999,2154.5999999999999,927.274,3780.7600000000002,-1361.95,-292.70100000000002,-322.79899999999998
171367.0,3447.5799999999999,2199.3499999999999,981.80499999999995,3765.0999999999999,-1321.8800000000001,-387.27999999999997,-343.21300000000002
171368.0,3373.8099999999999,2102.1999999999998,893.53599999999994,3581.3400000000001,-1274.5999999999999,-477.471,-359.791
171369.0,3283.54,2148.1500000000001,948.23299999999995,3523.6500000000001,-1215.29,-564.02999999999997,-371.53800000000001
171370.0,4079.8000000000002,3279.8699999999999,1157.1099999999999,4168.3400000000001,-1739.0,353.86799999999999,71.174400000000006
171371.0,4049.9099999999999,3042.5700000000002,1046.3900000000001,4082.5,-1725.48,330.57100000000003,4.5766200000000001
171372.0,4020.5300000000002,3020.4000000000001,1136.3199999999999,4201.5600000000004,-1706.1199999999999,290.37799999999999,-54.200000000000003
171373.0,3991.1399999999999,2811.5500000000002,1031.29,4120.2799999999997,-1684.9300000000001,233.322,-110.94499999999999
171374.0,3958.54,2809.46,1119.4000000000001,4224.3400000000001,-1659.54,164.85400000000001,-160.041
171375.0,3923.5500000000002,2644.6199999999999,1033.8399999999999,4143.0900000000001,-1631.97,85.015000000000001,-207.22
171376.0,3884.04,2647.4200000000001,1099.6900000000001,4201.2600000000002,-1600.6800000000001,-1.09152,-247.88800000000001
171377.0,3842.7399999999998,2507.71,1010.11,4089.4899999999998,-1568.46,-93.1233,-286.79599999999999
171378.0,3797.5300000000002,2537.7800000000002,1073.49,4117.3100000000004,-1533.8800000000001,-186.02000000000001,-319.96499999999997
171379.0,3748.4899999999998,2406.3699999999999,963.48800000000006,3955.3099999999999,-1497.74,-279.44499999999999,-351.72800000000001
171380.0,3692.75,2470.52,1039.99,3964.3499999999999,-1458.6400000000001,-369.56099999999998,-378.10300000000001
171381.0,3617.8000000000002,2356.1399999999999,936.49800000000005,3768.9400000000001,-1410.29,-455.72500000000002,-400.66199999999998
171382.0,3525.0999999999999,2369.4299999999998,962.899,3686.1500000000001,-1349.98,-538.68600000000004,-418.07900000000001
171383.0,4293.3199999999997,3534.1599999999999,1211.79,4344.5,-1841.9000000000001,315.46800000000002,90.078400000000002
171384.0,4269.1599999999999,3294.4299999999998,1093.2,4250.4200000000001,-1834.25,298.60500000000002,19.273499999999999
171385.0,4246.29,3299.0300000000002,1206.46,4392.71,-1821.3,264.70999999999998,-43.662700000000001
171386.0,4223.2600000000002,3091.52,1098.79,4309.7399999999998,-1805.8199999999999,213.81899999999999,-105.181
171387.0,4196.3999999999996,3098.8800000000001,1190.8900000000001,4420.5100000000002,-1784.73,151.27600000000001,-159.71600000000001
171388.0,4166.3800000000001,2913.0,1080.21,4316.8000000000002,-1760.9100000000001,77.448999999999998,-212.64099999999999
171389.0,4131.8400000000001,2936.9899999999998,1165.3399999999999,4396.8500000000004,-1733.45,-2.7992400000000002,-259.01600000000002
171390.0,4094.3600000000001,2796.3400000000001,1073.3599999999999,4285.5900000000001,-1703.95,-89.006799999999998,-303.98000000000002
171391.0,4052.77,2825.5100000000002,1137.29,4316.2600000000002,-1672.2,-176.476,-343.32499999999999
171392.0,4006.3499999999999,2740.9499999999998,1076.3900000000001,4205.8199999999997,-1638.03,-264.702,-381.33100000000002
171393.0,3951.4499999999998,2758.1799999999998,1106.8299999999999,4172.75,-1598.8599999999999,-349.721,-413.94099999999997
171394.0,3876.8600000000001,2679.8099999999999,1043.24,4020.4099999999999,-1550.6700000000001,-431.38799999999998,-442.88400000000001
171395.0,3782.1599999999999,2687.46,1069.21,3940.3699999999999,-1489.4100000000001,-510.41399999999999,-466.22500000000002
171396.0,4510.3400000000001,3806.5799999999999,1278.3399999999999,4531.6400000000003,-1943.3800000000001,274.83800000000002,108.73399999999999
171397.0,4493.1700000000001,3550.0100000000002,1137.1099999999999,4414.8299999999999,-1942.3399999999999,264.85300000000001,34.020000000000003
171398.0,4476.8800000000001,3576.5999999999999,1265.72,4573.5900000000001,-1934.9400000000001,237.39599999999999,-33.433599999999998
171399.0,4460.9799999999996,3356.6300000000001,1139.8099999999999,4474.2200000000003,-1925.0699999999999,193.03999999999999,-99.986800000000002
171400.0,4440.8800000000001,3389.1999999999998,1253.6300000000001,4608.1300000000001,-1909.55,137.029,-159.517
171401.0,4417.6700000000001,3211.9699999999998,1148.8199999999999,4512.4499999999998,-1891.01,69.703999999999994,-217.93700000000001
171402.0,4388.3500000000004,3245.3299999999999,1240.3,4601.79,-1867.1400000000001,-4.1467499999999999,-270.24099999999999
171403.0,4355.71,3092.0100000000002,1134.24,4479.5699999999997,-1840.8800000000001,-84.061300000000003,-321.32400000000001
171404.0,4317.71,3144.8800000000001,1219.6600000000001,4535.8999999999996,-1810.8399999999999,-165.30099999999999,-366.87400000000002
171405.0,4273.9700000000003,3003.8400000000001,1101.3800000000001,4372.6000000000004,-1777.53,-247.43600000000001,-411.28100000000001
171406.0,4221.1700000000001,3071.77,1185.0,4396.0799999999999,-1739.48,-326.91199999999998,-450.161
171407.0,4147.21,2954.3699999999999,1084.1900000000001,4211.3400000000001,-1690.76,-403.28800000000001,-485.49000000000001
171408.0,4051.7199999999998,2961.1100000000001,1113.02,4138.7600000000002,-1628.73,-477.59500000000003,-514.82100000000003
171409.0,4730.1099999999997,4045.3499999999999,1306.27,4678.5,-2043.3800000000001,231.98599999999999,127.218
171410.0,4720.5299999999997,3843.6399999999999,1212.26,4609.4300000000003,-2048.8099999999999,229.29599999999999,48.777000000000001
171411.0,4712.1899999999996,3840.8200000000002,1306.3900000000001,4733.9099999999999,-2048.4200000000001,208.67400000000001,-23.058499999999999
171412.0,4704.3100000000004,3673.8299999999999,1227.1500000000001,4683.1099999999997,-2044.6300000000001,171.364,-94.269300000000001
171413.0,4691.79,3670.8600000000001,1299.6800000000001,4778.1899999999996,-2034.51,122.098,-159.245
171414.0,4675.0600000000004,3529.5599999999999,1225.1800000000001,4716.1999999999998,-2020.0999999999999,61.876399999999997,-223.28700000000001
171415.0,4652.2700000000004,3529.6599999999999,1280.71,4772.3900000000003,-2000.72,-5.1773899999999999,-281.63900000000001
171416.0,4625.0500000000002,3432.7800000000002,1228.3399999999999,4707.7200000000003,-1977.6400000000001,-78.021199999999993,-338.68099999999998
171417.0,4591.5600000000004,3428.5700000000002,1257.3699999999999,4710.4700000000003,-1950.51,-152.76499999999999,-390.84800000000001
171418.0,4551.96,3381.3000000000002,1233.54,4645.5699999999997,-1919.4400000000001,-228.32599999999999,-441.46300000000002
171419.0,4501.4899999999998,3365.54,1234.3499999999999,4590.8000000000002,-1881.8699999999999,-301.565,-487.10300000000001
171420.0,4429.0100000000002,3311.0100000000002,1199.74,4476.7600000000002,-1833.3800000000001,-372.15800000000002,-528.85699999999997
171421.0,4333.3299999999999,3277.6500000000001,1194.0,4373.8699999999999,-1770.9400000000001,-441.54000000000002,-564.71100000000001
171422.0,4951.1800000000003,4257.5,1302.74,4791.75,-2141.0,186.90600000000001,145.16300000000001
171423.0,4950.0200000000004,4175.5299999999997,1320.0,4834.5100000000002,-2153.2800000000002,191.98699999999999,63.7288
171424.0,4950.46,4073.9099999999999,1308.0,4854.2299999999996,-2159.7600000000002,178.316,-13.2453
171425.0,4950.8999999999996,4015.6599999999999,1329.55,4906.5500000000002,-2161.77,148.61199999999999,-88.525499999999994
171426.0,4946.9899999999998,3927.6599999999999,1312.3499999999999,4913.8199999999997,-2158.0100000000002,106.461,-159.35400000000001
171427.0,4938.0100000000002,3891.0500000000002,1337.47,4954.29,-2148.8400000000001,54.013399999999997,-228.25
171428.0,4922.2700000000004,3816.54,1315.0,4935.7700000000004,-2133.9000000000001,-5.8368200000000003,-293.18099999999998
171429.0,4900.71,3784.3499999999999,1324.23,4936.5500000000002,-2114.04,-70.9756,-355.90499999999997
171430.0,4872.9799999999996,3737.25,1308.1400000000001,4898.8599999999997,-2089.6799999999998,-138.517,-414.93000000000001
171431.0,4836.4700000000003,3700.9299999999998,1294.3299999999999,4848.8100000000004,-2059.46,-206.624,-471.63999999999999
171432.0,4789.5,3669.4899999999998,1281.47,4784.8699999999999,-2023.28,-273.19099999999997,-524.13499999999999
171433.0,4719.1400000000003,3646.0900000000001,1279.77,4709.4700000000003,-1974.8699999999999,-337.20299999999997,-572.20899999999995
171434.0,4624.5699999999997,3557.6799999999998,1222.97,4561.3299999999999,-1912.24,-400.73000000000002,-614.673
171435.0,5172.2799999999997,4538.04,1363.54,4966.0500000000002,-2235.6700000000001,139.93199999999999,163.04400000000001
171436.0,5180.2299999999996,4448.6599999999999,1363.8399999999999,4992.9899999999998,-2254.98,152.834,78.308700000000002
171437.0,5190.5500000000002,4379.5200000000004,1377.1199999999999,5039.0699999999997,-2269.1799999999998,146.679,-3.2069100000000001
171438.0,5200.21,4313.29,1382.73,5077.6599999999999,-2277.6100000000001,124.858,-82.662099999999995
171439.0,5205.4300000000003,4251.8000000000002,1385.0,5107.21,-2279.8699999999999,90.344899999999996,-159.16900000000001
171440.0,5204.3900000000003,4203.1000000000004,1391.5699999999999,5132.6599999999999,-2275.5,45.988900000000001,-233.352
171441.0,5196.6300000000001,4141.5200000000004,1377.5899999999999,5126.2600000000002,-2265.3899999999999,-5.9163399999999999,-304.50400000000002
171442.0,5181.5600000000004,4126.4799999999996,1401.05,5145.1800000000003,-2249.1999999999998,-62.907400000000003,-373.20299999999997
171443.0,5159.2799999999997,4058.5799999999999,1363.1900000000001,5089.7600000000002,-2227.6700000000001,-122.63500000000001,-438.82600000000002
171444.0,5128.54,4082.5,1409.5999999999999,5104.6000000000004,-2200.3499999999999,-182.87299999999999,-502.00200000000001
171445.0,5085.1700000000001,4001.3299999999999,1347.5,4996.96,-2164.9899999999998,-241.98500000000001,-561.37300000000005
171446.0,5017.1300000000001,4003.9099999999999,1375.02,4956.3800000000001,-2116.8499999999999,-298.86599999999999,-615.95500000000004
171447.0,4923.5299999999997,3898.9200000000001,1306.9000000000001,4802.4700000000003,-2054.02,-356.15499999999997,-664.99699999999996
171448.0,5391.6700000000001,4791.6700000000001,1393.8399999999999,5106.1099999999997,-2326.3000000000002,90.9084,180.54499999999999
171449.0,5410.0100000000002,4754.8699999999999,1436.8800000000001,5176.9399999999996,-2353.52,111.926,92.659300000000002
171450.0,5430.54,4655.8199999999997,1410.9000000000001,5185.6499999999996,-2375.0300000000002,113.68000000000001,6.7621500000000001
171451.0,5450.2299999999996,4640.8000000000002,1458.8199999999999,5269.0500000000002,-2390.1500000000001,100.018,-77.077299999999994
171452.0,5465.1099999999997,4552.4300000000003,1427.0,5267.1700000000001,-2398.7800000000002,73.716099999999997,-158.87
171453.0,5473.2600000000002,4548.6400000000003,1472.48,5334.7200000000003,-2400.21,37.919199999999996,-238.31899999999999
171454.0,5473.2600000000002,4473.8400000000001,1440.4100000000001,5313.96,-2394.5599999999999,-5.4697699999999996,-315.56299999999999
171455.0,5465.6800000000003,4466.46,1467.3499999999999,5340.9300000000003,-2382.29,-53.741100000000003,-390.29500000000002
171456.0,5449.9200000000001,4412.3100000000004,1440.8,5301.75,-2363.8200000000002,-104.88800000000001,-462.52699999999999
171457.0,5422.96,4394.0500000000002,1443.8099999999999,5278.6499999999996,-2337.3600000000001,-156.566,-531.96600000000001
171458.0,5384.04,4350.5500000000002,1420.9400000000001,5215.6999999999998,-2303.6100000000001,-207.56299999999999,-598.08900000000006
171459.0,5319.7600000000002,4337.7200000000003,1434.8199999999999,5168.1599999999999,-2256.1799999999998,-256.64999999999998,-659.30899999999997
171460.0,5228.8100000000004,4235.0200000000004,1372.6199999999999,5027.4099999999999,-2193.5500000000002,-306.733,-715.04899999999998
171461.0,5608.1599999999999,5061.21,1438.1199999999999,5255.1199999999999,-2412.6399999999999,39.968200000000003,197.73500000000001
171462.0,5637.4899999999998,5049.1400000000003,1494.7,5341.0500000000002,-2447.8400000000001,69.380099999999999,106.746
171463.0,5669.2799999999997,4956.3100000000004,1465.3,5348.29,-2477.3499999999999,79.398600000000002,16.694700000000001
171464.0,5699.46,4957.25,1519.6400000000001,5440.6300000000001,-2499.3099999999999,74.286900000000003,-71.346100000000007
171465.0,5724.7299999999996,4875.6300000000001,1486.25,5440.2799999999997,-2514.4299999999998,56.637,-158.381
171466.0,5742.0299999999997,4887.9499999999998,1540.0799999999999,5519.9399999999996,-2521.0700000000002,29.8475,-243.126
171467.0,5751.29,4800.5500000000002,1489.9000000000001,5485.1700000000001,-2520.71,-4.4188299999999998,-326.37
171468.0,5750.71,4835.1999999999998,1555.1900000000001,5554.6899999999996,-2512.0900000000001,-43.444699999999997,-407.04399999999998
171469.0,5741.7600000000002,4742.7299999999996,1487.9400000000001,5479.8500000000004,-2496.79,-85.382900000000006,-485.74700000000001
171470.0,5721.71,4800.7600000000002,1567.03,5537.9399999999996,-2473.71,-128.00800000000001,-561.79600000000005
171471.0,5687.0600000000004,4690.0500000000002,1477.25,5414.4799999999996,-2440.8600000000001,-170.15000000000001,-634.61000000000001
171472.0,5625.8699999999999,4716.9099999999999,1533.73,5416.1499999999996,-2393.6900000000001,-210.87100000000001,-702.44600000000003
171473.0,5537.2200000000003,4574.6700000000001,1437.1500000000001,5247.9399999999996,-2331.25,-253.38300000000001,-764.69500000000005
171474.0,5819.71,5339.2700000000004,1489.54,5405.3000000000002,-2493.4299999999998,-12.7605,214.453
171475.0,5861.1999999999998,5337.25,1544.3199999999999,5491.3699999999999,-2537.29,25.2196,120.452
171476.0,5904.7399999999998,5259.1599999999999,1518.3900000000001,5504.54,-2574.6599999999999,43.893300000000004,26.559899999999999
171477.0,5946.2200000000003,5275.9399999999996,1578.4300000000001,5605.2399999999998,-2603.8600000000001,47.625,-65.714399999999998
171478.0,5982.1899999999996,5205.3800000000001,1546.9300000000001,5609.9700000000003,-2625.4699999999998,39.143999999999998,-157.703
171479.0,6009.5900000000001,5222.3900000000003,1598.3199999999999,5690.6099999999997,-2638.1700000000001,21.805599999999998,-247.678
171480.0,6027.5,5164.6599999999999,1571.47,5683.4099999999999,-2642.3899999999999,-2.7374000000000001,-336.63400000000001
171481.0,6035.6300000000001,5170.8199999999997,1603.4300000000001,5724.4799999999996,-2638.1799999999998,-31.927499999999998,-423.435
171482.0,6033.4099999999999,5119.25,1574.21,5692.9099999999999,-2625.8000000000002,-64.026200000000003,-508.35399999999998
171483.0,6018.0900000000001,5115.71,1589.76,5693.79,-2603.71,-96.749700000000004,-590.654
171484.0,5988.8000000000002,5065.75,1561.8900000000001,5638.4399999999996,-2572.73,-129.428,-670.08100000000002
171485.0,5932.6099999999997,5058.9799999999996,1586.8499999999999,5616.1300000000001,-2526.79,-161.08199999999999,-744.60799999999995
171486.0,5847.8299999999999,4943.6700000000001,1520.97,5486.96,-2464.9699999999998,-195.053,-813.45600000000002
171487.0,6024.9300000000003,5616.5799999999999,1540.5599999999999,5547.9099999999999,-2568.25,-67.264099999999999,230.779
171488.0,6079.4200000000001,5626.3800000000001,1594.0599999999999,5635.1199999999999,-2621.0300000000002,-20.415199999999999,133.82599999999999
171489.0,6135.3000000000002,5569.0,1577.0799999999999,5659.6800000000003,-2666.5900000000001,7.2356800000000003,36.454000000000001
171490.0,6188.5799999999999,5589.7799999999997,1629.9000000000001,5756.1800000000003,-2703.0300000000002,20.1678,-60.101999999999997
171491.0,6235.5900000000001,5536.9099999999999,1606.3800000000001,5772.0500000000002,-2731.2399999999998,21.283899999999999,-156.67099999999999
171492.0,6273.3900000000003,5571.5500000000002,1666.5599999999999,5865.5699999999997,-2749.5999999999999,13.900600000000001,-251.93100000000001
171493.0,6300.8699999999999,5496.9099999999999,1616.3299999999999,5839.1099999999997,-2759.04,-0.41450199999999998,-346.44999999999999
171494.0,6316.9300000000003,5549.6700000000001,1690.1400000000001,5926.8800000000001,-2758.6300000000001,-19.178999999999998,-439.029
171495.0,6322.2700000000004,5468.1700000000001,1628.1199999999999,5867.7399999999998,-2749.71,-40.790100000000002,-530.20699999999999
171496.0,6314.2399999999998,5525.6400000000003,1704.3699999999999,5934.9399999999996,-2730.98,-63.238300000000002,-618.93100000000004
171497.0,6289.6700000000001,5418.6599999999999,1619.5799999999999,5829.6700000000001,-2700.8899999999999,-85.693799999999996,-704.75999999999999
171498.0,6237.4499999999998,5439.8500000000004,1674.8099999999999,5845.5200000000004,-2655.27,-107.63800000000001,-785.75
171499.0,6156.1700000000001,5292.7299999999996,1581.8399999999999,5697.5699999999997,-2593.9000000000001,-132.64599999999999,-860.947
171500.0,6221.4700000000003,5875.3100000000004,1574.5999999999999,5665.0900000000001,-2635.8200000000002,-123.367,246.43299999999999
171501.0,6290.1000000000004,5926.6599999999999,1655.4000000000001,5782.6000000000004,-2698.0100000000002,-67.405100000000004,146.88300000000001
171502.0,6358.8900000000003,5858.5100000000002,1614.6300000000001,5786.1400000000003,-2751.8200000000002,-30.536999999999999,46.111600000000003
171503.0,6424.6199999999999,5925.3800000000001,1701.71,5920.0799999999999,-2795.8099999999999,-8.00854,-54.291899999999998
171504.0,6482.9099999999999,5861.0100000000002,1656.3499999999999,5917.1800000000003,-2830.6100000000001,3.0919300000000001,-155.494
171505.0,6531.4200000000001,5914.1000000000004,1726.2,6024.3500000000004,-2854.8800000000001,6.15794,-255.61199999999999
171506.0,6568.2799999999997,5865.4300000000003,1694.8900000000001,6020.9300000000003,-2869.1999999999998,2.6008100000000001,-355.55700000000002
171507.0,6593.4899999999998,5894.6400000000003,1739.49,6084.8199999999997,-2873.1100000000001,-5.1316600000000001,-453.91000000000003
171508.0,6605.8299999999999,5837.5699999999997,1698.4100000000001,6052.0799999999999,-2867.0,-15.669,-550.971
171509.0,6603.6000000000004,5860.2600000000002,1737.3800000000001,6089.0299999999997,-2849.6300000000001,-26.8748,-645.63999999999999
171510.0,6584.7799999999997,5795.2600000000002,1695.8199999999999,6033.5699999999997,-2821.48,-38.612099999999998,-737.88900000000001
171511.0,6538.1000000000004,5801.3500000000004,1738.53,6045.1400000000003,-2777.2800000000002,-50.181100000000001,-825.23500000000001
171512.0,6461.5600000000004,5665.5600000000004,1661.0799999999999,5921.8900000000003,-2716.8299999999999,-65.417299999999997,-906.89099999999996
171513.0,6408.1899999999996,6156.3699999999999,1634.0599999999999,5798.1499999999996,-2695.7800000000002,-180.94999999999999,261.70999999999998
171514.0,6491.3999999999996,6202.04,1693.8199999999999,5897.9200000000001,-2767.4499999999998,-115.71899999999999,159.52699999999999
171515.0,6573.6300000000001,6175.1400000000003,1680.6400000000001,5932.0299999999997,-2829.71,-69.245800000000003,55.7834
171516.0,6651.7600000000002,6226.8100000000004,1739.8399999999999,6041.3100000000004,-2880.9699999999998,-36.843299999999999,-48.482700000000001
171517.0,6721.8000000000002,6196.9300000000003,1717.9000000000001,6065.0799999999999,-2922.4699999999998,-15.3338,-153.83199999999999
171518.0,6781.3500000000004,6264.8299999999999,1792.8299999999999,6181.46,-2952.5599999999999,-1.3689100000000001,-258.803
171519.0,6827.8500000000004,6194.6999999999998,1732.6099999999999,6153.3100000000004,-2971.8000000000002,6.3567099999999996,-363.89499999999998
171520.0,6861.5299999999997,6277.2799999999997,1825.22,6270.2200000000003,-2979.6500000000001,10.1967,-467.59800000000001
171521.0,6881.6400000000003,6200.4300000000003,1761.23,6219.9099999999999,-2976.9499999999998,11.325900000000001,-570.56299999999999
171522.0,6886.4399999999996,6261.4499999999998,1837.9400000000001,6300.6000000000004,-2962.5100000000002,11.678900000000001,-671.12099999999998
171523.0,6872.7600000000002,6156.1899999999996,1755.99,6212.3900000000003,-2935.1999999999998,11.4777,-769.44000000000005
171524.0,6830.8699999999999,6172.3900000000003,1810.8099999999999,6244.8999999999996,-2891.5100000000002,10.9643,-862.75300000000004
171525.0,6758.9499999999998,6024.2799999999997,1725.3900000000001,6123.2700000000004,-2831.7800000000002,6.0790100000000002,-950.53300000000002
171526.0,6582.0299999999997,6409.8100000000004,1670.51,5897.1800000000003,-2746.3600000000001,-239.791,276.19200000000001
171527.0,6680.8800000000001,6486.9700000000003,1745.8,6016.0100000000002,-2828.21,-165.15600000000001,171.75
171528.0,6777.2299999999996,6464.5200000000004,1721.74,6042.9300000000003,-2898.8699999999999,-108.83199999999999,65.314999999999998
171529.0,6868.5299999999997,6551.1700000000001,1802.98,6177.2700000000004,-2957.9499999999998,-66.286699999999996,-42.378500000000003
171530.0,6950.04,6529.9899999999998,1777.9400000000001,6201.25,-3005.6999999999998,-33.902299999999997,-151.83500000000001
171531.0,7020.25,6584.5799999999999,1830.0799999999999,6298.5600000000004,-3041.48,-8.6706299999999992,-261.23500000000001
171532.0,7076.5900000000001,6585.3599999999997,1832.77,6337.5900000000001,-3065.5900000000001,10.921200000000001,-371.14400000000001
171533.0,7119.3100000000004,6598.0299999999997,1849.4000000000001,6383.71,-3077.4899999999998,26.797499999999999,-480.24900000000002
171534.0,7146.6400000000003,6574.9799999999996,1835.01,6388.8900000000003,-3077.4000000000001,40.3215,-588.40800000000002
171535.0,7157.5699999999997,6586.8699999999999,1860.5799999999999,6425.25,-3064.5700000000002,53.003700000000002,-694.61099999999999
171536.0,7149.6000000000004,6543.3599999999997,1841.6199999999999,6407.1499999999996,-3038.98,64.851600000000005,-798.66099999999994
171537.0,7113.2600000000002,6526.3900000000003,1866.4200000000001,6418.21,-2996.6199999999999,75.869200000000006,-897.95500000000004
171538.0,7046.5200000000004,6403.3699999999999,1810.4100000000001,6336.1400000000003,-2937.8400000000001,82.107399999999998,-991.52700000000004
171539.0,6741.8699999999999,6722.6300000000001,1773.1500000000001,6049.8699999999999,-2787.4899999999998,-299.76900000000001,290.27499999999998
171540.0,6857.0200000000004,6707.3000000000002,1738.49,6062.9099999999999,-2879.5700000000002,-215.68799999999999,183.53
171541.0,6967.54,6812.5200000000004,1826.1900000000001,6205.3500000000004,-2958.5100000000002,-149.12299999999999,75.023499999999999
171542.0,7071.1800000000003,6803.71,1798.72,6233.71,-3024.7800000000002,-96.210599999999999,-36.437600000000003
171543.0,7164.7600000000002,6887.4200000000001,1865.76,6353.4799999999996,-3078.8499999999999,-52.513100000000001,-148.98500000000001
171544.0,7246.25,6906.6599999999999,1872.71,6409.0,-3120.7199999999998,-15.720000000000001,-263.06900000000002
171545.0,7311.8199999999997,6918.8599999999997,1878.05,6455.2399999999998,-3148.9400000000001,16.333100000000002,-377.16000000000003
171546.0,7363.0200000000004,6962.0200000000004,1920.0699999999999,6531.1899999999996,-3164.8699999999999,44.642299999999999,-491.32900000000001
171547.0,7397.7399999999998,6956.9200000000001,1920.04,6556.2399999999998,-3167.6799999999998,71.132400000000004,-604.45100000000002
171548.0,7415.29,6958.3599999999997,1934.48,6587.5699999999997,-3157.3200000000002,96.442700000000002,-716.16800000000001
171549.0,7412.4700000000003,6912.0500000000002,1912.5799999999999,6574.5699999999997,-3132.3899999999999,121.20699999999999,-825.327
171550.0,7381.3000000000002,6869.1099999999997,1913.8099999999999,6571.3000000000002,-3090.6700000000001,144.38300000000001,-930.29499999999996
171551.0,7319.8000000000002,6769.7600000000002,1885.8099999999999,6527.8000000000002,-3032.79,162.34,-1029.0899999999999
171552.0,6884.3800000000001,6956.7600000000002,1805.4200000000001,6118.29,-2817.0700000000002,-360.928,303.45999999999998
171553.0,7016.7600000000002,6977.6199999999999,1788.8900000000001,6153.8699999999999,-2920.0500000000002,-266.92500000000001,194.80699999999999
171554.0,7141.4499999999998,7083.29,1860.1500000000001,6283.7399999999998,-3007.0,-190.03299999999999,84.710999999999999
171555.0,7259.1700000000001,7117.9300000000003,1862.0999999999999,6344.5900000000001,-3081.5300000000002,-126.569,-30.0623
171556.0,7363.7299999999996,7210.0,1924.5699999999999,6462.96,-3141.1500000000001,-71.156000000000006,-145.57900000000001
171557.0,7455.2600000000002,7204.3299999999999,1896.6400000000001,6486.9499999999998,-3188.0999999999999,-22.374700000000001,-263.84399999999999
171558.0,7530.5100000000002,7315.1099999999997,1992.1500000000001,6627.2700000000004,-3220.9899999999998,22.4969,-381.75299999999999
171559.0,7590.1499999999996,7254.25,1923.8,6597.8900000000003,-3240.3600000000001,63.874200000000002,-500.81999999999999
171560.0,7631.4300000000003,7315.8800000000001,1986.48,6691.1300000000001,-3245.3299999999999,103.81,-618.21299999999997
171561.0,7655.0100000000002,7270.7799999999997,1952.8699999999999,6681.1300000000001,-3236.54,142.523,-734.97000000000003
171562.0,7657.1899999999996,7289.9200000000001,1998.21,6742.29,-3212.9299999999998,180.482,-848.91099999999994
171563.0,7631.3900000000003,7212.3599999999997,1968.1199999999999,6716.8199999999997,-3172.1999999999998,216.363,-959.23500000000001
171564.0,7575.3699999999999,7133.5699999999997,1965.21,6709.3000000000002,-3115.3000000000002,246.59100000000001,-1062.9000000000001
171565.0,7008.1899999999996,7208.9200000000001,1867.53,6200.3599999999997,-2835.3699999999999,-422.87099999999998,316.12299999999999
171566.0,7158.1999999999998,7212.9700000000003,1813.8,6204.1999999999998,-2948.7600000000002,-318.839,205.99600000000001
171567.0,7297.9799999999996,7377.8400000000001,1926.98,6380.04,-3044.3600000000001,-231.58500000000001,94.3934
171568.0,7426.9200000000001,7386.0900000000001,1887.8399999999999,6402.4399999999996,-3124.8200000000002,-157.042,-23.464700000000001
171569.0,7543.4499999999998,7509.8699999999999,1969.21,6542.8999999999996,-3190.7800000000002,-89.822400000000002,-141.44399999999999
171570.0,7645.71,7553.1599999999999,1979.28,6607.9700000000003,-3243.1100000000001,-28.5458,-263.399
171571.0,7729.2200000000003,7576.0,1978.7,6656.0699999999997,-3279.5700000000002,29.430499999999999,-384.98599999999999
171572.0,7796.6899999999996,7651.0699999999997,2040.53,6760.9899999999998,-3302.3600000000001,84.355599999999995,-507.90499999999997
171573.0,7845.0699999999997,7650.4099999999999,2037.8299999999999,6793.9899999999998,-3310.0900000000001,138.10300000000001,-629.80700000000002
171574.0,7873.8800000000001,7653.3999999999996,2051.5799999999999,6837.29,-3302.6900000000001,190.697,-750.75800000000004
171575.0,7880.7600000000002,7605.6899999999996,2030.8,6840.1899999999996,-3279.4899999999998,242.51400000000001,-869.24599999999998
171576.0,7859.6099999999997,7556.1400000000003,2031.6400000000001,6854.9499999999998,-3239.1100000000001,291.70699999999999,-983.98000000000002
171577.0,7809.25,7455.8199999999997,2012.29,6842.0299999999997,-3183.3499999999999,334.63600000000002,-1092.3499999999999
171578.0,7110.6999999999998,7352.8800000000001,1833.8399999999999,6169.7799999999997,-2840.3400000000001,-485.56700000000001,327.69299999999998
171579.0,7278.0299999999997,7512.7799999999997,1915.4400000000001,6313.9399999999996,-2964.0999999999999,-371.262,217.10499999999999
171580.0,7432.5100000000002,7575.9799999999996,1909.05,6374.7200000000003,-3067.9099999999999,-273.447,103.43899999999999
171581.0,7574.6700000000001,7715.6599999999999,1986.0899999999999,6515.5699999999997,-3155.8000000000002,-187.63200000000001,-15.619400000000001
171582.0,7702.1400000000003,7778.8699999999999,1994.04,6585.8400000000001,-3227.2399999999998,-108.453,-136.93799999999999
171583.0,7812.1199999999999,7844.8199999999997,2016.24,6665.0600000000004,-3282.9400000000001,-34.250799999999998,-261.24099999999999
171584.0,7905.9700000000003,7946.5900000000001,2086.0,6787.7200000000003,-3324.3699999999999,37.163499999999999,-386.48200000000003
171585.0,7978.9300000000003,7916.8100000000004,2037.5899999999999,6785.6099999999997,-3348.9400000000001,106.15000000000001,-512.84699999999998
171586.0,8033.0299999999997,7964.8699999999999,2080.0700000000002,6869.4099999999999,-3358.1799999999998,174.096,-638.26900000000001
171587.0,8066.5299999999997,7951.4300000000003,2076.8699999999999,6901.1300000000001,-3351.8299999999999,241.137,-763.00800000000004
171588.0,8078.1000000000004,7948.9499999999998,2103.4499999999998,6958.6999999999998,-3329.6199999999999,307.01499999999999,-885.40499999999997
171589.0,8061.2399999999998,7887.0799999999999,2096.1199999999999,6973.9399999999996,-3289.71,370.01299999999998,-1004.21
171590.0,8016.2399999999998,7777.9799999999996,2072.9899999999998,6968.6800000000003,-3234.75,426.17500000000001,-1116.48
171591.0,7189.3400000000001,7612.5299999999997,1932.3399999999999,6251.1400000000003,-2831.71,-548.14300000000003,338.88099999999997
171592.0,7374.21,7677.2399999999998,1896.28,6284.2299999999996,-2965.1700000000001,-424.084,227.80000000000001
171593.0,7544.54,7878.8500000000004,2009.8399999999999,6469.3000000000002,-3078.0799999999999,-315.49299999999999,113.083
171594.0,7696.3599999999997,7918.5799999999999,1971.76,6497.1899999999996,-3170.6199999999999,-218.339,-7.8133999999999997
171595.0,7834.8900000000003,8081.1599999999999,2065.4299999999998,6655.9300000000003,-3247.5300000000002,-126.73099999999999,-131.011
171596.0,7954.1599999999999,8137.6999999999998,2068.71,6717.9200000000001,-3308.1999999999998,-39.511899999999997,-257.96899999999999
171597.0,8053.6099999999997,8184.5900000000001,2075.1799999999998,6780.4399999999996,-3351.1199999999999,45.700699999999998,-385.70100000000002
171598.0,8134.6300000000001,8277.0900000000001,2143.5900000000001,6898.6400000000003,-3379.4099999999999,129.02099999999999,-515.024
171599.0,8194.4699999999993,8290.3799999999992,2148.6500000000001,6949.3999999999996,-3390.5999999999999,211.595,-643.75999999999999
171600.0,8231.2999999999993,8282.3700000000008,2151.3099999999999,6992.1300000000001,-3384.5700000000002,293.404,-771.596
171601.0,8245.7199999999993,8238.5300000000007,2138.5700000000002,7017.3999999999996,-3361.8600000000001,373.89400000000001,-897.12900000000002
171602.0,8232.4799999999996,8174.4799999999996,2133.3000000000002,7043.6199999999999,-3321.8600000000001,451.13900000000001,-1019.15
171603.0,8192.5900000000001,8075.3599999999997,2125.77,7064.9799999999996,-3267.7199999999998,520.84299999999996,-1134.8399999999999
171604.0,7240.8199999999997,7734.3599999999997,1911.46,6191.8900000000003,-2807.0700000000002,-611.25699999999995,349.245
171605.0,7445.1199999999999,7930.9099999999999,1983.52,6340.8000000000002,-2951.5,-476.99799999999999,238.26400000000001
171606.0,7627.6199999999999,8046.46,1992.75,6424.4799999999996,-3070.9699999999998,-357.63900000000001,122.673
171607.0,7793.0699999999997,8209.9799999999996,2062.6399999999999,6563.4399999999996,-3171.0799999999999,-248.768,0.91729499999999997
171608.0,7938.8999999999996,8309.5900000000001,2081.5,6648.04,-3251.4299999999998,-144.946,-124.03100000000001
171609.0,8065.9799999999996,8395.5100000000002,2102.54,6730.6499999999996,-3314.9299999999998,-44.140599999999999,-252.64699999999999
171610.0,8173.3100000000004,8526.2299999999996,2186.3600000000001,6871.96,-3362.1300000000001,54.9968,-382.827
171611.0,8256.5900000000001,8488.7999999999993,2120.3200000000002,6858.5299999999997,-3389.9200000000001,152.96100000000001,-514.27200000000005
171612.0,8319.4300000000003,8559.0400000000009,2180.1700000000001,6967.8500000000004,-3401.1900000000001,250.488,-645.15099999999995
171613.0,8360.2099999999991,8537.1299999999992,2169.3699999999999,7002.0600000000004,-3395.9499999999998,347.36000000000001,-775.43100000000004
171614.0,8377.8299999999999,8547.1700000000001,2213.7800000000002,7090.6899999999996,-3373.5100000000002,442.745,-903.59500000000003
171615.0,8367.7399999999998,8460.9200000000001,2191.4299999999998,7108.1800000000003,-3333.4299999999998,534.49400000000003,-1028.1600000000001
171616.0,8332.2099999999991,8357.4500000000007,2185.4099999999999,7142.1999999999998,-3279.5300000000002,618.22000000000003,-1146.4200000000001
171617.0,7262.5100000000002,7968.4499999999998,2025.95,6242.9799999999996,-2766.1500000000001,-674.745,358.93000000000001
171618.0,7487.4899999999998,8038.9200000000001,1944.3499999999999,6249.2399999999998,-2921.0500000000002,-529.21400000000006,248.55699999999999
171619.0,7682.0,8316.6100000000006,2099.3200000000002,6479.3800000000001,-3048.0999999999999,-400.00799999999998,132.697
171620.0,7857.7299999999996,8362.2999999999993,2033.8299999999999,6487.6199999999999,-3152.2600000000002,-278.89100000000002,10.3422
171621.0,8011.1000000000004,8581.75,2161.2199999999998,6679.71,-3236.73,-162.68199999999999,-115.736
171622.0,8145.0600000000004,8627.7299999999996,2133.27,6715.3400000000001,-3303.4699999999998,-48.377400000000002,-245.56899999999999
171623.0,8255.1800000000003,8721.2299999999996,2171.9099999999999,6812.3800000000001,-3350.29,65.095100000000002,-376.98500000000001
171624.0,8346.3299999999999,8803.2900000000009,2221.2199999999998,6917.3199999999997,-3382.2199999999998,177.91800000000001,-510.26100000000002
171625.0,8411.7600000000002,8843.3299999999999,2250.4099999999999,6997.8199999999997,-3394.0599999999999,290.52100000000002,-643.005
171626.0,8453.0499999999993,8807.0400000000009,2227.0900000000001,7024.0100000000002,-3387.4200000000001,402.714,-774.82299999999998
171627.0,8470.4599999999991,8777.8099999999995,2236.3299999999999,7082.6300000000001,-3362.98,513.26400000000001,-904.38400000000001
171628.0,8462.2999999999993,8683.2999999999993,2211.6100000000001,7105.9799999999996,-3322.1100000000001,619.77099999999996,-1030.55
171629.0,8430.4899999999998,8595.3400000000001,2228.1500000000001,7172.6400000000003,-3268.54,717.58199999999999,-1150.6099999999999
171630.0,7252.6400000000003,8114.04,2075.52,6203.8299999999999,-2706.9200000000001,-738.03099999999995,368.17899999999997
171631.0,7498.29,8183.9899999999998,1966.6500000000001,6194.2799999999997,-2873.2399999999998,-581.36300000000006,258.38999999999999
171632.0,7702.7799999999997,8485.3999999999996,2126.71,6430.3999999999996,-3005.3600000000001,-441.78300000000002,143.398
171633.0,7889.6800000000003,8563.7600000000002,2079.6700000000001,6459.9700000000003,-3116.1799999999998,-308.78399999999999,20.278400000000001
171634.0,8047.4200000000001,8780.5699999999997,2192.1500000000001,6636.0799999999999,-3201.7199999999998,-179.983,-105.456
171635.0,8187.6800000000003,8823.5200000000004,2151.6399999999999,6660.9899999999998,-3271.0900000000001,-51.954999999999998,-236.38200000000001
171636.0,8300.8400000000001,9016.4799999999996,2286.1300000000001,6852.0200000000004,-3319.8699999999999,75.731300000000005,-368.40899999999999
171637.0,8391.25,8947.1499999999996,2179.7399999999998,6803.9700000000003,-3348.8699999999999,203.52600000000001,-502.26900000000001
171638.0,8456.7600000000002,9055.8299999999999,2277.0999999999999,6954.0600000000004,-3359.25,331.66800000000001,-635.54100000000005
171639.0,8500.3400000000001,9003.8199999999997,2240.5999999999999,6970.96,-3353.0,459.17700000000002,-768.20799999999997
171640.0,8518.3799999999992,9031.8400000000001,2312.8299999999999,7096.4499999999998,-3327.9400000000001,585.02999999999997,-898.798
171641.0,8511.5300000000007,8908.0699999999997,2265.5799999999999,7104.8999999999996,-3286.1799999999998,706.38499999999999,-1025.6300000000001
171642.0,8482.2199999999993,8813.9599999999991,2283.2399999999998,7182.6800000000003,-3231.9299999999998,818.61099999999999,-1146.54
171643.0,7211.9899999999998,8197.8799999999992,2087.9899999999998,6103.3500000000004,-2629.6999999999998,-799.79399999999998,377.42099999999999
171644.0,7472.6400000000003,8314.0499999999993,2002.9400000000001,6123.3000000000002,-2805.7600000000002,-633.63800000000003,268.01999999999998
171645.0,7690.5100000000002,8631.6399999999994,2158.0999999999999,6359.8199999999997,-2944.6399999999999,-482.46800000000002,154.78
171646.0,7882.3400000000001,8716.5400000000009,2103.77,6381.4700000000003,-3057.46,-338.63799999999998,31.366499999999998
171647.0,8046.4300000000003,8954.3600000000006,2226.4200000000001,6568.0200000000004,-3146.3400000000001,-196.42400000000001,-93.725200000000001
171648.0,8187.7399999999998,9016.4099999999999,2197.7800000000002,6602.8000000000002,-3215.4299999999998,-55.339100000000002,-224.57900000000001
171649.0,8303.0900000000001,9129.0699999999997,2244.8200000000002,6707.6499999999996,-3263.48,87.359499999999997,-356.40699999999998
171650.0,8395.9599999999991,9209.25,2288.54,6808.0200000000004,-3294.8299999999999,229.77600000000001,-490.584
171651.0,8460.8099999999995,9250.3500000000004,2320.3899999999999,6893.2700000000004,-3304.25,373.245,-623.86599999999999
171652.0,8500.6599999999999,9204.1299999999992,2293.48,6921.7399999999998,-3294.0999999999999,516.197,-756.06700000000001
171653.0,8515.75,9165.9200000000001,2305.6500000000001,6991.1800000000003,-3265.5999999999999,657.49000000000001,-886.02700000000004
171654.0,8507.7099999999991,9055.8700000000008,2280.3800000000001,7027.5900000000001,-3221.6999999999998,793.68399999999997,-1012.36
171655.0,8480.3799999999992,8957.25,2302.6100000000001,7119.04,-3167.2199999999998,920.11500000000001,-1133.2
171656.0,7136.1800000000003,8199.7900000000009,2049.4400000000001,5923.8800000000001,-2533.1500000000001,-860.00300000000004,385.86700000000002
171657.0,7409.8299999999999,8456.0699999999997,2081.3299999999999,6063.71,-2717.5,-685.28200000000004,278.32400000000001
171658.0,7639.3900000000003,8697.5799999999999,2139.8699999999999,6210.8900000000003,-2862.2800000000002,-522.61000000000001,166.077
171659.0,7835.4399999999996,8878.4799999999996,2169.4200000000001,6312.8400000000001,-2977.8000000000002,-367.57400000000001,43.9602
171660.0,8002.3800000000001,9056.6299999999992,2221.6399999999999,6429.8500000000004,-3067.0599999999999,-212.54599999999999,-79.944400000000002
171661.0,8143.96,9172.8500000000004,2241.6999999999998,6509.2200000000003,-3136.2199999999998,-57.849299999999999,-210.21100000000001
171662.0,8258.4400000000005,9319.1100000000006,2320.8099999999999,6644.4099999999999,-3183.9200000000001,98.938500000000005,-340.79000000000002
171663.0,8347.0599999999995,9306.4699999999993,2268.6700000000001,6648.2799999999997,-3210.0599999999999,256.63400000000001,-473.81
171664.0,8409.2399999999998,9370.5900000000001,2325.75,6759.1800000000003,-3216.8600000000001,415.46899999999999,-605.71699999999998
171665.0,8446.6399999999994,9344.8999999999996,2326.2399999999998,6814.7299999999996,-3205.4099999999999,573.73099999999999,-736.94899999999996
171666.0,8459.0699999999997,9323.3899999999994,2364.1900000000001,6912.0500000000002,-3175.1500000000001,730.01599999999996,-865.69899999999996
171667.0,8448.8099999999995,9210.2600000000002,2345.4699999999998,6959.7700000000004,-3128.8299999999999,881.04899999999998,-990.60000000000002
171668.0,8421.8799999999992,9068.9799999999996,2334.23,7026.6099999999997,-3072.8299999999999,1021.6799999999999,-1110.01
171669.0,7020.6999999999998,8266.8899999999994,2114.3400000000001,5812.9799999999996,-2415.8000000000002,-920.0,393.71100000000001
171670.0,7308.9799999999996,8479.2399999999998,2073.25,5887.5699999999997,-2607.6599999999999,-734.81799999999998,288.952
171671.0,7546.6700000000001,8792.3999999999996,2186.6399999999999,6093.1000000000004,-2757.8099999999999,-562.50599999999997,178.05500000000001
171672.0,7745.1899999999996,8949.1200000000008,2178.7199999999998,6155.9499999999998,-2874.0100000000002,-395.27499999999998,58.280999999999999
171673.0,7912.4799999999996,9163.9599999999991,2260.3800000000001,6299.5200000000004,-2963.6199999999999,-228.251,-64.4619
171674.0,8051.6300000000001,9269.3799999999992,2263.9200000000001,6359.0600000000004,-3030.3299999999999,-59.809399999999997,-192.35900000000001
171675.0,8163.4300000000003,9360.4599999999991,2285.1599999999999,6433.8100000000004,-3075.5,111.2,-321.464
171676.0,8248.1499999999996,9459.0499999999993,2349.3200000000002,6549.2799999999997,-3101.0300000000002,283.48000000000002,-452.577
171677.0,8304.7399999999998,9461.5,2350.3400000000001,6601.5799999999999,-3104.5,457.22800000000001,-582.36099999999999
171678.0,8335.0300000000007,9435.9200000000001,2356.9699999999998,6663.3400000000001,-3087.1399999999999,630.81799999999998,-710.86199999999997
171679.0,8340.8899999999994,9345.9799999999996,2335.9000000000001,6702.6899999999996,-3051.8699999999999,802.18200000000002,-836.59299999999996
171680.0,8326.0400000000009,9253.4300000000003,2349.0100000000002,6785.9700000000003,-3001.8699999999999,967.70299999999997,-958.62900000000002
171681.0,8297.7199999999993,9098.3899999999994,2336.23,6857.6000000000004,-2944.46,1122.04,-1075.52
171682.0,6869.5699999999997,8176.6199999999999,2054.1599999999999,5545.1899999999996,-2276.02,-977.55600000000004,402.17899999999997
171683.0,7164.6999999999998,8552.3099999999995,2157.3200000000002,5767.0500000000002,-2474.9699999999998,-784.36800000000005,299.40800000000002
171684.0,7412.6700000000001,8780.2999999999993,2162.6100000000001,5872.0100000000002,-2630.0599999999999,-600.10500000000002,191.36699999999999
171685.0,7607.1199999999999,9019.0100000000002,2230.1700000000001,6002.7799999999997,-2745.0500000000002,-422.988,73.668099999999995
171686.0,7774.9099999999999,9179.3899999999994,2247.3600000000001,6082.54,-2833.7399999999998,-242.59999999999999,-46.079599999999999
171687.0,7906.1099999999997,9342.1700000000001,2309.4000000000001,6190.6199999999999,-2897.0599999999999,-61.6995,-171.53700000000001
171688.0,8013.2299999999996,9444.8400000000001,2342.3499999999999,6274.8699999999999,-2939.4400000000001,123.619,-297.57499999999999
171689.0,8088.7600000000002,9480.2399999999998,2345.0799999999999,6323.2200000000003,-2957.7600000000002,310.33199999999999,-425.29199999999997
171690.0,8138.5200000000004,9484.4300000000003,2353.9000000000001,6381.75,-2956.7800000000002,499.09300000000002,-551.76599999999996
171691.0,8159.8000000000002,9486.0799999999999,2400.1700000000001,6477.79,-2935.3400000000001,687.12800000000004,-676.68700000000001
171692.0,8158.4700000000003,9388.2099999999991,2384.4400000000001,6521.9200000000001,-2896.3899999999999,872.85799999999995,-798.78899999999999
171693.0,8136.9399999999996,9299.6100000000006,2415.0599999999999,6623.6400000000003,-2842.0500000000002,1052.4200000000001,-916.59199999999998
171694.0,8106.1899999999996,9076.6800000000003,2346.5,6646.0600000000004,-2781.9699999999998,1220.26,-1029.6400000000001
171695.0,6678.29,7945.3199999999997,1897.5899999999999,5143.2299999999996,-2115.0900000000001,-1031.8399999999999,409.94499999999999
171696.0,6979.8100000000004,8662.3700000000008,2317.7199999999998,5687.4700000000003,-2317.9200000000001,-832.35000000000002,311.55500000000001
171697.0,7230.46,8641.1700000000001,2059.0599999999999,5531.0500000000002,-2477.3499999999999,-636.86400000000003,204.21600000000001
171698.0,7423.2600000000002,9121.2000000000007,2355.2600000000002,5887.7799999999997,-2589.6900000000001,-448.71800000000002,92.224100000000007
171699.0,7583.46,9099.1599999999999,2190.3400000000001,5777.7399999999998,-2676.5700000000002,-257.024,-25.892199999999999
171700.0,7707.6300000000001,9398.4899999999998,2384.7399999999998,6012.9399999999996,-2733.8699999999999,-62.462899999999998,-146.66300000000001
171701.0,7805.0500000000002,9328.9799999999996,2249.8099999999999,5922.3100000000004,-2771.4299999999998,135.756,-269.19200000000001
171702.0,7870.1199999999999,9535.4400000000005,2432.5999999999999,6142.1700000000001,-2785.25,336.86099999999999,-392.815
171703.0,7908.6099999999997,9411.6700000000001,2323.9299999999998,6077.6199999999999,-2778.3899999999999,539.32000000000005,-514.48800000000006
171704.0,7918.5200000000004,9458.3899999999994,2426.0,6224.9700000000003,-2749.0900000000001,742.18700000000001,-634.32399999999996
171705.0,7906.6000000000004,9259.6000000000004,2322.9699999999998,6180.0600000000004,-2703.3800000000001,941.66399999999999,-750.68799999999999
171706.0,7876.2799999999997,9214.5300000000007,2413.0900000000001,6340.4200000000001,-2643.6399999999999,1134.9100000000001,-862.80100000000004
171707.0,7840.3299999999999,8966.6299999999992,2335.1799999999998,6356.9300000000003,-2580.4000000000001,1315.0999999999999,-970.65200000000004
171708.0,6434.7200000000003,8188.1999999999998,2278.8499999999999,5225.3699999999999,-1927.01,-1089.1400000000001,414.88499999999999
171709.0,6761.25,8308.5,2049.0799999999999,5151.4700000000003,-2138.6799999999998,-873.57000000000005,325.19299999999998
171710.0,6995.8299999999999,8801.0200000000004,2307.98,5493.6099999999997,-2295.4699999999998,-675.26099999999997,218.16
171711.0,7193.0600000000004,8868.4899999999998,2173.9899999999998,5431.3500000000004,-2409.3499999999999,-471.471,112.536
171712.0,7335.0900000000001,9171.6900000000005,2338.8699999999999,5630.3800000000001,-2486.7199999999998,-271.41399999999999,-2.6115200000000001
171713.0,7453.3199999999997,9235.4599999999991,2298.1199999999999,5631.1899999999996,-2541.9899999999998,-62.719099999999997,-117.836
171714.0,7533.1199999999999,9395.3999999999996,2402.27,5761.8500000000004,-2570.29,147.53999999999999,-235.66300000000001
171715.0,7588.0299999999997,9371.8199999999997,2360.0300000000002,5755.6000000000004,-2577.0100000000002,362.714,-353.33800000000002
171716.0,7610.25,9386.1900000000005,2403.71,5830.29,-2561.3000000000002,578.62099999999998,-469.14299999999997
171717.0,7607.6000000000004,9329.3799999999992,2418.6199999999999,5885.9700000000003,-2526.0599999999999,794.72500000000002,-582.73400000000004
171718.0,7581.3299999999999,9213.8199999999997,2418.5500000000002,5935.1800000000003,-2473.1500000000001,1007.2,-692.33600000000001
171719.0,7541.2600000000002,9071.9300000000003,2429.7199999999998,6016.0600000000004,-2407.5999999999999,1212.97,-797.36800000000005
171720.0,7498.2200000000003,8822.3099999999995,2366.9200000000001,6048.0600000000004,-2339.48,1405.21,-898.21600000000001
171721.0,6161.4700000000003,8174.1199999999999,2440.73,5048.3999999999996,-1708.71,-1146.25,425.036
171722.0,6492.5299999999997,8071.1099999999997,1960.46,4749.46,-1935.3399999999999,-913.74599999999998,334.40600000000001
171723.0,6721.21,8738.2999999999993,2377.8200000000002,5239.9899999999998,-2085.9499999999998,-708.88999999999999,238.44
171724.0,6907.0500000000002,8724.3700000000008,2163.6199999999999,5095.1700000000001,-2199.5700000000002,-495.5,131.798
171725.0,7037.0699999999997,9089.3500000000004,2387.9000000000001,5341.96,-2268.54,-282.88600000000002,25.666499999999999
171726.0,7138.25,9061.8600000000006,2263.8400000000001,5249.6499999999996,-2315.8699999999999,-64.069199999999995,-85.693299999999994
171727.0,7202.5200000000004,9221.1399999999994,2375.3600000000001,5375.4499999999998,-2334.9899999999998,159.95699999999999,-196.38300000000001
171728.0,7239.5200000000004,9197.0699999999997,2348.8800000000001,5373.1099999999997,-2334.1700000000001,386.447,-307.834
171729.0,7244.6099999999997,9200.9899999999998,2398.4200000000001,5441.9300000000003,-2308.8600000000001,616.04399999999998,-415.99099999999999
171730.0,7225.79,9085.1000000000004,2371.7199999999998,5447.8199999999997,-2263.9899999999998,844.12199999999996,-521.69799999999998
171731.0,7184.4799999999996,8950.6299999999992,2372.96,5490.25,-2201.8400000000001,1069.47,-622.48599999999999
171732.0,7132.0500000000002,8784.7199999999993,2381.4200000000001,5563.4099999999999,-2129.1599999999999,1286.27,-718.92499999999995
171733.0,7080.5500000000002,8571.6900000000005,2375.29,5650.8500000000004,-2055.6399999999999,1489.4400000000001,-811.14499999999998
171734.0,5871.3500000000004,7572.79,2047.45,4294.04,-1471.3,-1188.54,438.70499999999998
171735.0,6175.3199999999997,8174.1899999999996,2279.6599999999999,4692.75,-1699.9200000000001,-959.60500000000002,345.64499999999998
171736.0,6408.6800000000003,8349.75,2174.6999999999998,4681.4300000000003,-1853.8699999999999,-735.89499999999998,258.346
171737.0,6566.9499999999998,8676.1299999999992,2311.2600000000002,4860.0299999999997,-1954.1500000000001,-520.11400000000003,154.911
171738.0,6686.9799999999996,8765.2399999999998,2259.27,4833.6000000000004,-2020.0999999999999,-292.90100000000001,56.712000000000003
171739.0,6763.5,8980.9099999999999,2392.8400000000001,4972.8400000000001,-2054.52,-65.282799999999995,-48.598399999999998
171740.0,6811.1000000000004,8982.5499999999993,2358.52,4947.4099999999999,-2065.8600000000001,171.17699999999999,-151.18000000000001
171741.0,6825.8100000000004,9037.1100000000006,2427.7399999999998,5020.6899999999996,-2051.4699999999998,409.173,-254.572
171742.0,6813.1599999999999,8927.4799999999996,2382.6199999999999,4986.1199999999999,-2016.6500000000001,650.40499999999997,-353.851
171743.0,6774.0900000000001,8891.4899999999998,2461.0300000000002,5080.0,-1960.9400000000001,889.88499999999999,-450.20600000000002
171744.0,6716.8000000000002,8672.3299999999999,2402.21,5053.5799999999999,-1889.9100000000001,1125.73,-541.14700000000005
171745.0,6650.0600000000004,8521.75,2451.52,5157.29,-1808.0699999999999,1353.0799999999999,-626.96600000000001
171746.0,6590.04,8185.8400000000001,2344.6100000000001,5141.96,-1728.5599999999999,1565.28,-709.33699999999999
171747.0,5547.7299999999996,7190.6999999999998,1944.8199999999999,3790.2600000000002,-1214.75,-1225.52,447.51400000000001
171748.0,5830.0900000000001,7999.1300000000001,2371.1500000000001,4358.71,-1432.96,-999.26199999999994,363.14600000000002
171749.0,6048.3199999999997,8025.1599999999999,2106.8299999999999,4207.46,-1591.0899999999999,-764.41200000000003,275.34500000000003
171750.0,6188.6099999999997,8507.2999999999993,2400.3899999999999,4519.7700000000004,-1681.3299999999999,-539.50599999999997,184.29599999999999
171751.0,6285.1899999999996,8474.0100000000002,2236.73,4375.0600000000004,-1738.1199999999999,-304.24299999999999,89.325299999999999
171752.0,6337.8100000000004,8693.8600000000006,2388.5599999999999,4510.8199999999997,-1758.3900000000001,-65.114500000000007,-5.6386900000000004
171753.0,6362.2700000000004,8601.0699999999997,2277.6599999999999,4395.4099999999999,-1757.97,180.52699999999999,-100.498
171754.0,6353.5600000000004,8695.6200000000008,2410.6799999999998,4511.6099999999997,-1731.1300000000001,429.92099999999999,-193.81
171755.0,6319.6999999999998,8521.5100000000002,2325.3299999999999,4421.8599999999997,-1684.23,680.83199999999999,-283.12
171756.0,6261.5799999999999,8457.0699999999997,2401.6700000000001,4497.0299999999997,-1615.53,931.13699999999994,-367.995
171757.0,6188.3699999999999,8186.3199999999997,2318.6599999999999,4433.6400000000003,-1533.3499999999999,1176.04,-447.447
171758.0,6109.3699999999999,8035.1300000000001,2396.1799999999998,4553.3400000000001,-1442.0599999999999,1412.48,-520.73900000000003
171759.0,6041.5299999999997,7726.2399999999998,2341.5,4583.96,-1355.23,1632.02,-591.79600000000005
171760.0,5202.4399999999996,6972.6700000000001,2085.0300000000002,3458.7199999999998,-922.88400000000001,-1268.49,455.00999999999999
171761.0,5469.7200000000003,7579.29,2273.3200000000002,3804.1900000000001,-1144.6300000000001,-1028.95,381.63099999999997
171762.0,5655.7200000000003,7815.25,2224.48,3855.7800000000002,-1295.8,-793.57399999999996,296.04599999999999
171763.0,5772.0100000000002,8057.8000000000002,2281.21,3926.6799999999998,-1375.8299999999999,-556.09400000000005,214.72399999999999
171764.0,5840.6400000000003,8186.6999999999998,2295.8600000000001,3935.8099999999999,-1418.46,-314.92500000000001,127.38800000000001
171765.0,5870.0699999999997,8316.1800000000003,2375.5,3985.8800000000001,-1428.45,-65.342699999999994,41.983600000000003
171766.0,5868.1099999999997,8318.6399999999994,2384.0799999999999,3964.8499999999999,-1412.51,188.886,-42.764499999999998
171767.0,5837.3000000000002,8286.8999999999996,2415.5100000000002,3962.9400000000001,-1371.54,447.786,-125.03
171768.0,5781.9300000000003,8153.6599999999999,2400.8600000000001,3920.96,-1309.6199999999999,707.56399999999996,-202.38800000000001
171769.0,5706.5,8023.1899999999996,2443.52,3944.3499999999999,-1228.3099999999999,966.13099999999997,-274.81900000000002
171770.0,5619.2700000000004,7768.7299999999996,2410.6999999999998,3911.6199999999999,-1133.22,1218.71,-340.86399999999998
171771.0,5531.8100000000004,7521.5,2424.9899999999998,3953.8299999999999,-1030.8299999999999,1462.04,-400.19099999999997
171772.0,5459.4300000000003,7149.2299999999996,2336.79,3939.9499999999998,-934.65800000000002,1687.3699999999999,-457.68000000000001
171773.0,4874.5600000000004,6763.8599999999997,2300.5,3137.8200000000002,-601.90099999999995,-1307.8199999999999,468.27999999999997
171774.0,5098.0600000000004,7054.4799999999996,2144.3899999999999,3173.1799999999998,-827.47799999999995,-1056.3299999999999,396.91500000000002
171775.0,5248.8400000000001,7487.8800000000001,2296.7199999999998,3402.4299999999998,-966.86400000000003,-817.03700000000003,322.67599999999999
171776.0,5338.29,7650.4399999999996,2281.6599999999999,3399.0,-1042.3099999999999,-572.26199999999994,246.39500000000001
171777.0,5374.8199999999997,7796.5600000000004,2336.1900000000001,3418.8099999999999,-1066.4100000000001,-323.50400000000002,170.18899999999999
171778.0,5375.9899999999998,7787.71,2300.8899999999999,3337.02,-1059.4400000000001,-66.935100000000006,94.752300000000005
171779.0,5348.3900000000003,7776.8400000000001,2326.4099999999999,3304.4299999999998,-1025.6800000000001,195.51900000000001,22.006900000000002
171780.0,5296.8800000000001,7689.3999999999996,2333.6900000000001,3257.2399999999998,-969.63599999999997,461.56099999999998,-47.9557
171781.0,5224.9499999999998,7545.1599999999999,2344.1199999999999,3213.4000000000001,-891.28700000000003,728.96900000000005,-111.816
171782.0,5140.2200000000003,7324.3000000000002,2331.4000000000001,3160.8699999999999,-794.947,993.96699999999998,-169.84
171783.0,5050.1099999999997,7057.8900000000003,2324.3299999999999,3131.1900000000001,-685.76999999999998,1252.76,-220.77600000000001
171784.0,4966.7399999999998,6767.9899999999998,2332.3499999999999,3149.25,-572.41899999999998,1500.74,-264.63999999999999
171785.0,4902.7299999999996,6467.7200000000003,2348.9200000000001,3226.04,-467.14499999999998,1729.9400000000001,-307.08199999999999
171786.0,4594.1499999999996,6195.5600000000004,2216.8899999999999,2478.02,-252.14500000000001,-1336.4400000000001,482.44600000000003
171787.0,4749.0600000000004,6648.8100000000004,2214.5500000000002,2677.0999999999999,-481.43700000000001,-1082.6199999999999,414.904
171788.0,4857.1099999999997,6999.0600000000004,2283.79,2816.27,-610.98000000000002,-835.68399999999997,351.18200000000002
171789.0,4907.4300000000003,7121.3999999999996,2247.9099999999999,2771.8099999999999,-667.43799999999999,-587.64099999999996,281.81599999999997
171790.0,4917.8900000000003,7263.2200000000003,2319.8200000000002,2789.29,-677.70899999999995,-330.78399999999999,218.05000000000001
171791.0,4894.8000000000002,7295.71,2358.1999999999998,2752.6599999999999,-655.11199999999997,-68.936000000000007,153.12200000000001
171792.0,4848.9300000000003,7255.1599999999999,2388.5599999999999,2698.4400000000001,-603.81600000000003,200.19399999999999,93.734499999999997
171793.0,4785.3199999999997,7137.6599999999999,2403.77,2630.3400000000001,-528.97400000000005,471.60899999999998,37.4407
171794.0,4711.29,6935.6300000000001,2396.2600000000002,2540.9000000000001,-433.048,744.529,-11.376799999999999
171795.0,4633.1999999999998,6714.6400000000003,2426.1500000000001,2503.3499999999999,-320.45400000000001,1013.87,-53.740499999999997
171796.0,4560.6199999999999,6386.3800000000001,2400.5300000000002,2429.1799999999998,-195.89400000000001,1276.3599999999999,-87.923400000000001
171797.0,4503.8400000000001,6044.9499999999998,2398.8299999999999,2414.4499999999998,-68.280600000000007,1526.8599999999999,-114.29600000000001
171798.0,4469.1700000000001,5606.3400000000001,2315.21,2373.1399999999999,48.936700000000002,1757.23,-139.559
171799.0,4398.6999999999998,5584.54,2166.8600000000001,1806.3099999999999,118.223,-1356.53,497.78199999999998
171800.0,4468.3800000000001,6149.6499999999996,2272.1799999999998,2105.8099999999999,-100.446,-1104.02,436.68700000000001
171801.0,4520.1499999999996,6385.7200000000003,2229.5100000000002,2134.8400000000001,-222.94800000000001,-850.88400000000001,380.39100000000002
171802.0,4535.9200000000001,6628.3100000000004,2339.6500000000001,2208.3899999999999,-266.04300000000001,-599.52200000000005,322.04899999999998
171803.0,4518.75,6619.4399999999996,2293.5100000000002,2084.5,-255.59,-338.49099999999999,269.51100000000002
171804.0,4482.6199999999999,6598.8900000000003,2315.4899999999998,1998.7,-208.48400000000001,-72.066299999999998,218.381
171805.0,4433.7399999999998,6465.1000000000004,2292.6500000000001,1862.3099999999999,-136.97800000000001,201.06100000000001,173.512
171806.0,4381.04,6314.7799999999997,2318.8600000000001,1771.53,-42.244199999999999,476.60500000000002,132.512
171807.0,4331.0600000000004,6062.0,2307.5,1646.9300000000001,72.251599999999996,752.65899999999999,100.414
171808.0,4293.9899999999998,5761.8199999999997,2305.7800000000002,1545.6300000000001,203.298,1024.3900000000001,75.3386
171809.0,4277.0100000000002,5391.2299999999996,2285.4899999999998,1447.9000000000001,343.43599999999998,1288.3800000000001,59.686900000000001
171810.0,4285.8299999999999,5022.8500000000004,2303.9699999999998,1425.4100000000001,484.24599999999998,1538.8299999999999,51.486600000000003
171811.0,4315.21,4636.3400000000001,2314.8200000000002,1456.72,611.52300000000002,1767.8,44.584699999999998
171812.0,4348.0699999999997,4952.9499999999998,2181.3200000000002,1137.9300000000001,520.322,-1371.6099999999999,512.20899999999995
171813.0,4316.6300000000001,5508.1499999999996,2267.6500000000001,1420.0999999999999,306.52800000000002,-1117.53,461.55900000000003
171814.0,4302.2299999999996,5767.3900000000003,2264.8099999999999,1478.27,196.81299999999999,-864.21900000000005,412.60899999999998
171815.0,4291.1000000000004,5885.0799999999999,2274.1700000000001,1428.9200000000001,175.90799999999999,-608.86300000000006,366.65800000000002
171816.0,4265.1800000000003,5909.7600000000002,2298.4200000000001,1345.8399999999999,204.37299999999999,-345.25999999999999,326.37599999999998
171817.0,4236.8100000000004,5888.3400000000001,2366.1599999999999,1270.76,269.68799999999999,-76.024100000000004,289.37200000000001
171818.0,4214.0500000000002,5720.6899999999996,2358.7600000000002,1113.0999999999999,362.786,198.86000000000001,259.93099999999998
171819.0,4206.8199999999997,5543.0900000000001,2410.5599999999999,1009.88,479.46699999999998,475.64699999999999,235.648
171820.0,4224.71,5206.2399999999998,2366.4699999999998,816.22799999999995,614.53399999999999,752.37400000000002,221.452
171821.0,4273.3400000000001,4911.5900000000001,2424.0799999999999,738.31799999999998,764.46400000000006,1024.1900000000001,214.863
171822.0,4356.3900000000003,4454.3299999999999,2371.46,573.64599999999996,922.28300000000002,1286.72,219.273
171823.0,4472.5699999999997,4038.7199999999998,2393.6700000000001,523.69500000000005,1079.8399999999999,1534.7,231.387
171824.0,4599.6199999999999,3479.3400000000001,2278.4000000000001,403.05200000000002,1221.4200000000001,1759.6300000000001,245.35400000000001
171825.0,4500.5,4246.0900000000001,2210.23,420.00599999999997,949.83600000000001,-1379.6199999999999,530.255
171826.0,4356.9300000000003,4797.5299999999997,2283.98,700.23000000000002,744.77300000000002,-1125.1900000000001,487.73200000000003
171827.0,4286.25,5004.4499999999998,2246.0999999999999,707.38900000000001,649.35199999999998,-872.51300000000003,448.226
171828.0,4257.9300000000003,5161.9200000000001,2334.3499999999999,709.71799999999996,644.471,-616.0,415.21600000000001
171829.0,4249.8800000000001,5080.1999999999998,2300.4000000000001,531.779,698.55899999999997,-352.58199999999999,388.54300000000001
171830.0,4270.1099999999997,4952.1499999999996,2309.5599999999999,361.32799999999997,791.43799999999999,-82.960400000000007,368.25299999999999
171831.0,4316.1300000000001,4720.1700000000001,2290.6599999999999,153.19800000000001,908.30200000000002,191.86000000000001,355.54500000000002
171832.0,4401.1199999999999,4442.25,2295.9200000000001,-36.436599999999999,1047.6300000000001,468.35899999999998,349.53899999999999
171833.0,4526.4499999999998,4080.3600000000001,2287.7199999999998,-235.47,1203.8900000000001,743.86400000000003,354.71100000000001
171834.0,4697.9799999999996,3669.54,2289.8699999999999,-410.42500000000001,1374.6199999999999,1012.48,368.00400000000002
171835.0,4908.8999999999996,3169.6199999999999,2253.3299999999999,-596.66499999999996,1549.8499999999999,1271.75,393.99099999999999
171836.0,5147.5299999999997,2712.73,2293.5599999999999,-665.93600000000004,1722.5899999999999,1513.78,426.50700000000001
171837.0,5379.6899999999996,2200.0100000000002,2279.77,-717.31100000000004,1876.1300000000001,1731.23,461.94099999999997
171838.0,4889.9799999999996,3423.8600000000001,2207.4000000000001,-383.45800000000003,1410.45,-1377.6300000000001,549.58500000000004
171839.0,4644.0,3976.9899999999998,2284.73,-94.457800000000006,1211.79,-1126.98,516.62800000000004
171840.0,4532.6800000000003,4184.5100000000002,2276.1799999999998,-78.349100000000007,1132.0,-876.82600000000002,488.42599999999999
171841.0,4523.1000000000004,4237.5200000000004,2294.6599999999999,-172.50899999999999,1152.54,-621.95899999999995,468.28699999999998
171842.0,4566.3100000000004,4125.3699999999999,2278.4400000000001,-368.64600000000002,1228.9200000000001,-358.92700000000002,457.05099999999999
171843.0,4662.8800000000001,4012.5999999999999,2366.3800000000001,-505.55200000000002,1343.5799999999999,-91.528099999999995,453.096
171844.0,4808.5900000000001,3696.25,2329.3099999999999,-778.78300000000002,1485.1600000000001,180.14099999999999,458.52600000000001
171845.0,5010.25,3438.5100000000002,2427.1900000000001,-927.13900000000001,1648.8199999999999,452.02600000000001,471.62200000000001
171846.0,5264.2299999999996,2941.9400000000001,2347.5700000000002,-1242.8599999999999,1828.04,722.81299999999999,497.029
171847.0,5566.6899999999996,2545.52,2429.0500000000002,-1382.8299999999999,2019.1300000000001,986.99000000000001,531.33600000000001
171848.0,5905.4399999999996,1945.28,2359.8600000000001,-1646.1099999999999,2213.8400000000001,1238.8,579.74300000000005
171849.0,6264.1700000000001,1432.48,2405.1599999999999,-1750.3699999999999,2404.8299999999999,1472.9300000000001,634.86900000000003
171850.0,6598.5699999999997,732.44399999999996,2260.3699999999999,-1966.0899999999999,2574.3899999999999,1680.9300000000001,693.399
171851.0,5512.0699999999997,2546.2199999999998,2250.4699999999998,-1197.9300000000001,1898.4000000000001,-1365.1199999999999,572.04600000000005
171852.0,5196.75,3084.8200000000002,2311.6799999999998,-920.02700000000004,1710.8800000000001,-1123.0799999999999,547.90499999999997
171853.0,5079.0799999999999,3221.1100000000001,2254.6599999999999,-971.42700000000002,1651.02,-877.61400000000003,532.07000000000005
171854.0,5102.79,3273.5300000000002,2331.1300000000001,-1045.47,1688.9400000000001,-625.24900000000002,528.04300000000001
171855.0,5223.7600000000002,3113.6100000000001,2340.9699999999998,-1266.8399999999999,1791.72,-368.67200000000003,531.74300000000005
171856.0,5427.8100000000004,2825.3499999999999,2315.9699999999998,-1562.6099999999999,1936.6500000000001,-106.456,546.70299999999997
171857.0,5691.3500000000004,2494.4200000000001,2327.3099999999999,-1835.25,2104.29,160.18899999999999,571.56100000000004
171858.0,6016.0900000000001,2017.3699999999999,2264.3099999999999,-2188.4099999999999,2291.7800000000002,428.69499999999999,604.697
171859.0,6393.5,1556.95,2297.5,-2442.3299999999999,2493.73,693.83100000000002,651.20000000000005
171860.0,6820.2399999999998,988.04600000000005,2283.5999999999999,-2730.23,2707.9000000000001,947.75300000000004,707.46100000000001
171861.0,7275.9099999999999,359.77499999999998,2253.6399999999999,-3000.9099999999999,2921.7600000000002,1191.4400000000001,779.88699999999994
171862.0,7739.7700000000004,-234.964,2289.73,-3160.4400000000001,3129.3600000000001,1414.6199999999999,856.99400000000003
171863.0,8168.0,-861.05799999999999,2288.0999999999999,-3275.8000000000002,3314.5999999999999,1608.26,938.86900000000003
171864.0,6363.4200000000001,1563.6400000000001,2268.6700000000001,-2080.3200000000002,2425.1500000000001,-1348.04,592.40899999999999
171865.0,5998.6599999999999,2012.5699999999999,2245.6900000000001,-1885.53,2243.0700000000002,-1112.0699999999999,583.48000000000002
171866.0,5896.6599999999999,2230.9000000000001,2332.1599999999999,-1835.1900000000001,2198.1900000000001,-876.31600000000003,581.85199999999998
171867.0,5988.1599999999999,2133.3099999999999,2301.3299999999999,-2047.3900000000001,2265.5799999999999,-631.26099999999997,593.01199999999994
171868.0,6207.2299999999996,1864.21,2249.5,-2371.9200000000001,2396.98,-378.47699999999998,615.94500000000005
171869.0,6508.9200000000001,1624.3,2346.5900000000001,-2593.48,2562.4099999999999,-121.79900000000001,649.577
171870.0,6890.79,1138.1900000000001,2297.6100000000001,-2995.1999999999998,2754.1300000000001,136.40100000000001,695.24000000000001
171871.0,7336.1199999999999,799.43899999999996,2481.54,-3172.3699999999999,2966.4299999999998,392.67899999999997,746.36800000000005
171872.0,7837.2299999999996,121.66200000000001,2374.75,-3623.2600000000002,3196.1700000000001,644.64300000000003,814.57000000000005
171873.0,8374.5400000000009,-430.714,2445.2199999999998,-3875.0500000000002,3430.3899999999999,890.70799999999997,896.29499999999996
171874.0,8939.4799999999996,-1152.9300000000001,2406.6599999999999,-4212.4799999999996,3663.9099999999999,1121.71,990.70600000000002
171875.0,9504.9799999999996,-1828.77,2434.2600000000002,-4428.7600000000002,3891.3699999999999,1332.0899999999999,1091.76
171876.0,10024.4,-2652.6700000000001,2303.21,-4712.8100000000004,4095.3499999999999,1512.4400000000001,1196.7
171877.0,7395.1899999999996,592.55700000000002,2398.8800000000001,-2902.0,2970.4899999999998,-1324.8499999999999,623.07500000000005
171878.0,7008.4200000000001,890.65300000000002,2226.7600000000002,-2848.7800000000002,2802.77,-1100.5599999999999,619.91099999999994
171879.0,6963.9300000000003,1024.78,2245.25,-2895.23,2790.0500000000002,-873.71799999999996,635.80899999999997
171880.0,7118.0900000000001,875.99000000000001,2257.8699999999999,-3117.48,2872.5300000000002,-632.88199999999995,667.17600000000004
171881.0,7447.3100000000004,705.97000000000003,2440.2600000000002,-3298.75,3027.5,-400.27999999999997,705.61400000000003
171882.0,7868.3100000000004,178.773,2340.2199999999998,-3785.0,3222.02,-156.20099999999999,762.02499999999998
171883.0,8373.1000000000004,-239.36099999999999,2433.1500000000001,-4103.7799999999997,3446.27,96.384900000000002,826.00099999999998
171884.0,8927.2700000000004,-1017.4299999999999,2217.5,-4709.1599999999999,3690.7600000000002,346.161,901.00400000000002
171885.0,9531.9500000000007,-1576.47,2313.9299999999998,-5015.1999999999998,3937.54,589.48900000000003,994.11199999999997
171886.0,10179.0,-2320.54,2294.8000000000002,-5425.1999999999998,4192.8000000000002,816.95899999999995,1095.76
171887.0,10849.9,-3087.77,2282.6399999999999,-5794.4499999999998,4447.7600000000002,1036.71,1217.24
171888.0,11510.0,-3871.8699999999999,2289.6399999999999,-6082.8699999999999,4691.6700000000001,1237.53,1338.5
171889.0,12124.4,-4589.5500000000002,2355.0700000000002,-6217.6700000000001,4916.7399999999998,1395.75,1466.0599999999999
171890.0,8570.6900000000005,-687.79899999999998,2284.6700000000001,-3992.4299999999998,3534.9200000000001,-1305.29,653.02800000000002
171891.0,8194.8400000000001,-421.02999999999997,2135.0,-3941.5599999999999,3384.0999999999999,-1084.9000000000001,668.84000000000003
171892.0,8217.5699999999997,-166.70400000000001,2423.2399999999998,-3810.98,3383.0999999999999,-878.45000000000005,695.30399999999997
171893.0,8475.3400000000001,-470.12299999999999,2302.8200000000002,-4199.4399999999996,3509.9400000000001,-661.178,735.45000000000005
171894.0,8907.8899999999994,-1039.1600000000001,2066.79,-4815.3900000000003,3707.3299999999999,-418.70699999999999,807.47199999999998
171895.0,9445.0900000000001,-1374.54,2251.96,-5070.1199999999999,3939.6300000000001,-170.941,884.92999999999995
171896.0,10074.0,-2090.21,2186.29,-5637.9200000000001,4185.4799999999996,57.328400000000002,978.83900000000006
171897.0,10735.1,-2432.27,2582.7199999999998,-5751.6300000000001,4428.6899999999996,283.71600000000001,1056.24
171898.0,11469.6,-3321.2600000000002,2447.3899999999999,-6343.1099999999997,4721.4899999999998,498.899,1166.99
171899.0,12242.4,-4049.04,2493.3200000000002,-6755.5799999999999,5009.0299999999997,709.66800000000001,1323.9300000000001
171900.0,13010.0,-4895.3800000000001,2510.96,-7179.8299999999999,5269.3299999999999,929.90800000000002,1457.95
171901.0,13760.299999999999,-5759.79,2529.4400000000001,-7490.9099999999999,5536.2200000000003,1114.5899999999999,1592.8800000000001
171902.0,14469.799999999999,-6757.4899999999998,2391.0500000000002,-7866.8900000000003,5785.8299999999999,1253.53,1747.1900000000001
171903.0,9849.7399999999998,-1734.6700000000001,2554.4400000000001,-4742.79,4093.9400000000001,-1278.53,703.60000000000002
171904.0,9576.2900000000009,-1652.05,2298.5799999999999,-4855.8900000000003,4002.1900000000001,-1098.0899999999999,708.52800000000002
171905.0,9727.2700000000004,-1922.6500000000001,2026.1600000000001,-5300.6300000000001,4087.27,-898.75,760.80999999999995
171906.0,10085.4,-2157.04,2181.0300000000002,-5537.96,4214.3599999999997,-686.69299999999998,837.03300000000002
171907.0,10636.5,-2245.8000000000002,2711.3400000000001,-5572.1199999999999,4390.75,-493.95699999999999,902.06700000000001
171908.0,11245.700000000001,-3071.48,2480.5999999999999,-6344.3500000000004,4606.5200000000004,-258.36000000000001,982.86900000000003
171909.0,12019.1,-3647.8600000000001,2611.8699999999999,-6720.6400000000003,4940.2700000000004,6.54657,1061.23
171910.0,12958.5,-4753.6899999999996,2259.3800000000001,-7535.2399999999998,5379.29,178.63499999999999,1236.8699999999999
171911.0,13800.200000000001,-5419.3900000000003,2344.7399999999998,-8024.4399999999996,5667.0500000000002,348.08999999999997,1465.45
171912.0,14550.5,-6346.9899999999998,2296.6300000000001,-8645.7800000000007,5864.9399999999996,602.97699999999998,1588.0999999999999
171913.0,15378.5,-7302.04,2305.6300000000001,-9077.7199999999993,6144.4200000000001,824.08500000000004,1700.98
171914.0,16229.4,-8280.8899999999994,2295.5599999999999,-9458.2700000000004,6438.5,981.5,1865.6500000000001
171915.0,17037.799999999999,-9116.5799999999999,2423.0,-9622.2099999999991,6705.79,1100.03,2041.25
171916.0,11158.799999999999,-3405.25,2108.3400000000001,-6100.3599999999997,4678.2200000000003,-1266.28,713.58600000000001
171917.0,11170.1,-3443.6700000000001,2135.1100000000001,-6184.5799999999999,4659.3699999999999,-1141.99,775.51900000000001
171918.0,11462.700000000001,-3106.9499999999998,2852.3099999999999,-5919.5699999999997,4697.9099999999999,-989.923,828.10500000000002
171919.0,12027.0,-3793.46,2510.3899999999999,-6693.6000000000004,4972.5100000000002,-770.83799999999997,867.51999999999998
171920.0,12753.1,-4962.5699999999997,1770.3,-7824.2299999999996,5339.79,-554.93700000000001,1063.01
171921.0,13786.4,-5146.3500000000004,2595.3600000000001,-7901.4700000000003,5660.5799999999999,-323.839,1260.8299999999999
171922.0,14682.200000000001,-5984.2799999999997,2483.6100000000001,-8573.2800000000007,6087.3999999999996,-133.47900000000001,1156.74
171923.0,15129.1,-6805.8000000000002,1859.0899999999999,-9147.1299999999992,6371.5799999999999,48.405500000000004,1442.5
171924.0,16058.6,-7852.9099999999999,1886.3399999999999,-10013.299999999999,6494.6899999999996,306.20600000000002,1870.1700000000001
171925.0,17165.700000000001,-8424.3299999999999,2716.5799999999999,-10158.799999999999,6766.6199999999999,494.90300000000002,1836.04
171926.0,18069.0,-9433.0599999999995,2726.4899999999998,-10557.4,7097.0799999999999,644.10500000000002,1944.9100000000001
171927.0,19019.900000000001,-10480.0,2714.8699999999999,-11005.0,7405.71,806.80899999999997,2157.29
171928.0,19911.0,-11725.6,2503.8499999999999,-11500.299999999999,7705.5799999999999,918.89400000000001,2342.6700000000001
171929.0,131091.0,-287515.0,-227814.0,-241683.0,-68700.300000000003,3765.52,4270.46
171930.0,155457.0,-321082.0,-261425.0,-263273.0,-78319.5,-13469.299999999999,-24281.0
171931.0,158991.0,-290159.0,-227878.0,-255368.0,-63122.0,-29138.099999999999,-51171.199999999997
171932.0,138163.0,-229199.0,-165021.0,-228148.0,-38754.199999999997,-27852.5,-52292.900000000001
171933.0,109779.0,-171358.0,-112609.0,-188742.0,-22586.099999999999,-18103.5,-39845.199999999997
171934.0,93763.199999999997,-138687.0,-79460.899999999994,-166182.0,-15275.1,-5055.8100000000004,-26600.599999999999
171935.0,90057.800000000003,-134319.0,-71280.300000000003,-157830.0,-23268.099999999999,8441.4599999999991,-9375.8099999999995
171936.0,105876.0,-147629.0,-85185.0,-165774.0,-40472.599999999999,17522.799999999999,2079.77
171937.0,143843.0,-202902.0,-141532.0,-207798.0,-63585.699999999997,30015.400000000001,24274.900000000001
171938.0,190590.0,-289195.0,-245576.0,-243732.0,-98054.5,28186.099999999999,32200.400000000001
171939.0,209264.0,-355992.0,-337790.0,-293064.0,-116162.0,-778.71600000000001,-7372.6000000000004
171940.0,188371.0,-345571.0,-355537.0,-332361.0,-100035.0,-21570.299999999999,-34934.900000000001
171941.0,142472.0,-299363.0,-348355.0,-328276.0,-69724.899999999994,-18752.900000000001,-30762.599999999999
171942.0,165960.0,-320541.0,-387731.0,-344612.0,-85763.300000000003,21507.900000000001,14285.0
171943.0,204238.0,-356457.0,-463858.0,-359090.0,-97730.800000000003,17736.5,-16896.200000000001
171944.0,212471.0,-357102.0,-445506.0,-362652.0,-89429.800000000003,3313.8800000000001,-67730.300000000003
171945.0,186205.0,-300562.0,-336661.0,-326787.0,-67313.300000000003,-6575.54,-81455.699999999997
171946.0,145246.0,-216290.0,-222576.0,-261303.0,-43508.099999999999,-7568.9099999999999,-66989.699999999997
171947.0,105326.0,-162240.0,-156639.0,-224093.0,-27985.599999999999,3044.8299999999999,-38783.599999999999
171948.0,79365.199999999997,-143701.0,-157811.0,-210418.0,-25249.599999999999,13160.1,-7251.8999999999996
171949.0,90802.800000000003,-121324.0,-168686.0,-203932.0,-19906.799999999999,22718.099999999999,10850.700000000001
171950.0,157751.0,-176173.0,-248741.0,-264297.0,-27838.099999999999,45473.0,56921.300000000003
171951.0,239325.0,-291855.0,-436851.0,-320242.0,-66043.699999999997,48954.300000000003,80182.5
171952.0,250521.0,-367857.0,-581130.0,-374566.0,-77742.0,13075.6,2351.54
171953.0,211520.0,-326015.0,-528300.0,-396473.0,-35425.199999999997,-7430.2200000000003,-55315.699999999997
171954.0,157398.0,-239416.0,-404457.0,-332152.0,4366.2200000000003,5320.0600000000004,-36963.0
171955.0,198434.0,-225546.0,-431276.0,-338375.0,9875.9099999999999,33244.800000000003,36171.699999999997
171956.0,248010.0,-238186.0,-493029.0,-325506.0,21577.200000000001,44775.099999999999,35501.300000000003
171957.0,242147.0,-272537.0,-522232.0,-333355.0,15504.4,48143.900000000001,-5773.6599999999999
171958.0,199356.0,-252725.0,-444953.0,-306026.0,1174.5,35352.400000000001,-46341.5
171959.0,154749.0,-199266.0,-323171.0,-270658.0,3629.6700000000001,20247.799999999999,-60757.900000000001
171960.0,108695.0,-135333.0,-210718.0,-223348.0,13912.200000000001,18263.0,-33856.699999999997
171961.0,92532.300000000003,-101553.0,-166815.0,-185452.0,25522.200000000001,15328.4,-5178.8699999999999
171962.0,115569.0,-86549.100000000006,-136889.0,-177765.0,42638.099999999999,16207.299999999999,16848.700000000001
171963.0,186662.0,-125768.0,-184327.0,-221270.0,46329.900000000001,25983.700000000001,80458.0
171964.0,260310.0,-221936.0,-391650.0,-274067.0,41487.900000000001,22370.200000000001,113172.0
171965.0,266120.0,-253554.0,-508178.0,-284788.0,59126.800000000003,5617.6700000000001,28173.5
171966.0,230452.0,-217378.0,-406603.0,-284838.0,84482.699999999997,5611.0699999999997,-36560.699999999997
171967.0,172645.0,-157359.0,-261307.0,-224098.0,81886.100000000006,18535.200000000001,-10612.799999999999
171968.0,217442.0,-133290.0,-240915.0,-214624.0,103118.0,15068.700000000001,41852.400000000001
171969.0,248267.0,-143259.0,-248226.0,-201512.0,117016.0,19357.0,60929.300000000003
171970.0,250031.0,-172252.0,-294762.0,-206035.0,112334.0,29395.799999999999,57892.900000000001
171971.0,214483.0,-167641.0,-303907.0,-188791.0,92307.800000000003,31083.900000000001,21668.299999999999
171972.0,167510.0,-137270.0,-237611.0,-174014.0,76316.199999999997,25442.0,-17451.700000000001
171973.0,127163.0,-98722.0,-141967.0,-148553.0,63911.699999999997,19729.400000000001,-13544.9
171974.0,103599.0,-69075.600000000006,-76320.899999999994,-111363.0,53980.400000000001,12323.1,-643.47000000000003
171975.0,102574.0,-61245.199999999997,-35810.5,-104759.0,44338.099999999999,7637.29,16347.4
171976.0,133489.0,-86793.699999999997,-67576.699999999997,-125789.0,39570.199999999997,-1367.26,59095.699999999997
171977.0,166558.0,-144402.0,-188805.0,-152785.0,61287.400000000001,-16368.299999999999,68312.0
171978.0,181887.0,-158606.0,-228798.0,-151020.0,93099.399999999994,-14989.700000000001,17218.200000000001
171979.0,161727.0,-114157.0,-137433.0,-119300.0,91819.899999999994,1778.29,-11618.700000000001
171980.0,118832.0,-88648.5,-78638.5,-97106.199999999997,66960.199999999997,10219.799999999999,5781.2600000000002
171981.0,139272.0,-75925.100000000006,-39168.5,-84865.899999999994,73998.5,-2321.6599999999999,19945.599999999999
171982.0,140531.0,-71518.399999999994,-19327.700000000001,-71784.600000000006,69326.100000000006,-5855.9300000000003,28808.799999999999
171983.0,146698.0,-80446.399999999994,-39551.0,-72747.899999999994,71975.800000000003,-5030.8800000000001,38669.900000000001
171984.0,142786.0,-94397.199999999997,-78495.5,-78252.800000000003,76479.0,548.73299999999995,29343.299999999999
171985.0,123163.0,-83882.899999999994,-68167.899999999994,-72121.199999999997,69908.5,7599.4499999999998,6676.5699999999997
171986.0,97081.800000000003,-65452.0,-32115.5,-65610.899999999994,51786.099999999999,9331.8799999999992,-727.96600000000001
171987.0,77535.100000000006,-50141.300000000003,-8198.3500000000004,-59479.099999999999,34626.900000000001,6509.46,4059.5500000000002
171988.0,71836.300000000003,-51805.5,-13782.1,-70898.0,23299.700000000001,2097.4699999999998,18095.700000000001
171989.0,74374.899999999994,-74868.100000000006,-60636.400000000001,-87316.5,22372.200000000001,-7265.8800000000001,33351.800000000003
171990.0,76261.699999999997,-85400.600000000006,-89190.600000000006,-76763.5,35945.599999999999,-15894.0,18797.400000000001
171991.0,87194.399999999994,-78888.699999999997,-63833.900000000001,-64306.0,47985.400000000001,-11811.6,-4349.1300000000001
171992.0,82672.300000000003,-62046.5,-27029.099999999999,-53006.800000000003,44053.0,-1599.8399999999999,-2132.77
171993.0,68111.899999999994,-56207.5,-26155.400000000001,-50863.300000000003,34886.5,2345.48,8173.79
171994.0,74868.300000000003,-55494.699999999997,-6474.0500000000002,-49783.699999999997,32760.299999999999,-981.68299999999999,8698.0799999999999
171995.0,68774.300000000003,-51713.5,-4563.3400000000001,-45819.699999999997,28572.900000000001,-2891.0900000000001,9584.9099999999999
171996.0,70273.0,-50692.900000000001,-3686.0799999999999,-41375.900000000001,29824.0,-5001.6199999999999,10588.4
171997.0,74254.5,-50353.400000000001,-430.74900000000002,-35389.599999999999,32893.900000000001,-4213.6199999999999,9042.1800000000003
171998.0,70710.300000000003,-50631.300000000003,-896.15599999999995,-35411.599999999999,31390.400000000001,-347.863,5634.71
171999.0,61365.400000000001,-44848.199999999997,-104.19499999999999,-37843.400000000001,25628.700000000001,2446.9099999999999,3632.0799999999999
172000.0,55570.599999999999,-41630.900000000001,-3096.6900000000001,-45714.0,20631.700000000001,1399.28,6983.7600000000002
172001.0,56859.599999999999,-46166.900000000001,-17160.299999999999,-55490.599999999999,20643.299999999999,-3228.3600000000001,15540.799999999999
172002.0,60949.300000000003,-55743.5,-41101.900000000001,-58009.800000000003,27264.900000000001,-7977.0299999999997,18628.799999999999
172003.0,63164.300000000003,-59674.300000000003,-49783.400000000001,-51778.199999999997,34368.599999999999,-7959.1099999999997,7615.7799999999997
172004.0,61538.400000000001,-49812.5,-28474.700000000001,-41316.5,33492.599999999999,-4650.9799999999996,-1881.55
172005.0,57187.199999999997,-39823.900000000001,-10107.299999999999,-35295.5,28712.400000000001,-2919.3099999999999,929.07600000000002
172006.0,54399.599999999999,-35248.300000000003,-9413.2299999999996,-32424.700000000001,27268.599999999999,-2328.0,6051.1499999999996
172007.0,59918.699999999997,-49922.0,-7367.5100000000002,-44317.0,24584.900000000001,-555.86900000000003,7578.2299999999996
172008.0,58769.0,-50486.199999999997,-9045.8299999999999,-43873.400000000001,24345.700000000001,-1876.6500000000001,7704.7200000000003
172009.0,56065.599999999999,-48136.5,-7415.1300000000001,-39745.800000000003,23270.599999999999,-1867.3399999999999,6360.6599999999999
172010.0,51943.0,-43875.5,-4135.3900000000003,-35582.0,20904.799999999999,-967.65099999999995,4681.6199999999999
172011.0,48750.599999999999,-39031.699999999997,-1083.04,-32995.199999999997,18966.400000000001,-352.34500000000003,4066.5799999999999
172012.0,47545.900000000001,-37724.900000000001,-1527.6600000000001,-35060.0,18036.200000000001,-382.72199999999998,4596.3500000000004
172013.0,47060.300000000003,-35846.5,-2101.0500000000002,-36162.699999999997,17488.900000000001,-2005.5,6720.4899999999998
172014.0,47947.199999999997,-35110.599999999999,-5010.0200000000004,-34966.300000000003,19064.5,-5139.1000000000004,8710.4200000000001
172015.0,50492.099999999999,-37562.599999999999,-7544.1999999999998,-31602.5,22165.0,-6793.6099999999997,7733.1999999999998
172016.0,50749.199999999997,-40133.699999999997,-6182.0100000000002,-27487.099999999999,22483.400000000001,-6684.71,3725.7600000000002
172017.0,48900.400000000001,-37784.5,-3470.2199999999998,-25922.5,21183.299999999999,-6651.2399999999998,-634.16899999999998
172018.0,48937.599999999999,-24463.299999999999,7155.3500000000004,-18891.799999999999,21964.099999999999,-5442.9499999999998,-1172.5
172019.0,49198.400000000001,-16634.5,14096.4,-11548.6,22743.799999999999,-3812.5300000000002,1921.4200000000001
172020.0,49985.900000000001,-36340.699999999997,2804.73,-29536.599999999999,19171.200000000001,-320.89999999999998,5271.2399999999998
172021.0,47768.800000000003,-32464.700000000001,5330.2799999999997,-26075.700000000001,18033.400000000001,-1051.75,5004.0600000000004
172022.0,45727.800000000003,-31225.599999999999,4971.79,-25357.5,17221.799999999999,-1132.22,4659.9799999999996
172023.0,43732.599999999999,-31287.299999999999,2773.4000000000001,-26496.700000000001,16674.799999999999,-950.09100000000001,4311.8999999999996
172024.0,41801.699999999997,-30657.599999999999,1506.1600000000001,-27482.900000000001,15877.5,-730.25,3958.9400000000001
172025.0,39766.099999999999,-28389.599999999999,2493.2199999999998,-26632.0,14365.700000000001,-932.75199999999995,4361.21
172026.0,37015.599999999999,-30172.0,-1371.47,-28223.5,13005.5,-2351.9499999999998,4795.2700000000004
172027.0,35684.599999999999,-31486.0,-4035.3800000000001,-28438.5,13039.299999999999,-3821.4899999999998,3667.1599999999999
172028.0,34054.699999999997,-32730.0,-5635.3699999999999,-28027.0,12393.0,-3500.6100000000001,3336.0100000000002
172029.0,28040.900000000001,-31591.900000000001,-9412.8299999999999,-24825.400000000001,10788.1,-3677.0599999999999,1728.0999999999999
172030.0,30205.200000000001,-23634.900000000001,-3897.0900000000001,-18179.700000000001,12833.299999999999,-4593.96,-3798.6700000000001
172031.0,38650.199999999997,-17371.099999999999,10991.799999999999,-12744.700000000001,15437.200000000001,-3207.98,-4219.2799999999997
172032.0,38714.800000000003,-16362.799999999999,18528.299999999999,-6759.2700000000004,12939.0,-2642.4499999999998,-606.298
172033.0,41113.5,-32263.0,227.56999999999999,-26583.299999999999,15602.1,262.88999999999999,4339.1700000000001
172034.0,39115.699999999997,-31342.700000000001,-736.16899999999998,-26979.200000000001,14796.799999999999,-40.045900000000003,4120.96
172035.0,37516.0,-29362.700000000001,-211.66800000000001,-25938.799999999999,14168.6,-261.55200000000002,3799.3400000000001
172036.0,36092.800000000003,-26387.200000000001,1568.3800000000001,-23897.400000000001,13520.9,-509.53800000000001,3433.2399999999998
172037.0,34869.099999999999,-23867.599999999999,2745.5599999999999,-22723.0,12902.700000000001,-721.06899999999996,3451.7600000000002
172038.0,32863.800000000003,-24240.099999999999,-221.49000000000001,-24340.900000000001,12148.700000000001,-922.52200000000005,4296.5
172039.0,29420.099999999999,-24150.099999999999,-4371.6000000000004,-24357.5,11679.4,-1464.52,4263.9700000000003
172040.0,27888.299999999999,-22034.299999999999,-4768.9300000000003,-22510.5,12036.5,-1661.5999999999999,3071.6399999999999
172041.0,27481.599999999999,-21878.900000000001,-6510.3699999999999,-22205.599999999999,12466.6,-1751.6400000000001,3580.9200000000001
172042.0,27740.200000000001,-20474.400000000001,-8731.75,-19163.200000000001,14299.1,-2661.52,1885.4200000000001
172043.0,31619.900000000001,-16856.5,-671.38699999999994,-14485.200000000001,15818.6,-1536.04,-2069.6700000000001
172044.0,29978.900000000001,-15272.5,10019.0,-9989.8299999999999,10992.200000000001,535.42899999999997,-690.53099999999995
172045.0,22772.700000000001,-14734.0,9234.6299999999992,-6706.6599999999999,4832.7700000000004,-814.39999999999998,58.874400000000001
172046.0,35663.199999999997,-25651.5,2678.0,-21125.700000000001,13334.6,193.38399999999999,3807.1199999999999
172047.0,34194.900000000001,-23114.599999999999,3822.4400000000001,-19787.599999999999,12709.299999999999,21.152799999999999,3543.02
172048.0,32710.099999999999,-21611.900000000001,3827.75,-19317.5,12156.200000000001,-151.96000000000001,3291.0300000000002
172049.0,31207.400000000001,-20966.5,2847.6199999999999,-19664.400000000001,11651.799999999999,-345.964,3079.4099999999999
172050.0,29963.5,-19887.400000000001,2226.02,-19741.299999999999,11295.299999999999,-771.13,3026.48
172051.0,29437.900000000001,-17848.200000000001,2012.74,-18911.400000000001,11673.6,-1366.1900000000001,3438.3899999999999
172052.0,29476.200000000001,-15948.6,1413.25,-17277.400000000001,12825.200000000001,-1707.3399999999999,3668.5
172053.0,29867.299999999999,-15623.5,969.43799999999999,-16600.400000000001,13601.0,-1613.3199999999999,3502.0900000000001
172054.0,28944.799999999999,-16354.0,290.166,-15229.200000000001,13355.1,-1887.8,3289.3600000000001
172055.0,28821.299999999999,-13836.6,4669.4899999999998,-10154.6,13225.9,-2403.4000000000001,473.18700000000001
172056.0,29380.0,-11617.5,11288.4,-8645.3700000000008,11466.9,-1038.9100000000001,-118.508
172057.0,22928.299999999999,-11473.6,8029.6999999999998,-8926.8700000000008,7195.3699999999999,177.45699999999999,3321.3600000000001
172058.0,14177.1,-13438.4,-2866.02,-11255.299999999999,5587.3999999999996,-702.404,2032.52
172059.0,30549.5,-21794.799999999999,2077.8000000000002,-18622.299999999999,11470.1,434.88900000000001,3355.9400000000001
172060.0,29192.700000000001,-20926.400000000001,1519.1800000000001,-18884.200000000001,10962.799999999999,353.82799999999997,3117.0500000000002
172061.0,27970.799999999999,-19269.400000000001,1849.9000000000001,-18197.799999999999,10531.299999999999,161.154,2887.8899999999999
172062.0,26867.400000000001,-17784.599999999999,2151.48,-17468.5,10138.0,-152.898,2720.7800000000002
172063.0,25918.200000000001,-15928.5,2811.4899999999998,-16085.6,9965.9699999999993,-686.61400000000003,2464.4099999999999
172064.0,25986.900000000001,-14859.299999999999,3644.5799999999999,-15107.1,10181.0,-1359.26,1981.0999999999999
172065.0,26600.400000000001,-13678.299999999999,5680.4499999999998,-13488.5,10276.0,-1892.6600000000001,1724.6099999999999
172066.0,26489.0,-11679.799999999999,8021.8800000000001,-11058.0,10032.9,-2050.6799999999998,1895.79
172067.0,24338.200000000001,-10782.299999999999,7853.1499999999996,-8972.3899999999994,9230.1900000000005,-1664.25,1968.26
172068.0,21146.400000000001,-10763.200000000001,6837.2299999999996,-8177.0500000000002,7554.1899999999996,-1205.9200000000001,470.935
172069.0,19620.400000000001,-9878.6399999999994,6863.9099999999999,-9414.0200000000004,5997.3299999999999,-1142.46,360.62900000000002
172070.0,17837.099999999999,-9242.1299999999992,3764.96,-10267.299999999999,6098.4499999999998,-1449.7,2360.25
172071.0,16240.700000000001,-8864.6200000000008,291.50999999999999,-9372.4599999999991,7205.54,-1610.51,1955.95
172072.0,26635.900000000001,-17894.0,2536.8600000000001,-15823.799999999999,10035.700000000001,542.12400000000002,3002.1599999999999
172073.0,25547.599999999999,-16076.4,3172.48,-14967.6,9638.2099999999991,443.61399999999998,2768.79
172074.0,24414.900000000001,-14988.6,3015.8200000000002,-14706.799999999999,9256.1700000000001,271.85399999999998,2560.9000000000001
172075.0,23300.200000000001,-13910.5,2872.9099999999999,-14243.1,8917.4099999999999,46.5246,2377.23
172076.0,22167.400000000001,-13500.299999999999,2518.2800000000002,-13847.0,8497.8299999999999,-286.25299999999999,2019.73
172077.0,20966.900000000001,-12365.799999999999,3324.8499999999999,-12608.1,7808.21,-658.94399999999996,1334.98
172078.0,19743.299999999999,-10614.700000000001,4572.5600000000004,-11085.299999999999,7008.7200000000003,-902.99000000000001,809.13
172079.0,18954.799999999999,-9563.1599999999999,5139.1499999999996,-10222.0,6536.8500000000004,-1060.29,692.98000000000002
172080.0,18094.5,-9699.7700000000004,4081.79,-10492.9,6295.7399999999998,-1019.3,1139.1700000000001
172081.0,16122.4,-8518.0400000000009,2862.04,-9644.2900000000009,6008.8599999999997,-912.61099999999999,1356.9200000000001
172082.0,14797.5,-7458.5100000000002,2036.49,-9125.25,5898.8900000000003,-1098.0999999999999,856.16200000000003
172083.0,14947.6,-6837.7600000000002,2532.9000000000001,-8666.2600000000002,5983.3800000000001,-1411.74,766.18600000000004
172084.0,14430.200000000001,-6004.0699999999997,2983.8899999999999,-7458.4700000000003,5847.1300000000001,-1537.25,931.81399999999996
172085.0,23025.5,-14624.299999999999,2469.6999999999998,-13564.0,8793.5900000000001,746.83799999999997,2665.6500000000001
172086.0,22029.0,-13825.1,2135.5799999999999,-13607.200000000001,8454.25,668.07399999999996,2463.0799999999999
172087.0,21005.799999999999,-12488.9,2315.75,-12990.6,8134.5,476.81,2250.4699999999998
172088.0,20103.0,-11461.200000000001,2412.7600000000002,-12489.799999999999,7809.5799999999999,307.35500000000002,2086.5900000000001
172089.0,18610.599999999999,-10502.4,2222.7600000000002,-11685.4,7217.3000000000002,174.202,1967.4300000000001
172090.0,17038.299999999999,-9664.0799999999999,1515.9000000000001,-11255.9,6793.9899999999998,-103.366,1468.8900000000001
172091.0,16435.799999999999,-8809.3500000000004,1371.3099999999999,-11014.0,6708.0200000000004,-230.37100000000001,1159.6700000000001
172092.0,15543.299999999999,-7498.9700000000003,2130.6199999999999,-9762.3299999999999,6266.9499999999998,-300.315,1133.1700000000001
172093.0,14625.700000000001,-6050.1899999999996,2994.4200000000001,-8423.1200000000008,5789.1300000000001,-643.10199999999998,1037.8099999999999
172094.0,14353.700000000001,-6136.7700000000004,2294.2199999999998,-8585.6900000000005,5820.1000000000004,-983.56799999999998,1122.3900000000001
172095.0,13797.6,-5890.6999999999998,1923.76,-8068.6199999999999,5799.9799999999996,-1100.98,998.28800000000001
172096.0,12906.5,-4926.4499999999998,2424.5799999999999,-7072.2399999999998,5374.5900000000001,-1146.6099999999999,720.73900000000003
172097.0,12209.1,-4241.3400000000001,2700.1500000000001,-6509.5900000000001,4957.3100000000004,-1272.28,684.53499999999997
172098.0,1953.8,1693.46,229.59299999999999,850.17600000000004,-182.458,-774.99900000000002,314.11599999999999
172099.0,1922.1300000000001,1503.4100000000001,202.58099999999999,856.976,-143.05799999999999,-833.87400000000002,304.42599999999999
172100.0,1899.6199999999999,1364.8099999999999,222.62299999999999,929.43399999999997,-111.575,-880.89499999999998,286.60899999999998
172101.0,1879.5599999999999,1236.8,255.17599999999999,1021.15,-82.291300000000007,-912.84699999999998,267.17099999999999
172102.0,1866.0599999999999,1032.1600000000001,212.35599999999999,1037.7,-49.349699999999999,-932.11099999999999,252.80099999999999
172103.0,1855.95,823.38400000000001,163.696,1050.1500000000001,-16.023299999999999,-937.47199999999998,238.75200000000001
172104.0,1847.04,644.37699999999995,138.416,1091.28,11.8309,-928.10500000000002,219.965
172105.0,1838.77,503.31099999999998,143.54499999999999,1164.79,34.540300000000002,-904.78399999999999,197.17699999999999
172106.0,1830.8900000000001,366.98099999999999,145.31299999999999,1233.8399999999999,52.777900000000002,-868.32399999999996,172.339
172107.0,1823.1700000000001,274.16300000000001,181.00800000000001,1334.45,65.872200000000007,-819.76099999999997,145.214
172108.0,1816.6700000000001,171.33500000000001,198.46199999999999,1410.53,77.969800000000006,-760.90999999999997,118.846
172109.0,1811.1600000000001,47.980499999999999,187.19900000000001,1450.3699999999999,88.925299999999993,-692.75099999999998,93.175299999999993
172110.0,1806.72,-25.905899999999999,217.66499999999999,1522.8099999999999,94.089799999999997,-617.56399999999996,65.542100000000005
172111.0,1803.0599999999999,-118.746,224.126,1558.4300000000001,93.9876,-536.88099999999997,38.334200000000003
172112.0,2081.8400000000001,1846.6400000000001,118.982,1034.04,-171.03800000000001,-710.17999999999995,404.97500000000002
172113.0,2039.25,1674.6099999999999,102.74299999999999,1044.6600000000001,-127.196,-769.98400000000004,388.995
172114.0,2006.6199999999999,1488.74,74.458100000000002,1056.53,-86.741699999999994,-819.61500000000001,370.99099999999999
172115.0,1978.1700000000001,1251.5999999999999,-3.1997100000000001,1026.0799999999999,-48.192100000000003,-855.03700000000003,351.42899999999997
172116.0,1953.97,1137.51,39.982300000000002,1125.01,-13.411099999999999,-876.00400000000002,328.77999999999997
172117.0,1933.23,1001.97,58.816600000000001,1204.46,18.5608,-882.73400000000004,303.964
172118.0,1915.4300000000001,877.75300000000004,85.411299999999997,1293.1199999999999,47.939300000000003,-875.78399999999999,277.81400000000002
172119.0,1900.1800000000001,702.46900000000005,55.301000000000002,1324.97,75.144199999999998,-855.61900000000003,250.52000000000001
172120.0,1886.75,562.197,53.588700000000003,1383.5999999999999,99.444500000000005,-822.80200000000002,222.096
172121.0,1874.9000000000001,376.85199999999998,-1.03765,1386.1099999999999,121.155,-778.27999999999997,192.58500000000001
172122.0,1863.6600000000001,238.768,-16.6922,1422.3199999999999,138.65799999999999,-723.09900000000005,161.81100000000001
172123.0,1852.8199999999999,129.59100000000001,-10.359299999999999,1473.3,151.941,-658.274,129.733
172124.0,1841.1099999999999,-3.4300799999999998,-32.450600000000001,1482.8699999999999,160.50299999999999,-586.26800000000003,96.975099999999998
172125.0,1828.03,-113.06100000000001,-28.5168,1501.05,162.51499999999999,-508.10000000000002,63.017400000000002
172126.0,2193.4200000000001,2006.9400000000001,114.34999999999999,1192.1500000000001,-161.33099999999999,-677.16600000000005,466.78199999999998
172127.0,2145.96,1775.1500000000001,33.433999999999997,1137.97,-114.902,-739.22799999999995,445.87099999999998
172128.0,2107.3400000000001,1699.29,111.669,1256.02,-72.254000000000005,-790.06600000000003,423.99799999999999
172129.0,2073.25,1521.5599999999999,90.006900000000002,1282.0,-31.771899999999999,-826.88599999999997,400.14699999999999
172130.0,2044.1400000000001,1386.03,108.446,1356.6400000000001,5.4847799999999998,-849.20799999999997,373.89699999999999
172131.0,2018.9400000000001,1124.9000000000001,-1.4798100000000001,1307.53,40.058900000000001,-857.19799999999998,346.00299999999999
172132.0,1996.5999999999999,1015.76,37.682400000000001,1408.6900000000001,71.740399999999994,-851.57399999999996,316.28300000000002
172133.0,1976.9200000000001,812.57899999999995,-21.9329,1410.5599999999999,100.741,-832.78999999999996,285.27699999999999
172134.0,1959.04,747.56799999999998,50.628399999999999,1542.53,126.369,-801.40200000000004,252.625
172135.0,1943.23,584.86099999999999,18.748100000000001,1566.24,149.35900000000001,-758.45000000000005,219.34999999999999
172136.0,1928.1199999999999,552.33299999999997,109.035,1706.4400000000001,168.886,-704.61800000000005,184.84999999999999
172137.0,1914.27,347.88799999999998,20.863399999999999,1660.6900000000001,185.09100000000001,-641.50900000000001,149.83600000000001
172138.0,1896.8599999999999,336.80599999999998,125.559,1790.5799999999999,196.667,-570.87400000000002,114.248
172139.0,1878.6700000000001,138.87200000000001,47.350299999999997,1721.0999999999999,201.97999999999999,-494.22699999999998,76.596800000000002
172140.0,2304.0799999999999,2170.3299999999999,104.56,1371.9300000000001,-171.69999999999999,-640.27099999999996,494.959
172141.0,2252.0900000000001,2028.8699999999999,110.05500000000001,1400.48,-123.55800000000001,-703.51800000000003,472.69499999999999
172142.0,2208.8899999999999,1827.53,57.137999999999998,1387.1099999999999,-79.569400000000002,-754.51800000000003,448.613
172143.0,2170.48,1636.9000000000001,16.6892,1394.6700000000001,-38.222299999999997,-791.52499999999998,422.59399999999999
172144.0,2137.25,1488.7,19.0626,1450.8800000000001,1.5741799999999999,-814.99199999999996,395.60199999999998
172145.0,2107.79,1384.8800000000001,64.314700000000002,1553.1900000000001,38.921300000000002,-824.56399999999996,366.99000000000001
172146.0,2081.5599999999999,1225.75,50.547800000000002,1599.3699999999999,72.924700000000001,-820.37,335.72899999999998
172147.0,2057.8400000000001,1095.77,60.938000000000002,1669.6900000000001,103.261,-802.90300000000002,302.54199999999997
172148.0,2036.3599999999999,918.23500000000001,17.760400000000001,1684.8599999999999,130.392,-772.87699999999995,267.59399999999999
172149.0,2016.6199999999999,785.00800000000004,11.6122,1733.51,153.392,-731.255,231.36000000000001
172150.0,1997.49,606.21400000000006,-45.620100000000001,1724.0999999999999,173.35300000000001,-679.12400000000002,194.041
172151.0,1979.3599999999999,543.21400000000006,8.3188200000000005,1816.6600000000001,189.83699999999999,-618.46299999999997,156.34899999999999
172152.0,1956.25,358.07999999999998,-58.087299999999999,1770.5799999999999,202.04400000000001,-549.65899999999999,118.17400000000001
172153.0,1933.3399999999999,274.411,-16.0886,1815.5999999999999,210.077,-475.94600000000003,78.509500000000003
172154.0,2431.1300000000001,2306.5,60.590200000000003,1525.3699999999999,-179.34399999999999,-598.928,528.46299999999997
172155.0,2374.9000000000001,2204.6900000000001,100.42400000000001,1586.49,-130.52600000000001,-662.82899999999995,503.91000000000003
172156.0,2327.8800000000001,2007.9200000000001,47.805,1569.47,-82.4041,-714.62099999999998,480.178
172157.0,2286.04,1942.98,128.64400000000001,1695.1600000000001,-37.836399999999998,-752.58799999999997,454.21100000000001
172158.0,2248.6500000000001,1708.26,38.997999999999998,1658.8599999999999,3.4996299999999998,-776.904,423.97000000000003
172159.0,2214.4299999999998,1575.23,49.965000000000003,1726.6700000000001,40.262900000000002,-787.202,391.32600000000002
172160.0,2184.29,1365.8599999999999,-18.3721,1717.03,75.7179,-784.40200000000004,357.089
172161.0,2156.6900000000001,1270.73,23.785299999999999,1816.6800000000001,107.70399999999999,-768.44000000000005,322.12900000000002
172162.0,2132.27,1105.1199999999999,-10.5716,1838.5999999999999,137.74199999999999,-740.34900000000005,285.31999999999999
172163.0,2109.52,1038.6199999999999,48.431800000000003,1949.24,164.22800000000001,-700.726,248.15199999999999
172164.0,2087.9499999999998,905.71000000000004,34.573,1981.2,187.61099999999999,-650.79100000000005,208.86799999999999
172165.0,2065.9400000000001,795.404,39.828600000000002,2022.3900000000001,205.96700000000001,-592.13300000000004,168.84899999999999
172166.0,2038.4400000000001,685.28800000000001,48.977499999999999,2048.6999999999998,220.17500000000001,-525.76599999999996,128.065
172167.0,2008.6600000000001,575.72699999999998,67.515799999999999,2065.8899999999999,227.904,-455.089,84.408100000000005
172168.0,2565.7199999999998,2489.1700000000001,63.680999999999997,1726.6300000000001,-189.68899999999999,-556.80100000000004,556.76300000000003
172169.0,2506.5599999999999,2412.4099999999999,123.693,1804.5699999999999,-139.02500000000001,-621.23699999999997,532.45299999999997
172170.0,2455.4499999999998,2174.0100000000002,23.217099999999999,1739.2,-90.228300000000004,-673.24599999999998,505.053
172171.0,2409.7800000000002,2053.79,42.960500000000003,1803.3800000000001,-45.958300000000001,-711.61900000000003,475.702
172172.0,2369.9899999999998,1862.4000000000001,-8.8754799999999996,1802.8599999999999,-1.3749800000000001,-736.80600000000004,445.11700000000002
172173.0,2333.6399999999999,1793.5999999999999,61.8947,1927.5599999999999,39.3352,-748.27999999999997,413.42099999999999
172174.0,2301.1900000000001,1606.4100000000001,10.5966,1933.47,77.789699999999996,-746.78200000000004,378.04199999999997
172175.0,2270.3200000000002,1512.77,50.1432,2028.8599999999999,111.053,-732.18499999999995,340.88600000000002
172176.0,2242.6300000000001,1321.4300000000001,-14.0167,2019.54,141.70500000000001,-705.79899999999998,300.892
172177.0,2215.6999999999998,1219.22,6.2373599999999998,2089.4400000000001,167.09299999999999,-667.97799999999995,260.0
172178.0,2190.4200000000001,1035.1900000000001,-61.152200000000001,2065.6999999999998,190.16200000000001,-620.21900000000005,217.34399999999999
172179.0,2164.6900000000001,988.57299999999998,6.0289999999999999,2166.0700000000002,209.26300000000001,-563.86099999999999,174.983
172180.0,2132.6900000000001,795.19899999999996,-68.327699999999993,2105.96,224.155,-500.09399999999999,131.291
172181.0,2098.0300000000002,710.45899999999995,-24.639399999999998,2145.2399999999998,234.643,-432.27800000000002,86.152199999999993
172182.0,2716.1500000000001,2658.1300000000001,44.240900000000003,1917.45,-201.15000000000001,-510.11700000000002,586.08500000000004
172183.0,2653.77,2612.5,129.21299999999999,2018.3299999999999,-149.30199999999999,-574.71199999999999,559.89700000000005
172184.0,2600.5799999999999,2372.5999999999999,20.9621,1941.76,-96.958799999999997,-627.05999999999995,533.09699999999998
172185.0,2553.1999999999998,2350.5900000000001,132.72499999999999,2095.4699999999998,-49.1145,-665.99400000000003,504.238
172186.0,2510.52,2089.9400000000001,5.1213499999999996,2018.1600000000001,-3.6326399999999999,-691.87599999999998,470.68900000000002
172187.0,2470.5,2019.0699999999999,67.974999999999994,2134.1599999999999,36.609000000000002,-704.18200000000002,434.81400000000002
172188.0,2435.0100000000002,1778.8099999999999,-41.7498,2079.8699999999999,75.805800000000005,-704.04600000000005,396.57999999999998
172189.0,2401.4899999999998,1732.1800000000001,40.033200000000001,2215.21,110.93000000000001,-691.03800000000001,357.57799999999997
172190.0,2371.8400000000001,1527.79,-41.843600000000002,2185.9899999999998,144.285,-666.58399999999995,316.25400000000002
172191.0,2343.3699999999999,1503.8699999999999,52.2239,2327.4899999999998,173.59299999999999,-630.77200000000005,274.53399999999999
172192.0,2316.1700000000001,1328.02,-10.7057,2305.9400000000001,199.72,-585.47900000000004,230.17699999999999
172193.0,2286.9699999999998,1262.21,35.452599999999997,2382.1900000000001,220.32900000000001,-531.79700000000003,185.23599999999999
172194.0,2251.1399999999999,1110.3499999999999,1.09999,2359.1900000000001,237.05000000000001,-471.096,139.01300000000001
172195.0,2209.9299999999998,1042.8599999999999,63.061199999999999,2412.73,247.53200000000001,-406.923,90.298199999999994
172196.0,2877.3899999999999,2885.0599999999999,78.801500000000004,2168.8699999999999,-214.93600000000001,-460.63900000000001,612.65899999999999
172197.0,2812.8000000000002,2784.1999999999998,102.172,2204.5500000000002,-160.47900000000001,-525.41099999999994,586.44899999999996
172198.0,2756.7399999999998,2596.6999999999998,39.437600000000003,2171.9099999999999,-107.95,-577.82799999999997,556.55899999999997
172199.0,2706.9200000000001,2463.1999999999998,32.619599999999998,2206.02,-59.639400000000002,-617.11300000000006,524.57299999999998
172200.0,2662.8400000000001,2312.1500000000001,7.8259499999999997,2229.1900000000001,-11.730399999999999,-643.60699999999997,490.56999999999999
172201.0,2622.0900000000001,2208.0599999999999,30.847100000000001,2302.9899999999998,32.406799999999997,-656.97900000000004,455.11000000000001
172202.0,2585.0999999999999,2066.4000000000001,13.483000000000001,2338.9400000000001,73.988100000000003,-658.09000000000003,415.85899999999998
172203.0,2549.6999999999998,1943.3800000000001,13.062099999999999,2390.3099999999999,110.78400000000001,-646.654,374.64499999999998
172204.0,2517.4299999999998,1805.1600000000001,-7.6133199999999999,2420.0,144.45599999999999,-624.11699999999996,330.44099999999997
172205.0,2485.6500000000001,1673.54,-25.040199999999999,2447.3299999999999,173.15700000000001,-590.64800000000002,284.98599999999999
172206.0,2455.6599999999999,1544.6099999999999,-45.094200000000001,2466.1399999999999,199.13900000000001,-547.83199999999999,237.749
172207.0,2424.1799999999998,1460.1400000000001,-21.559799999999999,2517.5300000000002,221.249,-496.875,190.535
172208.0,2384.23,1314.6700000000001,-50.935299999999998,2496.1599999999999,238.625,-439.452,141.59
172209.0,2338.73,1183.6800000000001,-53.8782,2482.04,251.81700000000001,-378.81700000000001,91.000100000000003
172210.0,3051.8899999999999,3103.46,99.020799999999994,2414.1199999999999,-229.78200000000001,-407.25799999999998,639.601
172211.0,2985.2399999999998,2971.9899999999998,84.1554,2409.1100000000001,-173.239,-472.22199999999998,611.47400000000005
172212.0,2927.9200000000001,2833.5100000000002,63.329599999999999,2414.9499999999998,-118.425,-524.52700000000004,581.85900000000004
172213.0,2878.0,2724.9400000000001,73.163899999999998,2463.8000000000002,-66.572299999999998,-564.22699999999998,549.82399999999996
172214.0,2832.1399999999999,2569.6900000000001,36.963900000000002,2473.7399999999998,-18.209,-591.09400000000005,513.46600000000001
172215.0,2789.9299999999998,2435.0599999999999,21.672599999999999,2508.4099999999999,26.395499999999998,-605.41300000000001,474.40199999999999
172216.0,2750.8899999999999,2288.4299999999998,-7.0679499999999997,2530.5900000000001,68.355000000000004,-607.65999999999997,432.73000000000002
172217.0,2714.4899999999998,2176.2600000000002,-3.3220299999999998,2584.1399999999999,107.17400000000001,-598.048,389.46600000000001
172218.0,2680.77,2050.0799999999999,-17.690200000000001,2617.25,142.84800000000001,-577.42899999999997,343.95999999999998
172219.0,2648.9899999999998,1962.6600000000001,2.5804800000000001,2680.5,175.30500000000001,-546.34900000000005,297.34800000000001
172220.0,2616.9000000000001,1854.47,-0.66747900000000004,2712.6300000000001,203.37799999999999,-506.32999999999998,248.315
172221.0,2582.96,1734.24,-16.1128,2721.9899999999998,226.643,-458.78399999999999,198.16300000000001
172222.0,2539.9000000000001,1642.98,5.7168099999999997,2748.5799999999999,245.863,-404.81799999999998,147.18899999999999
172223.0,2489.3099999999999,1521.95,11.673500000000001,2739.8800000000001,259.84199999999998,-348.44900000000001,93.404600000000002
172224.0,3237.0799999999999,3337.3600000000001,130.36199999999999,2677.4499999999998,-246.495,-350.71800000000002,664.19299999999998
172225.0,3169.27,3158.52,59.997199999999999,2613.8899999999999,-187.273,-415.63200000000001,635.31500000000005
172226.0,3110.4899999999998,3068.5,79.933300000000003,2658.1199999999999,-132.41,-467.63200000000001,603.60500000000002
172227.0,3060.02,2885.73,6.5572699999999999,2622.73,-79.471400000000003,-507.54500000000002,568.73699999999997
172228.0,3013.8099999999999,2805.8499999999999,37.7774,2697.52,-29.432300000000001,-534.65499999999997,531.91399999999999
172229.0,2972.1599999999999,2655.9400000000001,-1.41065,2706.3499999999999,18.443000000000001,-550.00800000000004,492.32799999999997
172230.0,2932.4499999999998,2571.0999999999999,24.380500000000001,2780.27,62.257100000000001,-553.37099999999998,449.71600000000001
172231.0,2895.8000000000002,2420.9099999999999,-17.643899999999999,2786.3299999999999,102.679,-545.54300000000001,404.13499999999999
172232.0,2860.3800000000001,2331.3699999999999,-1.4152800000000001,2846.9299999999998,138.82900000000001,-526.90300000000002,356.22500000000002
172233.0,2826.9200000000001,2184.8000000000002,-46.018500000000003,2842.7199999999998,170.87100000000001,-498.58800000000002,306.05200000000002
172234.0,2793.1199999999999,2093.8499999999999,-37.543300000000002,2883.4400000000001,199.46700000000001,-461.27999999999997,254.685
172235.0,2758.4699999999998,1993.9300000000001,-38.308500000000002,2905.4099999999999,224.53200000000001,-417.125,202.34700000000001
172236.0,2711.5,1875.26,-46.026299999999999,2898.0999999999999,244.19399999999999,-367.07999999999998,148.761
172237.0,2657.3899999999999,1731.1199999999999,-65.662999999999997,2861.0,260.07400000000001,-315.03699999999998,92.825999999999993
172238.0,3433.79,3552.5100000000002,138.21899999999999,2924.4699999999998,-264.16800000000001,-290.67200000000003,688.13599999999997
172239.0,3364.8600000000001,3375.6300000000001,61.1008,2851.2800000000002,-203.04900000000001,-355.202,657.53599999999994
172240.0,3306.2399999999998,3299.4699999999998,86.248900000000006,2897.71,-146.43700000000001,-406.87299999999999,625.83199999999999
172241.0,3256.5599999999999,3158.8099999999999,45.325400000000002,2892.75,-90.748699999999999,-446.798,590.31899999999996
172242.0,3210.4000000000001,3056.7199999999998,45.538600000000002,2934.5999999999999,-40.100200000000001,-474.14400000000001,551.67100000000005
172243.0,3168.7199999999998,2916.6199999999999,7.0037900000000004,2942.6300000000001,8.3732900000000008,-490.27300000000002,508.995
172244.0,3128.77,2804.5,-2.6949200000000002,2978.6799999999998,52.773600000000002,-494.73700000000002,464.36799999999999
172245.0,3092.0999999999999,2695.5900000000001,-11.554600000000001,3015.4299999999998,94.745199999999997,-488.75400000000002,416.63
172246.0,3056.5100000000002,2582.96,-25.735399999999998,3042.5999999999999,132.63999999999999,-472.23200000000003,367.36500000000001
172247.0,3023.5500000000002,2506.6500000000001,-7.5865200000000002,3098.5599999999999,167.63300000000001,-446.64800000000002,315.75299999999999
172248.0,2988.5300000000002,2398.2399999999998,-21.871200000000002,3112.8099999999999,197.68000000000001,-412.553,262.42899999999997
172249.0,2952.23,2302.8400000000001,-22.882100000000001,3131.0799999999999,223.435,-372.29899999999998,207.22999999999999
172250.0,2903.4400000000001,2196.6300000000001,-22.7562,3128.21,245.15000000000001,-326.36000000000001,151.733
172251.0,2845.5999999999999,2100.5900000000001,3.2153,3133.23,262.28699999999998,-279.19600000000003,93.1828
172252.0,3640.27,3779.6599999999999,154.14599999999999,3186.2600000000002,-283.47199999999998,-227.28100000000001,709.56299999999999
172253.0,3570.9299999999998,3585.3299999999999,50.579500000000003,3083.04,-220.46700000000001,-291.13099999999997,678.27200000000005
172254.0,3512.7399999999998,3542.4000000000001,99.314999999999998,3150.9899999999998,-163.36799999999999,-342.32299999999998,644.80700000000002
172255.0,3463.6100000000001,3354.9899999999998,1.7448399999999999,3087.4499999999998,-106.824,-382.02800000000002,607.13900000000001
172256.0,3418.8800000000001,3314.1300000000001,53.119399999999999,3178.4699999999998,-54.723599999999998,-409.50400000000002,567.59400000000005
172257.0,3378.4499999999998,3153.96,-15.2425,3154.1700000000001,-3.9321700000000002,-426.322,524.11599999999999
172258.0,3339.3800000000001,3105.6799999999998,29.745999999999999,3242.3000000000002,41.9315,-432.02100000000002,478.18700000000001
172259.0,3303.23,2949.8099999999999,-34.914099999999998,3220.5500000000002,85.258300000000006,-427.75400000000002,428.42700000000002
172260.0,3267.7199999999998,2897.1799999999998,2.8757700000000002,3296.73,123.592,-413.524,376.87099999999998
172261.0,3234.0100000000002,2748.3200000000002,-58.633000000000003,3269.5599999999999,158.46199999999999,-390.81700000000001,322.221
172262.0,3198.9699999999998,2688.1599999999999,-31.8903,3321.7600000000002,189.245,-360.07600000000002,266.74200000000002
172263.0,3162.1100000000001,2579.8499999999999,-51.939300000000003,3317.5,216.74199999999999,-323.71600000000001,209.636
172264.0,3111.0900000000001,2489.48,-40.182000000000002,3322.3899999999999,238.661,-282.40600000000001,151.45500000000001
172265.0,3050.3499999999999,2336.7800000000002,-74.433099999999996,3263.6900000000001,257.32600000000002,-240.27600000000001,90.699100000000001
172266.0,3856.1900000000001,4022.3000000000002,182.27199999999999,3466.0300000000002,-304.00299999999999,-160.33500000000001,729.52499999999998
172267.0,3787.1100000000001,3793.6199999999999,34.438000000000002,3315.3899999999999,-239.59399999999999,-223.358,697.12199999999996
172268.0,3730.0900000000001,3804.8899999999999,127.214,3424.54,-181.13,-273.87099999999998,663.06100000000004
172269.0,3683.1100000000001,3604.6100000000001,5.6497299999999999,3334.96,-122.587,-313.19600000000003,624.81399999999996
172270.0,3639.6999999999998,3600.9000000000001,83.865399999999994,3450.6399999999999,-70.016900000000007,-340.71300000000002,583.327
172271.0,3600.7600000000002,3403.6300000000001,-32.185899999999997,3376.5999999999999,-18.515899999999998,-358.13099999999997,537.577
172272.0,3562.8699999999999,3390.5599999999999,38.084000000000003,3487.4400000000001,27.7272,-364.89299999999997,489.57900000000001
172273.0,3527.8899999999999,3218.1799999999998,-52.6751,3436.5900000000001,72.392499999999998,-362.46600000000001,437.99700000000001
172274.0,3493.1599999999999,3200.5300000000002,11.309100000000001,3535.52,111.828,-350.61599999999999,384.75999999999999
172275.0,3460.6100000000001,3054.6599999999999,-55.848799999999997,3499.4000000000001,149.09999999999999,-330.91199999999998,328.74400000000003
172276.0,3425.4499999999998,3041.6700000000001,10.993499999999999,3587.7600000000002,180.64500000000001,-303.82400000000001,271.18900000000002
172277.0,3387.9299999999998,2878.1599999999999,-70.620500000000007,3517.9899999999998,208.80099999999999,-271.83100000000002,211.50399999999999
172278.0,3336.1500000000001,2858.3800000000001,5.9965999999999999,3584.0599999999999,232.48500000000001,-235.35499999999999,151.60900000000001
172279.0,3272.6999999999998,2686.6700000000001,-51.032499999999999,3498.4299999999998,252.94399999999999,-198.905,88.599100000000007
172280.0,4080.29,4265.3599999999997,208.352,3749.2199999999998,-326.36000000000001,-89.967500000000001,746.83100000000002
172281.0,4012.3099999999999,4009.0300000000002,22.022099999999998,3556.71,-260.42899999999997,-151.95099999999999,713.79300000000001
172282.0,3956.6999999999998,4061.9499999999998,145.88800000000001,3694.3000000000002,-201.60599999999999,-201.52099999999999,678.41300000000001
172283.0,3912.0,3826.9200000000001,-22.230599999999999,3556.3499999999999,-142.25800000000001,-240.405,638.22299999999996
172284.0,3870.9299999999998,3871.8800000000001,93.475999999999999,3706.9899999999998,-88.801000000000002,-267.66500000000002,595.82600000000002
172285.0,3834.7399999999998,3664.4499999999998,-44.442599999999999,3608.8000000000002,-35.615699999999997,-285.65300000000002,548.95799999999997
172286.0,3798.4299999999998,3697.4899999999998,61.689300000000003,3752.0500000000002,11.597300000000001,-293.51499999999999,499.589
172287.0,3765.4000000000001,3498.77,-66.017600000000002,3661.4000000000001,57.195399999999999,-292.96800000000002,446.10000000000002
172288.0,3731.6300000000001,3525.1500000000001,32.631399999999999,3791.1799999999998,97.040499999999994,-283.45100000000002,390.815
172289.0,3699.9400000000001,3336.98,-85.805099999999996,3700.1900000000001,134.126,-267.05700000000002,332.173
172290.0,3665.0500000000002,3347.5599999999999,-3.2814199999999998,3799.8299999999999,166.43799999999999,-243.73500000000001,272.68599999999998
172291.0,3628.1799999999998,3195.6999999999998,-80.970600000000005,3730.3899999999999,195.863,-216.339,211.13399999999999
172292.0,3575.0599999999999,3175.25,-10.5596,3785.6799999999998,219.79499999999999,-185.08699999999999,149.02600000000001
172293.0,3509.9899999999998,2979.3699999999999,-97.013499999999993,3667.0700000000002,241.22,-154.45500000000001,84.090400000000002
172294.0,4312.1499999999996,4461.6199999999999,185.62799999999999,3988.1599999999999,-349.80000000000001,-16.208500000000001,762.23199999999997
172295.0,4245.4200000000001,4280.54,63.405999999999999,3856.25,-283.21800000000002,-76.866600000000005,728.07299999999998
172296.0,4192.4499999999998,4277.6199999999999,119.53700000000001,3923.5599999999999,-223.22999999999999,-125.377,692.14999999999998
172297.0,4150.6700000000001,4135.3900000000003,32.001300000000001,3863.71,-162.86199999999999,-163.464,651.03099999999995
172298.0,4112.6300000000001,4111.25,66.453100000000006,3930.9000000000001,-108.745,-190.54400000000001,607.15300000000002
172299.0,4078.6700000000001,3987.5799999999999,0.69332700000000003,3901.9000000000001,-55.576099999999997,-208.916,558.06399999999996
172300.0,4045.25,3941.23,15.5692,3951.2399999999998,-7.6767099999999999,-217.81999999999999,507.06299999999999
172301.0,4014.0500000000002,3848.4200000000001,-17.001000000000001,3951.8699999999999,38.321800000000003,-219.083,451.72399999999999
172302.0,3982.1700000000001,3785.7600000000002,-17.6508,3978.4499999999998,79.285200000000003,-212.24799999999999,394.86099999999999
172303.0,3952.02,3720.6900000000001,-22.671800000000001,3996.6100000000001,117.592,-199.119,334.81200000000001
172304.0,3918.4499999999998,3658.8299999999999,-21.683599999999998,4010.6599999999999,150.66399999999999,-179.86099999999999,273.38799999999998
172305.0,3881.5799999999999,3578.3899999999999,-35.424599999999998,4000.4099999999999,180.333,-157.37,209.733
172306.0,3828.5100000000002,3498.3000000000002,-31.649999999999999,3984.8099999999999,205.72300000000001,-131.804,145.82499999999999
172307.0,3761.5599999999999,3403.23,-22.093,3957.6300000000001,228.46600000000001,-107.53400000000001,79.218599999999995
172308.0,4550.4399999999996,4676.2200000000003,179.91999999999999,4248.0900000000001,-374.70299999999997,60.889299999999999,774.41200000000003
172309.0,4485.6599999999999,4529.3999999999996,80.583200000000005,4135.2200000000003,-308.06400000000002,1.9004300000000001,739.98199999999997
172310.0,4435.7799999999997,4527.0299999999997,124.321,4187.9099999999999,-247.059,-45.483800000000002,702.61099999999999
172311.0,4396.9799999999996,4385.3699999999999,25.180900000000001,4113.6000000000004,-187.09800000000001,-82.523600000000002,660.26199999999994
172312.0,4362.8400000000001,4395.25,80.201300000000003,4199.1999999999998,-131.821,-109.34999999999999,614.87300000000005
172313.0,4332.0900000000001,4255.3400000000001,-14.0739,4138.25,-78.240899999999996,-127.81999999999999,565.07799999999997
172314.0,4301.7700000000004,4274.6999999999998,54.129300000000001,4237.6899999999996,-29.474299999999999,-138.023,512.20500000000004
172315.0,4272.7799999999997,4124.5900000000001,-46.9392,4165.4399999999996,16.679400000000001,-140.97800000000001,455.517
172316.0,4243.75,4152.8100000000004,31.5383,4267.6800000000003,57.993699999999997,-136.83699999999999,396.53300000000002
172317.0,4214.5299999999997,3999.0900000000001,-71.644800000000004,4182.3400000000001,95.902799999999999,-127.163,334.55000000000001
172318.0,4182.3900000000003,4017.4899999999998,0.28019100000000002,4262.8100000000004,129.47,-112.447,271.113
172319.0,4146.1000000000004,3885.5100000000002,-73.352500000000006,4187.4300000000003,159.82400000000001,-94.977000000000004,206.11799999999999
172320.0,4093.7600000000002,3882.1300000000001,-0.76216300000000003,4236.7399999999998,185.655,-75.383700000000005,140.11600000000001
172321.0,4025.9299999999998,3696.4899999999998,-88.235200000000006,4108.0500000000002,209.27099999999999,-57.642000000000003,72.087199999999996
172322.0,4794.0900000000001,4907.5699999999997,191.08600000000001,4527.3599999999997,-401.27499999999998,141.33500000000001,783.96500000000003
172323.0,4731.9399999999996,4779.6199999999999,98.229399999999998,4417.54,-334.60500000000002,84.110399999999998,748.91200000000003
172324.0,4685.6400000000003,4774.0600000000004,125.43600000000001,4450.96,-272.76499999999999,38.187600000000003,710.75900000000001
172325.0,4650.9200000000001,4674.1899999999996,54.653199999999998,4402.3299999999999,-212.553,2.3127599999999999,667.67100000000005
172326.0,4620.6899999999996,4661.9200000000001,74.023200000000003,4449.5299999999997,-156.99199999999999,-24.0275,620.65599999999995
172327.0,4593.5,4575.25,19.975000000000001,4425.4200000000001,-103.70699999999999,-42.697000000000003,569.221
172328.0,4566.7799999999997,4545.8800000000001,26.314800000000002,4459.4499999999998,-54.7376,-53.863700000000001,514.62199999999996
172329.0,4540.6899999999996,4479.0699999999997,-3.5532499999999998,4453.9700000000003,-8.5071899999999996,-58.710700000000003,456.529
172330.0,4513.7700000000004,4439.6199999999999,-3.8397199999999998,4472.3699999999999,33.166699999999999,-57.513500000000001,395.79199999999997
172331.0,4487.1700000000001,4387.9099999999999,-16.305199999999999,4473.0299999999997,71.737899999999996,-51.3461,332.721
172332.0,4457.2200000000003,4356.1499999999996,-5.1928700000000001,4487.9399999999996,105.691,-41.109400000000001,267.57499999999999
172333.0,4421.6999999999998,4279.3500000000004,-32.3429,4453.5799999999999,136.048,-29.1279,200.88
172334.0,4369.7200000000003,4228.0799999999999,-15.3269,4442.1800000000003,162.745,-16.047599999999999,133.346
172335.0,4300.9799999999996,4124.0200000000004,-27.404399999999999,4383.8599999999997,187.46899999999999,-5.4898899999999999,64.275599999999997
172336.0,5042.1400000000003,5116.1099999999997,180.33600000000001,4786.6700000000001,-429.577,224.96899999999999,790.21299999999997
172337.0,4983.0799999999999,5043.8999999999996,130.15899999999999,4715.8699999999999,-362.88499999999999,169.76499999999999,754.75099999999998
172338.0,4940.8699999999999,5015.9200000000001,121.033,4710.2399999999998,-300.89400000000001,125.491,715.60299999999995
172339.0,4910.3800000000001,4953.4700000000003,73.877799999999993,4682.3000000000002,-241.083,90.965199999999996,671.28399999999999
172340.0,4884.8000000000002,4938.0100000000002,75.675600000000003,4708.9899999999998,-185.24600000000001,65.251900000000006,622.995
172341.0,4861.6700000000001,4871.2299999999996,27.9099,4687.2700000000004,-132.047,46.540300000000002,570.5
172342.0,4838.6599999999999,4869.8999999999996,48.953499999999998,4731.75,-82.890799999999999,34.241300000000003,514.43399999999997
172343.0,4815.8100000000004,4789.71,-7.0344800000000003,4695.3100000000004,-37.020800000000001,27.590900000000001,454.86399999999998
172344.0,4792.4700000000003,4795.8199999999997,25.291499999999999,4741.79,4.7483599999999999,25.9986,392.66300000000001
172345.0,4767.25,4709.6000000000004,-32.006599999999999,4691.3299999999999,42.556199999999997,28.211200000000002,327.738
172346.0,4738.8100000000004,4704.6499999999996,-4.0593500000000002,4717.1899999999996,76.359300000000005,33.420000000000002,260.98700000000002
172347.0,4704.79,4633.46,-35.312899999999999,4673.0500000000002,107.09699999999999,39.777500000000003,193.238
172348.0,4654.3800000000001,4607.6499999999996,-2.2190099999999999,4673.0699999999997,133.97800000000001,46.210500000000003,124.143
172349.0,4586.0500000000002,4478.4499999999998,-47.378300000000003,4577.1700000000001,159.27000000000001,49.451500000000003,54.032699999999998
172350.0,5293.0299999999997,5366.3400000000001,213.42699999999999,5090.0600000000004,-459.34800000000001,311.64600000000002,793.01700000000005
172351.0,5237.8900000000003,5276.1199999999999,131.43799999999999,4984.0799999999999,-393.08499999999998,258.73599999999999,757.29899999999998
172352.0,5200.3000000000002,5291.1300000000001,150.673,5003.96,-330.87099999999998,216.316,717.35799999999995
172353.0,5174.5500000000002,5214.6300000000001,75.153300000000002,4944.3400000000001,-271.47399999999999,183.333,672.28300000000002
172354.0,5153.8599999999997,5240.4099999999999,103.41,4994.2399999999998,-215.869,158.346,622.49300000000005
172355.0,5135.04,5168.2299999999996,36.186599999999999,4948.79,-163.32400000000001,139.70099999999999,568.702
172356.0,5116.4399999999996,5183.79,59.808399999999999,4991.5799999999999,-114.60599999999999,126.41200000000001,510.99599999999998
172357.0,5096.7299999999996,5118.5699999999997,6.0223300000000002,4951.6000000000004,-69.0334,117.816,450.30900000000003
172358.0,5076.1700000000001,5134.7399999999998,36.137900000000002,4990.0299999999997,-27.861999999999998,113.02500000000001,386.43400000000003
172359.0,5054.1899999999996,5070.25,-11.9636,4943.0299999999997,10.305300000000001,111.51600000000001,320.75700000000001
172360.0,5028.6800000000003,5096.8699999999999,35.731400000000001,4983.1800000000003,44.082299999999996,111.72,252.79300000000001
172361.0,4995.5,4999.9099999999999,-30.571400000000001,4897.1899999999996,74.367900000000006,111.971,183.673
172362.0,4946.0600000000004,5006.5699999999997,26.306699999999999,4915.3199999999997,101.51600000000001,111.13200000000001,113.49299999999999
172363.0,4877.6899999999996,4872.1000000000004,-31.6648,4801.04,127.744,106.395,42.739699999999999
172364.0,5545.6800000000003,5582.8500000000004,216.221,5362.5,-490.80099999999999,401.23899999999998,792.09299999999996
172365.0,5494.9499999999998,5533.3999999999996,160.40600000000001,5279.21,-425.00700000000001,350.80799999999999,756.197
172366.0,5462.3500000000004,5539.9200000000001,156.203,5272.5799999999999,-363.30099999999999,310.529,715.41600000000005
172367.0,5441.8100000000004,5499.1700000000001,101.411,5230.3199999999997,-304.55500000000001,279.22399999999999,669.38199999999995
172368.0,5426.2600000000002,5522.6800000000003,112.303,5259.0200000000004,-249.57400000000001,255.148,618.31100000000004
172369.0,5412.1300000000001,5468.1599999999999,48.151200000000003,5211.96,-197.59,236.584,563.47299999999996
172370.0,5397.7399999999998,5514.5699999999997,88.400700000000001,5266.0799999999999,-149.52699999999999,222.27099999999999,504.505
172371.0,5381.9799999999996,5440.46,11.8279,5197.6300000000001,-104.687,211.786,442.54599999999999
172372.0,5365.0699999999997,5490.9499999999998,62.859400000000001,5250.9899999999998,-64.0364,203.95099999999999,377.58100000000002
172373.0,5344.8299999999999,5409.5,-13.2963,5168.5900000000001,-27.115600000000001,198.08600000000001,310.37599999999998
172374.0,5321.0699999999997,5451.3800000000001,38.900799999999997,5206.1199999999999,5.7103799999999998,192.83600000000001,241.19300000000001
172375.0,5290.1199999999999,5375.8699999999999,-16.888999999999999,5124.3199999999997,36.1892,186.84399999999999,171.429
172376.0,5242.6800000000003,5395.0100000000002,42.2532,5139.1000000000004,63.1464,178.672,100.486
172377.0,5175.6000000000004,5258.9099999999999,-26.542000000000002,5009.0200000000004,89.781899999999993,165.74199999999999,29.23
172378.0,5798.5699999999997,5829.6999999999998,254.02699999999999,5667.54,-523.69200000000001,493.60300000000001,787.28399999999999
172379.0,5752.9200000000001,5766.2200000000003,168.899,5551.6700000000001,-458.74599999999998,445.85199999999998,751.27499999999998
172380.0,5725.6199999999999,5811.9499999999998,188.56700000000001,5565.5,-397.62299999999999,407.916,709.91099999999994
172381.0,5710.5799999999999,5760.0699999999997,107.215,5492.9700000000003,-339.88200000000001,378.41699999999997,662.90499999999997
172382.0,5700.46,5821.3699999999999,140.483,5539.79,-285.79700000000003,355.43099999999998,610.76999999999998
172383.0,5691.25,5776.6400000000003,71.070599999999999,5482.3400000000001,-234.93000000000001,337.03399999999999,554.67700000000002
172384.0,5681.4700000000003,5822.0299999999997,95.539900000000003,5515.0699999999997,-187.958,321.77300000000002,494.42599999999999
172385.0,5669.2299999999996,5782.2600000000002,39.754399999999997,5460.5699999999997,-144.13200000000001,309.214,431.452
172386.0,5655.5100000000002,5833.04,77.965500000000006,5494.0900000000001,-104.593,298.06200000000001,365.29399999999998
172387.0,5638.6599999999999,5783.8100000000004,20.8995,5423.8100000000004,-67.935400000000001,288.00700000000001,297.59399999999999
172388.0,5617.5900000000001,5838.8400000000001,74.277299999999997,5455.4700000000003,-35.543100000000003,277.26999999999998,227.785
172389.0,5587.8599999999997,5757.5699999999997,2.6868099999999999,5350.1999999999998,-6.2133500000000002,264.505,157.06100000000001
172390.0,5541.7299999999996,5789.9099999999999,65.4983,5361.9899999999998,20.439499999999999,248.429,85.627799999999993
172391.0,5475.5299999999997,5665.8800000000001,-0.067871799999999996,5229.2600000000002,47.3782,226.77099999999999,14.313599999999999
172392.0,6050.0100000000002,6019.1199999999999,240.76900000000001,5917.6099999999997,-558.00599999999997,588.37400000000002,778.21400000000006
172393.0,6010.0799999999999,6039.8699999999999,223.89599999999999,5866.79,-494.31700000000001,543.63099999999997,742.19100000000003
172394.0,5988.6199999999999,6037.0699999999997,179.03800000000001,5812.6199999999999,-434.10399999999998,508.29599999999999,700.26400000000001
172395.0,5979.4499999999998,6067.1999999999998,163.93899999999999,5802.3199999999997,-377.79000000000002,480.80900000000003,652.46600000000001
172396.0,5974.7200000000003,6084.1300000000001,137.22,5784.1800000000003,-324.82499999999999,458.96699999999998,599.12900000000002
172397.0,5970.4399999999996,6091.3400000000001,104.72799999999999,5757.8599999999997,-275.55599999999998,440.745,542.0
172398.0,5965.1800000000003,6141.0500000000002,118.634,5773.4899999999998,-229.595,424.53199999999998,480.81
172399.0,5957.0,6121.1199999999999,68.412800000000004,5717.5,-187.376,409.91300000000001,416.82299999999998
172400.0,5946.7200000000003,6168.8299999999999,89.987700000000004,5726.79,-148.84700000000001,395.44900000000001,349.904
172401.0,5932.0299999999997,6143.5500000000002,45.028399999999998,5660.1700000000001,-114.227,380.72000000000003,281.19
172402.0,5912.9799999999996,6185.9499999999998,74.288200000000003,5659.4200000000001,-83.078999999999994,364.13499999999999,210.69900000000001
172403.0,5885.3999999999996,6155.46,42.280000000000001,5586.1000000000004,-54.224699999999999,344.43900000000002,139.92099999999999
172404.0,5841.29,6172.3599999999997,79.103099999999998,5565.1300000000001,-27.880099999999999,320.28899999999999,68.434299999999993
172405.0,5776.8299999999999,6078.3100000000004,33.588799999999999,5446.7600000000002,-1.1403700000000001,289.64699999999999,-2.5154299999999998
172406.0,6298.8500000000004,6253.04,279.5,6214.25,-593.73900000000003,685.52099999999996,764.88400000000001
172407.0,6264.8400000000001,6273.4799999999996,246.02000000000001,6143.4799999999996,-531.45699999999999,643.96500000000003,728.75199999999995
172408.0,6249.4099999999999,6294.8599999999997,209.14599999999999,6093.3999999999996,-472.56799999999998,611.29399999999998,686.47199999999998
172409.0,6245.9899999999998,6329.9399999999996,183.27099999999999,6067.6400000000003,-418.04899999999998,585.94299999999998,637.71699999999998
172410.0,6247.1499999999996,6364.4799999999996,158.101,6045.8299999999999,-366.50999999999999,565.45600000000002,583.56200000000001
172411.0,6248.0,6416.29,154.786,6042.3000000000002,-319.08999999999997,547.51400000000001,525.40800000000002
172412.0,6247.1499999999996,6421.2600000000002,109.142,5991.1499999999996,-274.863,530.31700000000001,463.17399999999998
172413.0,6242.5600000000004,6482.6099999999997,126.31399999999999,5994.3400000000001,-234.43700000000001,513.48500000000001,398.48700000000002
172414.0,6235.46,6495.1899999999996,99.343699999999998,5946.5699999999997,-197.43899999999999,495.50099999999998,330.91300000000001
172415.0,6223.6499999999996,6537.1400000000003,108.738,5925.6199999999999,-163.96100000000001,476.10399999999998,262.02800000000002
172416.0,6206.8599999999997,6544.7600000000002,91.388199999999998,5869.54,-133.88900000000001,453.48099999999999,191.428
172417.0,6180.6899999999996,6557.9300000000003,92.566699999999997,5820.6099999999997,-106.816,426.47800000000001,120.44
172418.0,6138.1599999999999,6540.3299999999999,84.682599999999994,5747.3199999999997,-81.271799999999999,393.77199999999999,49.005800000000001
172419.0,6075.3100000000004,6507.3699999999999,90.462100000000007,5674.0,-54.915500000000002,353.75299999999999,-21.034700000000001
172420.0,6542.3599999999997,6446.6800000000003,288.03800000000001,6472.75,-630.91700000000003,784.48000000000002,746.55700000000002
172421.0,6515.1499999999996,6520.0799999999999,290.26999999999998,6434.5900000000001,-570.13800000000003,746.42100000000005,710.70600000000002
172422.0,6506.4499999999998,6528.5699999999997,223.74700000000001,6351.1099999999997,-513.10599999999999,716.77099999999996,668.15999999999997
172423.0,6509.29,6613.3999999999996,231.37,6353.96,-460.47699999999998,693.80399999999997,618.82399999999996
172424.0,6515.6199999999999,6642.3999999999996,185.149,6304.5900000000001,-411.00599999999997,674.57399999999996,563.47299999999996
172425.0,6521.3000000000002,6695.5600000000004,168.14400000000001,6280.1400000000003,-365.75999999999999,656.83699999999999,504.49900000000002
172426.0,6524.8199999999997,6766.6599999999999,173.73099999999999,6272.0600000000004,-323.40899999999999,638.72400000000005,441.66399999999999
172427.0,6524.0600000000004,6785.8900000000003,134.52600000000001,6210.2299999999996,-285.09899999999999,619.60900000000004,376.25400000000002
172428.0,6519.9300000000003,6844.0100000000002,139.858,6185.3199999999997,-250.18100000000001,598.04399999999998,308.34899999999999
172429.0,6510.2200000000003,6865.71,116.956,6122.1800000000003,-218.953,573.61199999999997,239.065
172430.0,6495.1700000000001,6917.6499999999996,132.565,6089.25,-190.74000000000001,544.67600000000004,168.55799999999999
172431.0,6470.6099999999997,6926.6400000000003,118.694,6016.0200000000004,-164.68600000000001,510.11599999999999,98.121499999999997
172432.0,6429.9099999999999,6946.6199999999999,137.839,5961.7600000000002,-140.05799999999999,468.65300000000002,27.392199999999999
172433.0,6369.1700000000001,6892.21,111.712,5850.2200000000003,-114.19,418.90800000000002,-41.4497
172434.0,6779.4399999999996,6715.6000000000004,383.142,6808.2200000000003,-669.21900000000005,885.30499999999995,723.59900000000005
172435.0,6759.8400000000001,6694.1999999999998,272.37,6654.6000000000004,-610.12199999999996,850.81399999999996,687.95799999999997
172436.0,6757.1999999999998,6819.6800000000003,306.92500000000001,6667.1999999999998,-555.72699999999998,824.30399999999997,645.13400000000001
172437.0,6765.8299999999999,6819.4099999999999,213.30500000000001,6563.04,-505.03100000000001,803.50900000000001,594.89999999999998
172438.0,6777.8199999999997,6947.8400000000001,250.999,6590.75,-458.334,785.976,539.01499999999999
172439.0,6788.8500000000004,6980.4799999999996,197.50999999999999,6522.2799999999997,-414.97800000000001,768.51700000000005,479.322
172440.0,6795.8299999999999,7057.7399999999998,195.517,6497.0299999999997,-375.74799999999999,749.35599999999999,415.67599999999999
172441.0,6798.5100000000002,7111.71,177.102,6446.3900000000003,-339.375,727.76599999999996,350.041
172442.0,6796.6800000000003,7194.6300000000001,194.672,6422.9399999999996,-307.02300000000002,702.45799999999997,282.03899999999999
172443.0,6789.4300000000003,7221.4200000000001,164.28200000000001,6342.1400000000003,-277.464,672.851,213.01499999999999
172444.0,6775.7200000000003,7285.5600000000004,181.11699999999999,6299.5500000000002,-251.45500000000001,637.44000000000005,143.08099999999999
172445.0,6752.54,7291.1999999999998,153.31200000000001,6202.5100000000002,-227.31899999999999,594.97199999999998,73.172899999999998
172446.0,6713.1300000000001,7323.6700000000001,175.00700000000001,6141.8199999999997,-204.29900000000001,544.45299999999997,3.5413199999999998
172447.0,6654.4799999999996,7286.9499999999998,156.054,6030.6400000000003,-178.93899999999999,484.601,-63.673999999999999
172448.0,7007.3400000000001,6889.9799999999996,397.74700000000001,7051.2200000000003,-708.86199999999997,987.23400000000004,695.09900000000005
172449.0,6995.71,6927.3500000000004,326.80200000000002,6934.7399999999998,-651.43499999999995,956.47000000000003,659.87800000000004
172450.0,6999.7700000000004,7032.75,325.14299999999997,6906.0,-600.14700000000005,933.58900000000006,617.41700000000003
172451.0,7015.4899999999998,7093.7700000000004,275.36399999999998,6840.6499999999996,-551.39700000000005,915.33199999999999,566.47799999999995
172452.0,7031.7399999999998,7209.8000000000002,286.49200000000002,6832.8500000000004,-508.06599999999997,899.31799999999998,509.95699999999999
172453.0,7046.9700000000003,7239.0699999999997,214.93000000000001,6737.4300000000003,-467.38799999999998,881.75800000000004,449.22000000000003
172454.0,7057.6800000000003,7399.21,281.79500000000002,6770.71,-430.863,861.827,385.72899999999998
172455.0,7063.6400000000003,7392.0100000000002,188.34800000000001,6634.6800000000003,-397.38099999999997,837.5,319.50999999999999
172456.0,7063.4799999999996,7520.79,240.005,6633.3400000000001,-367.81299999999999,808.40200000000004,251.869
172457.0,7057.8599999999997,7530.7200000000003,181.13300000000001,6512.6400000000003,-341.05500000000001,773.19799999999998,183.07499999999999
172458.0,7044.75,7648.8900000000003,241.869,6501.8699999999999,-317.327,731.13400000000001,114.187
172459.0,7022.6599999999999,7641.6000000000004,190.84399999999999,6371.04,-295.04000000000002,680.43399999999997,45.4039
172460.0,6984.29,7719.6700000000001,248.393,6336.4899999999998,-273.41500000000002,620.63300000000004,-22.313700000000001
172461.0,6927.8400000000001,7651.0500000000002,187.02099999999999,6175.7700000000004,-249.27199999999999,550.44600000000003,-87.533699999999996
172462.0,7224.8400000000001,7097.0900000000001,459.75,7327.6800000000003,-748.70500000000004,1090.01,661.89099999999996
172463.0,7221.2799999999997,7123.1199999999999,359.21300000000002,7178.79,-694.01900000000001,1063.51,626.82500000000005
172464.0,7232.2600000000002,7260.2399999999998,372.565,7159.8999999999996,-645.96400000000006,1044.0,584.49400000000003
172465.0,7252.6499999999996,7326.5200000000004,313.25999999999999,7077.0299999999997,-600.32899999999995,1028.0799999999999,532.452
172466.0,7274.4300000000003,7441.4499999999998,307.89699999999999,7044.5200000000004,-559.97699999999998,1013.79,475.97300000000001
172467.0,7294.3299999999999,7565.3599999999997,315.899,7019.0600000000004,-522.39300000000003,996.63999999999999,414.72399999999999
172468.0,7307.2700000000004,7598.5200000000004,243.274,6900.9499999999998,-489.25400000000002,975.24900000000002,350.839
172469.0,7315.54,7763.3900000000003,309.36500000000001,6912.5200000000004,-458.92500000000001,948.29999999999995,284.86599999999999
172470.0,7317.1899999999996,7797.0799999999999,253.845,6791.54,-432.14999999999998,915.10699999999997,217.81700000000001
172471.0,7312.4200000000001,7925.8900000000003,303.18200000000002,6766.2799999999997,-408.23200000000003,874.29200000000003,149.92099999999999
172472.0,7299.79,7926.25,236.142,6615.1300000000001,-387.16500000000002,825.19200000000001,82.255899999999997
172473.0,7277.8800000000001,8040.1599999999999,297.21300000000002,6584.46,-367.42700000000002,766.14099999999996,15.207599999999999
172474.0,7240.3400000000001,8006.0200000000004,233.18000000000001,6418.0600000000004,-347.887,696.66700000000003,-50.748899999999999
172475.0,7185.6000000000004,8080.6300000000001,305.161,6382.8299999999999,-325.12400000000002,615.96199999999999,-112.91500000000001
172476.0,7428.75,7246.1000000000004,481.68799999999999,7547.71,-789.22500000000002,1192.73,622.21600000000001
172477.0,7433.2299999999996,7322.2600000000002,413.52199999999999,7427.0,-737.96699999999998,1171.22,588.37099999999998
172478.0,7451.9399999999996,7470.0600000000004,419.685,7396.5299999999997,-692.89099999999996,1154.9300000000001,546.101
172479.0,7478.0600000000004,7544.6700000000001,353.61200000000002,7298.7299999999996,-650.62699999999995,1142.4000000000001,494.31799999999998
172480.0,7504.2200000000003,7723.0500000000002,397.01999999999998,7305.5500000000002,-613.88199999999995,1129.02,436.76900000000001
172481.0,7525.7399999999998,7740.7799999999997,287.45800000000003,7149.5100000000002,-580.17700000000002,1112.04,375.233
172482.0,7542.9399999999996,7987.1499999999996,413.33499999999998,7219.1199999999999,-550.33699999999999,1089.4000000000001,311.57900000000001
172483.0,7551.6400000000003,7942.1099999999997,258.91699999999997,6995.71,-523.44500000000005,1059.5699999999999,245.94800000000001
172484.0,7553.6400000000003,8155.5,372.97699999999998,7030.5200000000004,-500.452,1021.65,179.48400000000001
172485.0,7548.6700000000001,8130.4700000000003,259.08999999999997,6827.6099999999997,-479.68000000000001,975.20699999999999,112.971
172486.0,7536.0200000000004,8339.3199999999997,391.387,6862.5699999999997,-461.61099999999999,918.75099999999998,47.051200000000001
172487.0,7513.4300000000003,8285.0200000000004,276.09500000000003,6642.2200000000003,-444.35899999999998,851.21600000000001,-17.775099999999998
172488.0,7476.6300000000001,8451.4799999999996,403.61799999999999,6656.9799999999996,-426.80399999999997,771.88800000000003,-80.8643
172489.0,7423.3599999999997,8333.8899999999994,273.74200000000002,6411.1700000000001,-405.34300000000002,680.51199999999994,-139.90899999999999
172490.0,7617.1499999999996,7397.3199999999997,526.197,7770.46,-830.16399999999999,1295.8,577.57500000000005
172491.0,7629.8999999999996,7511.4300000000003,477.86700000000002,7666.1599999999999,-782.26800000000003,1278.9200000000001,544.47199999999998
172492.0,7656.4700000000003,7647.5799999999999,454.77499999999998,7601.25,-741.21100000000001,1266.3199999999999,502.46800000000002
172493.0,7685.6899999999996,7771.1700000000001,425.09800000000001,7529.2600000000002,-702.84299999999996,1256.27,449.815
172494.0,7716.9799999999996,7901.0500000000002,405.13400000000001,7462.8699999999999,-670.05200000000002,1244.51,392.51299999999998
172495.0,7741.3299999999999,8064.6000000000004,428.38900000000001,7427.0200000000004,-639.66499999999996,1227.8,331.04599999999999
172496.0,7758.4099999999999,8113.9700000000003,347.654,7275.0799999999999,-614.41800000000001,1203.02,267.23599999999999
172497.0,7768.4899999999998,8317.1000000000004,430.125,7274.3400000000001,-591.23099999999999,1170.5,202.583
172498.0,7771.4300000000003,8376.4699999999993,379.35000000000002,7130.1499999999996,-571.58699999999999,1128.1199999999999,137.547
172499.0,7764.8699999999999,8518.8400000000001,425.185,7071.0900000000001,-554.31200000000001,1075.47,72.650099999999995
172500.0,7750.6199999999999,8542.3700000000008,364.97399999999999,6898.4700000000003,-539.67200000000003,1011.4,8.9408700000000003
172501.0,7726.5799999999999,8666.7800000000007,421.464,6835.8299999999999,-525.24000000000001,935.08299999999997,-53.223599999999998
172502.0,7689.3000000000002,8661.3299999999999,369.68599999999998,6659.3299999999999,-510.50099999999998,845.69500000000005,-113.083
172503.0,7637.1000000000004,8747.9099999999999,435.15199999999999,6599.6999999999998,-490.94400000000002,743.44799999999998,-168.161
172504.0,7786.0100000000002,7518.3299999999999,564.72400000000005,7963.7600000000002,-871.08000000000004,1398.1900000000001,526.774
172505.0,7809.29,7679.1599999999999,542.86199999999997,7884.2799999999997,-827.529,1386.0999999999999,494.71199999999999
172506.0,7841.6099999999997,7817.9799999999996,507.15800000000002,7799.25,-790.05700000000002,1377.29,453.13
172507.0,7877.0,7963.4200000000001,483.84500000000003,7724.8999999999996,-755.90999999999997,1370.3399999999999,401.06099999999998
172508.0,7909.5299999999997,8132.3900000000003,492.11799999999999,7673.21,-727.17100000000005,1359.53,343.02199999999999
172509.0,7935.1499999999996,8218.7399999999998,427.51299999999998,7534.8900000000003,-702.00999999999999,1342.5899999999999,281.49700000000001
172510.0,7954.5200000000004,8457.2600000000002,523.41200000000003,7545.75,-679.85000000000002,1316.4300000000001,218.90199999999999
172511.0,7961.8299999999999,8463.7299999999996,402.65800000000002,7323.8199999999997,-661.35400000000004,1280.01,154.79400000000001
172512.0,7961.96,8664.5799999999999,487.18299999999999,7297.46,-646.202,1232.3099999999999,91.126199999999997
172513.0,7953.8599999999997,8697.3099999999995,416.10500000000002,7105.1800000000003,-632.70000000000005,1173.5999999999999,28.5441
172514.0,7937.9399999999996,8893.6599999999999,521.92399999999998,7083.1400000000003,-621.34400000000005,1101.95,-32.248199999999997
172515.0,7911.6300000000001,8889.6299999999992,444.34500000000003,6871.2399999999998,-610.101,1016.76,-91.072699999999998
172516.0,7873.5,9038.9799999999996,540.57299999999998,6830.3599999999997,-597.77300000000002,917.25900000000001,-146.965
172517.0,7821.8299999999999,8972.4400000000005,445.04700000000003,6599.8900000000003,-580.35699999999997,804.13900000000001,-197.50999999999999
172518.0,7932.4200000000001,7668.8900000000003,660.06299999999999,8187.5100000000002,-910.47699999999998,1499.5599999999999,470.03399999999999
172519.0,7968.75,7796.6400000000003,582.13900000000001,8051.6899999999996,-873.48000000000002,1491.96,439.73500000000001
172520.0,8005.2200000000003,7985.25,583.33299999999997,7994.5600000000004,-838.96000000000004,1487.6400000000001,398.096
172521.0,8045.25,8125.2399999999998,540.77700000000004,7890.5600000000004,-810.88199999999995,1482.6700000000001,346.08800000000002
172522.0,8079.5600000000004,8300.0400000000009,543.74099999999999,7819.2799999999997,-785.64200000000005,1473.78,288.15300000000002
172523.0,8106.1300000000001,8465.6499999999996,547.82600000000002,7734.6000000000004,-764.99699999999996,1456.05,227.583
172524.0,8122.1000000000004,8562.6299999999992,496.74200000000002,7579.1499999999996,-748.471,1427.5,164.69
172525.0,8130.2299999999996,8768.2999999999993,564.78300000000002,7530.5100000000002,-733.78700000000003,1387.79,102.982
172526.0,8128.2799999999997,8870.0499999999993,543.27599999999995,7380.46,-722.16099999999994,1335.25,41.594999999999999
172527.0,8115.54,9000.8199999999997,566.74599999999998,7263.96,-712.96400000000006,1269.45,-18.531300000000002
172528.0,8094.5600000000004,9060.9200000000001,533.92200000000003,7084.75,-705.73800000000006,1189.7,-76.143500000000003
172529.0,8064.6400000000003,9174.6000000000004,570.43299999999999,6970.7399999999998,-697.91800000000001,1095.3499999999999,-131.161
172530.0,8024.0799999999999,9208.6399999999994,547.00099999999998,6796.1999999999998,-688.702,985.73000000000002,-182.35499999999999
172531.0,7972.5699999999997,9291.1499999999996,593.41399999999999,6697.3999999999996,-673.47400000000005,861.62300000000005,-227.72399999999999
172532.0,8054.4899999999998,7797.9200000000001,763.447,8389.8600000000006,-949.98400000000004,1599.1900000000001,407.05900000000003
172533.0,8104.3599999999997,7884.1700000000001,619.98800000000006,8189.4300000000003,-918.524,1595.8399999999999,378.815
172534.0,8144.9799999999996,8137.7200000000003,674.30499999999995,8174.9700000000003,-888.798,1596.55,337.62299999999999
172535.0,8189.71,8254.3500000000004,593.85400000000004,8022.79,-864.75999999999999,1593.6199999999999,286.435
172536.0,8222.7299999999996,8482.7700000000004,643.59699999999998,7980.3800000000001,-845.35599999999999,1586.03,228.15100000000001
172537.0,8249.3600000000006,8586.1499999999996,575.87800000000004,7807.5699999999997,-829.65899999999999,1567.1900000000001,168.10400000000001
172538.0,8263.1900000000005,8836.2700000000004,670.74000000000001,7779.0600000000004,-816.65700000000004,1536.6800000000001,107.38800000000001
172539.0,8265.2600000000002,8876.9200000000001,571.75,7542.3599999999997,-807.98900000000003,1491.8,46.385899999999999
172540.0,8257.1399999999994,9069.3899999999994,639.476,7460.0900000000001,-801.75,1433.47,-12.7811
172541.0,8240.8299999999999,9149.3899999999994,608.072,7270.71,-796.452,1360.97,-69.359300000000005
172542.0,8215.3899999999994,9321.2199999999993,684.29200000000003,7182.1800000000003,-792.51199999999994,1273.5799999999999,-122.646
172543.0,8181.0699999999997,9369.3999999999996,653.21500000000003,6983.6800000000003,-788.21100000000001,1170.05,-173.083
172544.0,8137.1499999999996,9483.6700000000001,707.11500000000001,6871.46,-781.92100000000005,1050.3800000000001,-218.916
172545.0,8084.79,9479.4799999999996,661.67600000000004,6669.8100000000004,-769.61699999999996,915.38800000000003,-258.43099999999998
172546.0,8152.7799999999997,7824.3100000000004,792.66499999999996,8488.4699999999993,-989.87800000000004,1695.9000000000001,338.99700000000001
172547.0,8211.0900000000001,8012.0100000000002,732.78599999999994,8368.3799999999992,-961.76099999999997,1697.77,311.79300000000001
172548.0,8259.2900000000009,8205.8099999999995,711.44799999999998,8270.1499999999996,-938.74699999999996,1702.74,272.178
172549.0,8304.2900000000009,8407.6100000000006,707.774,8179.8400000000001,-919.35900000000004,1702.3900000000001,220.31
172550.0,8338.2900000000009,8571.4400000000005,682.60699999999997,8046.1300000000001,-904.89800000000002,1695.55,163.62299999999999
172551.0,8360.7999999999993,8784.1900000000005,720.05399999999997,7957.8100000000004,-894.26300000000003,1675.54,103.916
172552.0,8370.0799999999999,8876.0699999999997,652.94799999999998,7745.9099999999999,-887.86900000000003,1641.52,44.219999999999999
172553.0,8368.1399999999994,9122.3799999999992,754.91700000000003,7690.0699999999997,-882.36800000000005,1592.51,-13.5951
172554.0,8353.9200000000001,9201.5400000000009,707.76400000000001,7472.0,-879.95299999999997,1528.1300000000001,-69.071100000000001
172555.0,8328.7299999999996,9373.0400000000009,770.721,7354.4799999999996,-879.85000000000002,1448.01,-122.562
172556.0,8294.8500000000004,9403.4699999999993,708.52099999999996,7106.21,-880.76900000000001,1352.03,-171.50999999999999
172557.0,8253.7299999999996,9559.8899999999994,787.25999999999999,6998.5200000000004,-880.404,1239.3599999999999,-216.785
172558.0,8205.0200000000004,9565.9099999999999,732.51400000000001,6761.6899999999996,-877.29700000000003,1109.6700000000001,-256.584
172559.0,8151.0299999999997,9700.25,821.85299999999995,6683.0699999999997,-867.65999999999997,964.06500000000005,-289.22699999999998
172560.0,8221.8799999999992,7864.3199999999997,868.86000000000001,8599.4300000000003,-1028.3099999999999,1788.53,265.33699999999999
172561.0,8288.6299999999992,8061.1499999999996,802.48900000000003,8468.4799999999996,-1004.35,1797.49,239.15000000000001
172562.0,8343.6200000000008,8300.9799999999996,811.36300000000006,8392.5200000000004,-987.49300000000005,1805.6099999999999,201.279
172563.0,8388.5599999999995,8468.3999999999996,765.505,8243.1399999999994,-972.66399999999999,1808.51,149.791
172564.0,8420.4300000000003,8700.0699999999997,802.21400000000006,8152.1199999999999,-964.73099999999999,1801.51,93.704800000000006
172565.0,8438.2800000000007,8844.2199999999993,766.72000000000003,7968.4899999999998,-958.64400000000001,1779.95,35.2057
172566.0,8440.8199999999997,9080.2000000000007,842.25599999999997,7876.3500000000004,-956.69799999999998,1742.0799999999999,-21.669599999999999
172567.0,8429.2299999999996,9156.4300000000003,777.26099999999997,7628.3100000000004,-958.09000000000003,1687.0599999999999,-78.170500000000004
172568.0,8405.2800000000007,9336.9400000000005,835.48299999999995,7491.5600000000004,-961.58799999999997,1615.76,-130.42699999999999
172569.0,8371.7000000000007,9437.2199999999993,829.78800000000001,7283.5699999999997,-964.99199999999996,1528.28,-178.90799999999999
172570.0,8329.3999999999996,9591.6900000000005,895.22500000000002,7141.9799999999996,-969.21400000000006,1424.4200000000001,-222.15100000000001
172571.0,8280.3500000000004,9658.7700000000004,888.26599999999996,6928.7700000000004,-972.41399999999999,1302.74,-261.31799999999998
172572.0,8225.5900000000001,9756.8400000000001,927.60599999999999,6768.9899999999998,-972.65999999999997,1163.3,-294.44
172573.0,8168.75,9777.7399999999998,902.19799999999998,6562.9700000000003,-966.18100000000004,1007.33,-319.71300000000002
172574.0,8256.7600000000002,7908.1199999999999,989.32600000000002,8715.1599999999999,-1063.01,1877.5,186.52600000000001
172575.0,8335.0799999999999,8070.3000000000002,868.39300000000003,8526.9500000000007,-1045.6600000000001,1892.99,161.66900000000001
172576.0,8394.3299999999999,8349.8500000000004,905.92600000000004,8469.2399999999998,-1034.53,1905.45,125.032
172577.0,8439.6900000000005,8530.2199999999993,863.99699999999996,8306.5,-1025.3099999999999,1910.6800000000001,74.413300000000007
172578.0,8467.0799999999999,8752.8500000000004,888.19500000000005,8180.8000000000002,-1022.41,1903.8,19.4634
172579.0,8478.3999999999996,8932.1599999999999,886.226,8006.3999999999996,-1022.41,1879.5,-37.689399999999999
172580.0,8471.3299999999999,9083.1599999999999,879.27999999999997,7805.1800000000003,-1026.74,1836.8800000000001,-92.981399999999994
172581.0,8449.4300000000003,9283.0400000000009,940.63800000000003,7658.7200000000003,-1031.3099999999999,1775.3299999999999,-145.054
172582.0,8413.0599999999995,9398.5100000000002,941.16499999999996,7438.5500000000002,-1039.1300000000001,1696.71,-192.92599999999999
172583.0,8366.5900000000001,9529.4500000000007,975.923,7246.1400000000003,-1048.3199999999999,1600.8900000000001,-236.90299999999999
172584.0,8311.6599999999999,9591.2000000000007,959.08799999999997,6997.6800000000003,-1057.8199999999999,1488.6500000000001,-274.72800000000001
172585.0,8252.3099999999995,9708.0900000000001,1009.79,6820.6899999999996,-1064.96,1358.0799999999999,-307.08499999999998
172586.0,8189.5,9749.0400000000009,997.60900000000004,6590.8599999999997,-1068.6300000000001,1209.26,-332.68200000000002
172587.0,8128.4799999999996,9855.6700000000001,1058.9100000000001,6458.0600000000004,-1064.75,1043.3499999999999,-349.62099999999998
172588.0,8257.0599999999995,7881.6700000000001,1080.4400000000001,8759.5300000000007,-1095.7,1962.01,101.61
172589.0,8346.5900000000001,8049.7299999999996,947.05799999999999,8557.0400000000009,-1084.3299999999999,1984.1700000000001,79.455600000000004
172590.0,8411.3199999999997,8386.2199999999993,1028.4400000000001,8531.8700000000008,-1079.4400000000001,2001.5799999999999,44.572699999999998
172591.0,8453.5799999999999,8506.5300000000007,921.947,8284.2199999999993,-1075.1600000000001,2008.8,-5.5427900000000001
172592.0,8476.7399999999998,8816.9599999999991,1030.25,8219.0,-1079.04,2001.4400000000001,-59.013399999999997
172593.0,8477.4599999999991,8921.5100000000002,955.63199999999995,7943.5600000000004,-1083.3599999999999,1973.6500000000001,-114.136
172594.0,8458.3999999999996,9201.2000000000007,1081.79,7847.29,-1092.78,1924.76,-166.35599999999999
172595.0,8421.2900000000009,9237.0799999999999,989.851,7517.9200000000001,-1104.3900000000001,1855.2,-215.892
172596.0,8368.9300000000003,9452.4899999999998,1103.1199999999999,7382.8500000000004,-1117.8399999999999,1767.5899999999999,-259.488
172597.0,8306.75,9493.5499999999993,1061.8599999999999,7088.4399999999996,-1130.48,1663.8199999999999,-296.93200000000002
172598.0,8238.3700000000008,9676.0,1178.03,6948.7299999999996,-1143.25,1543.8,-327.81400000000002
172599.0,8166.7399999999998,9687.5599999999995,1134.96,6654.9399999999996,-1153.9400000000001,1404.9200000000001,-352.41500000000002
172600.0,8094.6800000000003,9819.2800000000007,1222.03,6505.1099999999997,-1161.0999999999999,1247.05,-369.79199999999997
172601.0,8028.0500000000002,9792.9599999999991,1154.71,6228.8900000000003,-1160.3099999999999,1071.99,-377.87400000000002
172602.0,8222.0499999999993,7726.3900000000003,1084.6900000000001,8674.9300000000003,-1124.79,2040.76,13.771599999999999
172603.0,8321.2399999999998,8096.71,1139.1900000000001,8655.6499999999996,-1119.5999999999999,2071.5599999999999,-6.6081399999999997
172604.0,8391.7399999999998,8268.0799999999999,1040.6700000000001,8439.6700000000001,-1120.76,2093.0999999999999,-40.252000000000002
172605.0,8431.2000000000007,8581.1100000000006,1123.3599999999999,8358.2199999999993,-1122.6900000000001,2103.5599999999999,-88.566299999999998
172606.0,8446.6499999999996,8729.6000000000004,1067.4300000000001,8102.71,-1130.51,2093.9699999999998,-140.18299999999999
172607.0,8434.8500000000004,8969.6700000000001,1133.9000000000001,7936.04,-1141.5,2062.0999999999999,-193.44999999999999
172608.0,8399.8199999999997,9083.2600000000002,1102.1500000000001,7650.4300000000003,-1155.98,2004.5899999999999,-243.21899999999999
172609.0,8342.1399999999994,9288.3400000000001,1194.7,7472.7700000000004,-1171.3599999999999,1925.04,-288.00400000000002
172610.0,8270.2299999999996,9366.1100000000006,1188.7,7190.6300000000001,-1189.99,1827.1700000000001,-326.57999999999998
172611.0,8188.8900000000003,9477.5100000000002,1239.74,6959.6999999999998,-1208.9000000000001,1715.6500000000001,-357.81999999999999
172612.0,8103.6000000000004,9523.3799999999992,1238.54,6675.5600000000004,-1226.46,1587.8,-381.90800000000002
172613.0,8016.9399999999996,9609.3999999999996,1286.9300000000001,6447.8800000000001,-1240.97,1440.99,-397.904
172614.0,7933.5900000000001,9656.3999999999996,1302.0699999999999,6205.8400000000001,-1251.3699999999999,1274.75,-406.24900000000002
172615.0,7859.6599999999999,9736.5200000000004,1349.05,6027.6599999999999,-1253.4200000000001,1091.3299999999999,-404.44799999999998
172616.0,8144.8500000000004,7691.8000000000002,1262.3199999999999,8714.6200000000008,-1148.1600000000001,2113.8299999999999,-78.513199999999998
172617.0,8262.7800000000007,7936.9099999999999,1167.1600000000001,8547.2299999999996,-1152.78,2154.5100000000002,-95.495999999999995
172618.0,8334.4799999999996,8285.7199999999993,1237.0999999999999,8483.8600000000006,-1156.3800000000001,2182.0599999999999,-127.717
172619.0,8371.3099999999995,8427.7700000000004,1142.1800000000001,8200.8099999999995,-1165.29,2193.6999999999998,-173.51400000000001
172620.0,8375.4400000000005,8753.8500000000004,1266.8099999999999,8094.0799999999999,-1177.98,2181.9699999999998,-224.11500000000001
172621.0,8348.2199999999993,8860.8999999999996,1205.8299999999999,7766.0,-1192.6800000000001,2143.6199999999999,-272.50999999999999
172622.0,8292.6100000000006,9133.2900000000009,1345.26,7614.3599999999997,-1210.22,2076.4099999999999,-320.36700000000002
172623.0,8211.1700000000001,9136.4099999999999,1255.5899999999999,7220.6899999999996,-1233.4300000000001,1981.98,-362.774
172624.0,8111.3199999999997,9334.0799999999999,1401.8699999999999,7059.5799999999999,-1258.96,1872.27,-396.166
172625.0,8006.6099999999997,9310.4500000000007,1347.47,6692.8599999999997,-1281.97,1754.1700000000001,-419.19799999999998
172626.0,7902.5699999999997,9485.3299999999999,1498.73,6531.9899999999998,-1302.9300000000001,1619.55,-435.13400000000001
172627.0,7799.2600000000002,9436.8700000000008,1433.8399999999999,6165.3900000000003,-1320.8499999999999,1465.1500000000001,-441.678
172628.0,7702.6400000000003,9575.25,1558.1300000000001,6010.21,-1334.4300000000001,1291.6600000000001,-440.11200000000002
172629.0,7620.3800000000001,9497.2700000000004,1458.1800000000001,5668.3400000000001,-1338.99,1100.8800000000001,-427.88299999999998
172630.0,8029.6599999999999,7595.4399999999996,1430.26,8696.8400000000001,-1166.98,2182.5,-170.42599999999999
172631.0,8165.9700000000003,7807.7299999999996,1274.4200000000001,8473.4099999999999,-1176.79,2232.4000000000001,-183.803
172632.0,8241.9599999999991,8161.8599999999997,1340.5699999999999,8385.3500000000004,-1187.27,2269.8800000000001,-215.709
172633.0,8276.8500000000004,8384.2600000000002,1313.47,8147.0600000000004,-1199.4300000000001,2281.52,-257.74799999999999
172634.0,8269.2299999999996,8638.3799999999992,1366.29,7935.9700000000003,-1213.8,2266.96,-302.34199999999998
172635.0,8225.4699999999993,8783.5400000000009,1348.02,7615.4799999999996,-1227.1400000000001,2222.9000000000001,-341.99799999999999
172636.0,8138.7700000000004,8975.6499999999996,1421.1600000000001,7348.4399999999996,-1239.3199999999999,2140.79,-390.53699999999998
172637.0,8019.75,9063.7099999999991,1450.4000000000001,7037.4300000000003,-1272.27,2020.2,-437.84100000000001
172638.0,7887.0500000000002,9121.8999999999996,1511.78,6759.3599999999997,-1317.51,1900.0799999999999,-465.78199999999998
172639.0,7758.46,9120.8799999999992,1518.1300000000001,6416.8500000000004,-1347.95,1779.05,-480.35199999999998
172640.0,7632.7399999999998,9182.1700000000001,1585.04,6140.25,-1373.0599999999999,1635.99,-487.75099999999998
172641.0,7508.8199999999997,9176.0400000000009,1592.55,5818.3900000000003,-1394.1300000000001,1475.1700000000001,-484.01999999999998
172642.0,7397.8699999999999,9244.3500000000004,1669.4200000000001,5591.8999999999996,-1410.6700000000001,1295.99,-471.48399999999998
172643.0,7306.9099999999999,9260.1599999999999,1678.1199999999999,5341.0900000000001,-1417.98,1099.1199999999999,-448.29300000000001
172644.0,7878.75,7375.0500000000002,1523.0,8561.1399999999994,-1181.9100000000001,2242.2399999999998,-262.44600000000003
172645.0,8039.1199999999999,7624.3299999999999,1381.55,8358.8299999999999,-1195.8199999999999,2310.9099999999999,-270.54199999999997
172646.0,8126.8699999999999,8069.0299999999997,1510.9000000000001,8314.1599999999999,-1205.1099999999999,2363.1100000000001,-294.09300000000002
172647.0,8147.5799999999999,8199.6599999999999,1378.4000000000001,7932.1300000000001,-1215.0999999999999,2369.3499999999999,-334.64499999999998
172648.0,8110.9799999999996,8593.1200000000008,1582.05,7836.8299999999999,-1226.4300000000001,2343.1999999999998,-355.51499999999999
172649.0,8014.0,8706.3299999999999,1560.3499999999999,7442.8299999999999,-1208.5799999999999,2293.6700000000001,-377.30200000000002
172650.0,7868.6199999999999,9014.7299999999996,1781.4200000000001,7257.2799999999997,-1211.96,2174.5500000000002,-456.58999999999997
172651.0,7730.04,8846.2099999999991,1602.8800000000001,6730.9799999999996,-1288.98,2027.4400000000001,-522.45699999999999
172652.0,7595.3500000000004,8950.8600000000006,1749.8599999999999,6518.0299999999997,-1364.8399999999999,1913.73,-535.27499999999998
172653.0,7442.8599999999997,8830.7000000000007,1673.51,6048.7700000000004,-1400.9000000000001,1787.01,-539.995
172654.0,7289.29,8982.3400000000001,1873.9000000000001,5874.8699999999999,-1431.5899999999999,1634.9100000000001,-538.42100000000005
172655.0,7145.8000000000002,8835.7600000000002,1776.8199999999999,5418.2700000000004,-1456.98,1470.7,-523.20600000000002
172656.0,7019.54,8966.8899999999994,1944.2,5257.3999999999996,-1475.72,1286.6600000000001,-498.77699999999999
172657.0,6917.3199999999997,8820.9699999999993,1812.5999999999999,4846.1300000000001,-1484.3699999999999,1085.46,-463.72500000000002
172658.0,7694.7799999999997,7100.3999999999996,1611.97,8388.2199999999993,-1187.8399999999999,2293.8400000000001,-337.69999999999999
172659.0,7890.2299999999996,7527.8900000000003,1621.1900000000001,8350.6499999999996,-1193.98,2397.4299999999998,-321.54700000000003
172660.0,7980.2399999999998,7831.7399999999998,1573.3199999999999,8080.0200000000004,-1182.4400000000001,2473.9200000000001,-339.36399999999998
172661.0,7971.3999999999996,8262.2099999999991,1704.3800000000001,7911.7200000000003,-1187.3699999999999,2451.04,-392.21800000000002
172662.0,7844.1499999999996,8400.5400000000009,1735.3800000000001,7566.2799999999997,-1212.71,2390.7600000000002,-370.39999999999998
172663.0,7602.7600000000002,8743.8600000000006,2079.9899999999998,7377.5699999999997,-1151.04,2320.98,-407.137
172664.0,7455.5699999999997,8754.8600000000006,1998.1199999999999,6902.9700000000003,-1165.6800000000001,2158.46,-566.27999999999997
172665.0,7377.21,8650.1200000000008,1874.3399999999999,6492.04,-1305.8099999999999,2019.5899999999999,-612.58900000000006
172666.0,7228.7200000000003,8541.0100000000002,1838.2,6040.9399999999996,-1384.95,1915.28,-598.55700000000002
172667.0,7048.25,8526.8600000000006,1911.97,5683.0299999999997,-1433.1300000000001,1769.8,-601.947
172668.0,6871.9300000000003,8429.9699999999993,1918.76,5285.21,-1478.71,1614.8099999999999,-586.46100000000001
172669.0,6706.1899999999996,8420.8199999999997,2002.72,4974.8800000000001,-1504.98,1448.3699999999999,-558.12800000000004
172670.0,6565.7600000000002,8384.3799999999992,2036.55,4655.6599999999999,-1526.0799999999999,1261.9300000000001,-521.56200000000001
172671.0,6457.6800000000003,8416.3999999999996,2106.2800000000002,4424.9899999999998,-1538.4300000000001,1059.1099999999999,-473.78500000000003
172672.0,7461.0600000000004,6824.6599999999999,1762.5,8225.0400000000009,-1193.96,2327.0599999999999,-395.72500000000002
172673.0,7653.46,7292.1800000000003,1845.22,8234.6100000000006,-1173.7,2482.4200000000001,-297.00099999999998
172674.0,7733.6899999999996,7915.3999999999996,2036.3299999999999,8122.3699999999999,-1059.9000000000001,2601.2800000000002,-324.94499999999999
172675.0,7714.1499999999996,8107.7799999999997,1820.76,7591.9499999999998,-1081.1600000000001,2510.25,-427.25099999999998
172676.0,7442.0,8492.6700000000001,2276.6799999999998,7518.8999999999996,-1191.6300000000001,2390.5500000000002,-385.351
172677.0,7071.7600000000002,8607.5799999999999,2588.3099999999999,7155.0600000000004,-1130.4300000000001,2295.1199999999999,-508.26499999999999
172678.0,7000.7600000000002,8698.1100000000006,2528.1700000000001,6837.4300000000003,-1146.6199999999999,2125.2399999999998,-699.18299999999999
172679.0,6947.3400000000001,8309.2800000000007,2093.04,6126.4499999999998,-1283.51,2010.6500000000001,-672.76999999999998
172680.0,6765.1599999999999,8312.2399999999998,2211.1999999999998,5746.6000000000004,-1359.8699999999999,1893.3699999999999,-661.529
172681.0,6583.0500000000002,8070.0299999999997,2091.6700000000001,5187.1599999999999,-1437.5899999999999,1730.45,-667.42200000000003
172682.0,6387.7700000000004,8072.8800000000001,2262.3899999999999,4915.25,-1505.22,1573.5799999999999,-630.61599999999999
172683.0,6200.6300000000001,7855.1499999999996,2200.9499999999998,4419.7200000000003,-1540.1099999999999,1407.24,-589.77499999999998
172684.0,6051.1099999999997,7899.21,2353.7199999999998,4192.0799999999999,-1562.8900000000001,1222.24,-538.21699999999998
172685.0,5934.8599999999997,7722.54,2243.5,3759.9499999999998,-1572.3599999999999,1018.6,-476.83199999999999
172686.0,7187.75,6577.5,2010.4000000000001,8104.3500000000004,-1224.9300000000001,2342.0100000000002,-425.96199999999999
172687.0,7291.6099999999997,7210.4099999999999,2407.1799999999998,8272.3600000000006,-1165.6600000000001,2561.0700000000002,-195.42500000000001
172688.0,7255.8699999999999,7963.6499999999996,2704.6599999999999,8104.3800000000001,-835.71400000000006,2703.96,-259.02199999999999
172689.0,7269.9300000000003,8508.1200000000008,2586.8200000000002,7742.6899999999996,-838.31899999999996,2518.8499999999999,-445.07600000000002
172690.0,6952.8500000000004,8361.8999999999996,2636.9299999999998,7178.54,-1132.5999999999999,2341.0300000000002,-466.03100000000001
172691.0,6584.8900000000003,8489.1499999999996,3115.77,6983.8800000000001,-1148.7,2237.9499999999998,-664.89700000000005
172692.0,6481.0,8211.8999999999996,2752.21,6404.1700000000001,-1148.77,2080.71,-785.221
172693.0,6337.96,7994.3800000000001,2563.3299999999999,5827.5799999999999,-1228.21,1971.9300000000001,-720.04300000000001
172694.0,6166.5,7805.8900000000003,2484.54,5230.2200000000003,-1294.49,1839.47,-730.93799999999999
172695.0,6005.1000000000004,7607.3000000000002,2415.1300000000001,4726.7200000000003,-1395.3,1664.1900000000001,-733.06299999999999
172696.0,5823.3299999999999,7309.96,2329.4200000000001,4185.2700000000004,-1497.5,1506.6500000000001,-674.96900000000005
172697.0,5649.3299999999999,7214.1700000000001,2429.5,3822.0300000000002,-1542.75,1353.5,-608.10699999999997
172698.0,5492.5,7092.04,2458.9499999999998,3433.4899999999998,-1560.3,1164.3699999999999,-546.66499999999996
172699.0,5371.5299999999997,7085.9300000000003,2573.5700000000002,3207.52,-1581.9100000000001,960.31200000000001,-474.94999999999999
172700.0,7018.3100000000004,6189.9300000000003,2109.9400000000001,7852.79,-1313.71,2411.5,-381.83800000000002
172701.0,6838.1300000000001,7237.0500000000002,3209.7800000000002,8299.9799999999996,-1173.25,2645.1599999999999,-58.971499999999999
172702.0,6502.6000000000004,8323.3600000000006,4002.1199999999999,8357.4400000000005,-623.03099999999995,2716.9499999999998,-225.34999999999999
172703.0,6491.79,8623.4099999999999,3469.5999999999999,7687.4700000000003,-545.952,2432.9299999999998,-540.87099999999998
172704.0,6368.9499999999998,8461.4599999999991,3319.5799999999999,7113.6999999999998,-986.721,2244.6999999999998,-632.78099999999995
172705.0,6123.5200000000004,8118.3699999999999,3354.7399999999998,6573.6400000000003,-1145.9100000000001,2151.5900000000001,-806.26300000000003
172706.0,5915.1400000000003,7885.3999999999996,3239.3499999999999,6124.9799999999996,-1184.8399999999999,2012.5,-840.81899999999996
172707.0,5682.5600000000004,7529.0500000000002,3043.5700000000002,5412.5500000000002,-1214.4400000000001,1907.95,-783.25900000000001
172708.0,5492.2200000000003,7418.9799999999996,3070.5100000000002,4900.6499999999996,-1241.3800000000001,1759.52,-806.92399999999998
172709.0,5350.1499999999996,6963.5500000000002,2744.9000000000001,4152.6400000000003,-1340.6800000000001,1572.8699999999999,-810.34699999999998
172710.0,5196.3100000000004,6739.0100000000002,2734.4899999999998,3712.1799999999998,-1457.04,1421.3,-706.06700000000001
172711.0,5004.4499999999998,6488.5799999999999,2755.7800000000002,3194.6300000000001,-1482.29,1276.1400000000001,-599.74199999999996
172712.0,4856.6700000000001,6406.4399999999996,2886.4899999999998,2872.8000000000002,-1499.4400000000001,1075.26,-558.37400000000002
172713.0,4789.6899999999996,6131.5600000000004,2748.8800000000001,2427.6300000000001,-1557.21,889.35000000000002,-469.47699999999998
172714.0,6852.9399999999996,6214.4200000000001,2506.4400000000001,7772.4700000000003,-1234.3699999999999,2609.4400000000001,-58.8123
172715.0,6322.25,7566.3699999999999,4290.9399999999996,8341.4599999999991,-1113.0699999999999,2731.5300000000002,27.918800000000001
172716.0,5689.4399999999996,8582.3600000000006,5292.3999999999996,8443.3500000000004,-569.49699999999996,2620.0500000000002,-372.779
172717.0,5645.8299999999999,8780.6000000000004,4726.4700000000003,7878.7700000000004,-425.46100000000001,2309.6399999999999,-760.70799999999997
172718.0,5722.5500000000002,8200.8299999999999,3838.6999999999998,6832.5,-801.29999999999995,2139.6599999999999,-847.60299999999995
172719.0,5614.3599999999997,7712.9499999999998,3579.1300000000001,6122.9899999999998,-1078.8299999999999,2035.73,-922.5
172720.0,5351.1800000000003,7275.5299999999997,3459.5700000000002,5521.6899999999996,-1191.72,1924.8699999999999,-878.29399999999998
172721.0,5055.9200000000001,7057.5600000000004,3568.9000000000001,4977.2799999999997,-1193.98,1819.0699999999999,-840.14099999999996
172722.0,4850.5799999999999,6692.8699999999999,3432.1199999999999,4265.2600000000002,-1202.77,1655.4200000000001,-886.37
172723.0,4711.7399999999998,6255.25,3140.8299999999999,3572.1199999999999,-1275.3499999999999,1472.6500000000001,-870.33199999999999
172724.0,4534.8500000000004,5814.8299999999999,2956.4299999999998,2924.21,-1372.01,1307.21,-713.59400000000005
172725.0,4368.6099999999997,5588.0299999999997,3140.73,2475.3899999999999,-1411.55,1149.99,-599.899
172726.0,4292.6400000000003,5323.7299999999996,3137.3800000000001,2032.95,-1438.1199999999999,967.10799999999995,-577.84699999999998
172727.0,4265.96,5178.3800000000001,3089.0799999999999,1754.27,-1491.3800000000001,816.27599999999995,-443.90300000000002
172728.0,6062.9499999999998,6945.1499999999996,4049.6999999999998,7990.3000000000002,-774.26199999999994,2714.0700000000002,346.51900000000001
172729.0,5630.4499999999998,8094.1999999999998,5486.3599999999997,8293.25,-845.52800000000002,2719.6399999999999,-52.543300000000002
172730.0,5166.2299999999996,8797.0799999999999,6250.5500000000002,8460.4599999999991,-610.74099999999999,2486.02,-655.52800000000002
172731.0,5063.7700000000004,8481.2900000000009,5473.1000000000004,7686.9899999999998,-473.65100000000001,2230.9200000000001,-956.89499999999998
172732.0,5065.3299999999999,8068.1499999999996,4660.9399999999996,6750.7399999999998,-599.18100000000004,2051.1799999999998,-1016.95
172733.0,4959.3100000000004,7330.1400000000003,3961.9099999999999,5717.9799999999996,-885.82600000000002,1890.0899999999999,-1001.58
172734.0,4679.4200000000001,6827.8599999999997,3946.5900000000001,5071.3900000000003,-1087.0699999999999,1789.77,-897.39400000000001
172735.0,4422.1400000000003,6392.3299999999999,4019.9400000000001,4368.3599999999997,-1114.74,1683.0699999999999,-895.57799999999997
172736.0,4260.8400000000001,6050.1899999999996,3989.4099999999999,3763.1500000000001,-1121.99,1521.1099999999999,-943.84400000000005
172737.0,4084.6199999999999,5433.6300000000001,3627.23,2940.9099999999999,-1158.1099999999999,1340.4400000000001,-874.87300000000005
172738.0,3944.3299999999999,5068.9799999999996,3625.5900000000001,2375.0999999999999,-1233.76,1148.9000000000001,-725.572
172739.0,3935.8699999999999,4634.8100000000004,3654.1700000000001,1804.51,-1320.5599999999999,979.89200000000005,-627.72299999999996
172740.0,3944.5999999999999,4323.1300000000001,3660.9200000000001,1405.7,-1346.24,850.43899999999996,-558.29600000000005
172741.0,3872.4099999999999,3963.6799999999998,3354.6799999999998,940.24400000000003,-1327.21,749.34199999999998,-344.38600000000002
172742.0,4933.2299999999996,7840.4200000000001,6374.0900000000001,8405.5,-235.64599999999999,2626.6599999999999,240.94
172743.0,4895.8800000000001,8504.4300000000003,6587.3299999999999,8240.0599999999995,-478.77999999999997,2555.9200000000001,-385.34899999999999
172744.0,4762.1300000000001,8718.4899999999998,6719.3699999999999,8199.5100000000002,-550.10400000000004,2334.27,-855.428
172745.0,4540.4899999999998,8281.3199999999997,6241.4200000000001,7488.7399999999998,-464.79399999999998,2133.5500000000002,-1022.95
172746.0,4357.21,7638.2600000000002,5435.3400000000001,6405.7700000000004,-422.673,1907.1400000000001,-1137.3900000000001
172747.0,4143.0600000000004,6835.2600000000002,4644.9799999999996,5331.8800000000001,-669.73099999999999,1684.6099999999999,-1086.4200000000001
172748.0,3963.29,6120.1899999999996,4460.9300000000003,4451.9700000000003,-927.95799999999997,1591.8399999999999,-958.19100000000003
172749.0,3907.73,5665.1499999999996,4590.0100000000002,3781.6900000000001,-1007.76,1498.1700000000001,-968.10299999999995
172750.0,3848.54,5028.9799999999996,4381.8299999999999,2958.7399999999998,-1029.6099999999999,1339.8800000000001,-979.83000000000004
172751.0,3784.8000000000002,4446.4799999999996,4227.0500000000002,2213.77,-1077.8599999999999,1147.3299999999999,-884.49400000000003
172752.0,3855.9099999999999,3825.9099999999999,4092.6799999999998,1445.4400000000001,-1154.0599999999999,948.89800000000002,-774.26099999999997
172753.0,3991.8499999999999,3305.8299999999999,4037.4099999999999,892.73699999999997,-1248.48,770.404,-671.96199999999999
172754.0,4037.9000000000001,2788.3200000000002,3914.2600000000002,434.94200000000001,-1257.29,694.78700000000003,-468.404
172755.0,3944.54,2777.6199999999999,4092.2399999999998,345.928,-1068.77,651.56200000000001,-83.379000000000005
172756.0,4548.6499999999996,8884.3500000000004,8778.75,9310.9899999999998,254.541,2597.2399999999998,-83.0321
172757.0,4468.29,8944.5400000000009,7564.3800000000001,8351.4400000000005,-1.2688999999999999,2382.73,-706.01099999999997
172758.0,4216.3100000000004,8427.0100000000002,7106.5699999999997,7724.8100000000004,-388.22399999999999,2105.3600000000001,-951.84500000000003
172759.0,4032.4400000000001,7838.8699999999999,6909.3299999999999,7003.6800000000003,-378.87099999999998,1954.4300000000001,-1093.2
172760.0,3874.04,7212.1099999999997,6284.2299999999996,6049.3299999999999,-342.827,1693.3299999999999,-1280.55
172761.0,3598.7800000000002,6142.0,5384.79,4832.6700000000001,-573.28999999999996,1451.6099999999999,-1203.8099999999999
172762.0,3573.6300000000001,5404.6199999999999,5220.54,3943.8400000000001,-791.31899999999996,1367.3,-1062.21
172763.0,3747.8699999999999,4678.7200000000003,5088.04,3026.5500000000002,-879.35799999999995,1278.8699999999999,-1040.3
172764.0,3919.8600000000001,4073.77,5005.1599999999999,2249.4200000000001,-928.65200000000004,1123.0699999999999,-1016.42
172765.0,4129.9399999999996,3282.8499999999999,4745.5,1320.1199999999999,-1008.8099999999999,922.91099999999994,-928.37400000000002
172766.0,4434.6700000000001,2667.1399999999999,4706.3699999999999,636.28200000000004,-1097.03,723.46299999999997,-828.947
172767.0,4658.1499999999996,1777.54,4333.8299999999999,-170.471,-1169.4200000000001,535.32299999999998,-689.68600000000004
172768.0,4757.75,1350.5799999999999,4470.4799999999996,-320.71499999999997,-1159.5,448.589,-293.21600000000001
172769.0,5255.8199999999997,1354.46,5256.0900000000001,-290.32999999999998,-916.70899999999995,420.09399999999999,275.53399999999999
172770.0,4808.8199999999997,9397.4099999999999,10925.0,9680.2600000000002,854.22500000000002,2506.1700000000001,-192.78700000000001
172771.0,4203.8000000000002,9544.6800000000003,9016.9099999999999,8608.4099999999999,708.37900000000002,2073.6599999999999,-931.89200000000005
172772.0,3655.8600000000001,8261.3700000000008,7763.8100000000004,7412.0299999999997,-115.586,1797.8499999999999,-1013.6
172773.0,3823.0999999999999,7504.04,7706.5,6598.3800000000001,-175.60499999999999,1757.4300000000001,-1185.0999999999999
172774.0,3741.8000000000002,6688.9799999999996,6908.9700000000003,5526.4399999999996,-201.69,1437.24,-1417.3299999999999
172775.0,3570.6599999999999,5322.7299999999996,5988.3199999999997,4182.9700000000003,-492.20600000000002,1200.48,-1316.3900000000001
172776.0,3801.98,4359.4899999999998,5789.0699999999997,3174.5,-691.73699999999997,1121.5699999999999,-1169.5899999999999
172777.0,4213.7799999999997,3531.1399999999999,5653.8400000000001,2193.4200000000001,-762.61500000000001,1035.0899999999999,-1104.8499999999999
172778.0,4635.8400000000001,2768.21,5491.75,1252.29,-802.68799999999999,877.15099999999995,-1065.45
172779.0,5054.0100000000002,1850.52,5163.3299999999999,225.887,-882.50099999999998,673.33100000000002,-974.70899999999995
172780.0,5496.21,973.79999999999995,4916.8699999999999,-660.43700000000001,-952.59699999999998,460.19,-854.06700000000001
172781.0,5841.7799999999997,-6.8232400000000002,4596.3500000000004,-1427.9200000000001,-994.96000000000004,228.952,-645.23400000000004
172782.0,6302.96,-646.91800000000001,4861.3199999999997,-1570.1900000000001,-1064.1400000000001,42.480499999999999,-123.869
172783.0,7554.4399999999996,-495.45100000000002,6406.8699999999999,-1207.3399999999999,-1044.78,29.618300000000001,493.18400000000003
172784.0,5723.25,9745.2099999999991,13292.299999999999,9673.0799999999999,1320.28,2119.4499999999998,-634.33399999999995
172785.0,4399.1099999999997,9568.6000000000004,10657.299999999999,8715.5699999999997,1192.5,1539.49,-1308.22
172786.0,3430.6399999999999,7998.04,8854.4500000000007,7240.4200000000001,300.47399999999999,1434.48,-1059.71
172787.0,4029.9099999999999,7036.9499999999998,8646.7999999999993,6101.21,246.441,1449.46,-1262.48
172788.0,4041.3600000000001,6066.8599999999997,7761.25,5043.7200000000003,127.985,1071.3299999999999,-1547.98
172789.0,4100.8800000000001,4193.1099999999997,6508.1700000000001,3335.1399999999999,-284.65499999999997,888.471,-1428.77
172790.0,4628.71,3229.8800000000001,6417.8199999999997,2376.5799999999999,-546.73599999999999,848.17600000000004,-1259.45
172791.0,5307.3400000000001,2055.27,6074.2200000000003,1068.3499999999999,-642.24199999999996,761.85900000000004,-1168.5899999999999
172792.0,5938.2700000000004,1283.0899999999999,6035.0299999999997,169.947,-676.56200000000001,596.68499999999995,-1112.3699999999999
172793.0,6506.2700000000004,131.19,5572.8900000000003,-1053.3299999999999,-708.09799999999996,389.82499999999999,-984.97799999999995
172794.0,7112.0900000000001,-746.06700000000001,5459.5,-1883.1099999999999,-719.97000000000003,120.02200000000001,-841.73199999999997
172795.0,7770.3299999999999,-2041.3,5102.3500000000004,-2813.5799999999999,-806.61699999999996,-216.374,-616.58900000000006
172796.0,8642.3299999999999,-2920.6799999999998,5418.9499999999998,-3012.8600000000001,-1093.21,-491.572,-132.71299999999999
172797.0,10155.9,-3277.5300000000002,6708.4099999999999,-2907.1100000000001,-1376.3,-453.66699999999997,478.20299999999997
172798.0,6849.1999999999998,10272.5,15352.799999999999,10104.0,1498.6700000000001,1593.5799999999999,-1397.76
172799.0,5063.0200000000004,9254.3700000000008,12099.1,8805.9099999999999,1263.5699999999999,1055.6700000000001,-1626.0
172800.0,4384.96,7468.5100000000002,10470.9,6987.5900000000001,637.42200000000003,988.62099999999998,-1209.29
172801.0,5243.1199999999999,6484.2600000000002,10267.6,5870.0600000000004,579.89499999999998,911.524,-1524.75
172802.0,5338.96,4737.0,8668.9500000000007,4303.3500000000004,315.577,604.34500000000003,-1803.3900000000001
172803.0,5474.1300000000001,2846.4899999999998,7340.25,2578.6199999999999,-139.785,551.70699999999999,-1583.77
172804.0,6102.8500000000004,1605.1500000000001,6905.1400000000003,1209.9300000000001,-389.10899999999998,556.75999999999999,-1356.46
172805.0,6908.5699999999997,470.65899999999999,6616.0600000000004,-101.63800000000001,-505.89299999999997,448.32499999999999,-1257.9400000000001
172806.0,7687.4200000000001,-660.50599999999997,6355.0,-1293.54,-563.94200000000001,265.959,-1135.95
172807.0,8546.6499999999996,-1822.02,6162.5600000000004,-2469.5999999999999,-548.26900000000001,21.5657,-965.82399999999996
172808.0,9506.8999999999996,-3088.0999999999999,5967.1700000000001,-3580.1900000000001,-568.06299999999999,-358.70400000000001,-881.46500000000003
172809.0,10494.299999999999,-4675.6199999999999,5573.0799999999999,-4623.6800000000003,-822.56500000000005,-789.81799999999998,-757.69899999999996
172810.0,11565.6,-6340.0900000000001,5247.5,-5407.2799999999997,-1352.0999999999999,-1085.3199999999999,-370.18799999999999
172811.0,13136.6,-7226.7799999999997,6110.75,-5524.0,-1937.1700000000001,-1012.8099999999999,229.24700000000001
172812.0,7923.1599999999999,9662.7900000000009,16158.299999999999,9739.5699999999997,1549.9100000000001,1052.3099999999999,-1875.1300000000001
172813.0,6412.54,8534.4699999999993,13393.9,8320.8700000000008,1282.49,567.46699999999998,-1872.8499999999999
172814.0,6406.54,6597.4799999999996,12051.299999999999,6470.7600000000002,663.55499999999995,417.15499999999997,-1707.73
172815.0,7221.3900000000003,4918.8000000000002,11174.0,5048.3599999999997,401.91199999999998,333.23700000000002,-2081.3899999999999
172816.0,7243.2700000000004,2747.8099999999999,9183.9500000000007,3209.9899999999998,95.189800000000005,222.672,-2131.21
172817.0,7418.6999999999998,878.84699999999998,7851.5799999999999,1333.8099999999999,-209.334,262.988,-1736.3399999999999
172818.0,8162.8199999999997,-428.185,7377.6899999999996,-244.273,-336.82100000000003,247.97399999999999,-1480.6300000000001
172819.0,9018.8899999999994,-1718.4400000000001,6941.3199999999997,-1740.74,-414.19900000000001,93.964699999999993,-1367.98
172820.0,9980.0699999999997,-2996.9899999999998,6685.6899999999996,-3080.1199999999999,-510.39800000000002,-149.51599999999999,-1181.4000000000001
172821.0,11288.799999999999,-4466.0600000000004,6569.5699999999997,-4505.5500000000002,-600.31799999999998,-500.05099999999999,-1061.8299999999999
172822.0,12662.9,-6170.2700000000004,6296.6400000000003,-5848.2700000000004,-817.99599999999998,-985.70799999999997,-1142.0599999999999
172823.0,13866.299999999999,-8549.6800000000003,5273.7399999999998,-7429.3400000000001,-1326.6199999999999,-1435.53,-1148.5999999999999
172824.0,15016.6,-11030.0,4111.0200000000004,-8862.4599999999991,-2130.9899999999998,-1689.53,-852.31899999999996
172825.0,16389.900000000001,-13191.6,3414.48,-10051.5,-3040.27,-1547.53,-280.91399999999999
172826.0,9445.3199999999997,8271.8899999999994,16610.900000000001,8568.9699999999993,1353.3299999999999,500.19600000000003,-2296.2800000000002
172827.0,8695.1200000000008,7316.9799999999996,14663.5,7472.4300000000003,1139.5999999999999,32.544499999999999,-2506.7800000000002
172828.0,8640.5799999999999,5029.0299999999997,12658.9,5509.1099999999997,405.13900000000001,-128.435,-2538.6999999999998
172829.0,9016.8099999999995,2601.6700000000001,10836.299999999999,3569.6399999999999,-38.977600000000002,-67.620099999999994,-2614.6799999999998
172830.0,9051.9200000000001,246.28,8879.9400000000005,1452.3,-254.815,-16.023499999999999,-2320.8800000000001
172831.0,9516.5599999999995,-1530.01,7846.5600000000004,-525.03300000000002,-390.53800000000001,-0.362423,-1879.76
172832.0,10480.9,-3020.6599999999999,7363.3900000000003,-2302.5500000000002,-472.09100000000001,-93.479799999999997,-1660.05
172833.0,11521.799999999999,-4517.6000000000004,6912.1700000000001,-3967.3099999999999,-546.41200000000003,-300.84899999999999,-1520.1500000000001
172834.0,12764.9,-6087.6099999999997,6544.6899999999996,-5684.8000000000002,-691.00099999999998,-622.37599999999998,-1378.3699999999999
172835.0,14353.6,-7978.3299999999999,6099.9399999999996,-7574.46,-1009.13,-1107.22,-1485.1600000000001
172836.0,15924.1,-10793.799999999999,4760.4799999999996,-9820.0300000000007,-1630.76,-1674.1099999999999,-1775.0999999999999
172837.0,17267.5,-14301.799999999999,2620.2199999999998,-12245.700000000001,-2533.6100000000001,-2077.02,-1841.99
172838.0,18325.400000000001,-17920.5,81.150899999999993,-14686.4,-3565.5599999999999,-2177.0300000000002,-1545.1900000000001
172839.0,19182.099999999999,-20681.400000000001,-1831.05,-16438.799999999999,-4524.9899999999998,-1904.96,-871.55899999999997
172840.0,94609.399999999994,-228241.0,-260706.0,-232923.0,-40580.0,-17015.900000000001,-27192.0
172841.0,89369.399999999994,-196048.0,-226037.0,-210117.0,-26299.700000000001,-12187.1,-39962.099999999999
172842.0,78872.5,-157702.0,-175335.0,-176490.0,-21446.5,-7834.8800000000001,-37965.900000000001
172843.0,70305.0,-118995.0,-134334.0,-140287.0,-16708.299999999999,-7824.6999999999998,-34446.0
172844.0,60983.5,-87838.100000000006,-98099.300000000003,-112847.0,-8827.8299999999999,-5999.6899999999996,-31107.799999999999
172845.0,46873.300000000003,-61122.199999999997,-64399.699999999997,-84058.100000000006,-4314.1800000000003,-3028.9899999999998,-23467.099999999999
172846.0,37477.599999999999,-43530.5,-42388.599999999999,-60170.800000000003,-1859.1400000000001,-2187.0100000000002,-18996.900000000001
172847.0,34369.400000000001,-29154.799999999999,-21308.700000000001,-41395.599999999999,203.35900000000001,-1622.02,-16988.200000000001
172848.0,30977.400000000001,-16243.5,-1905.0,-25226.700000000001,980.19000000000005,-745.07500000000005,-13415.799999999999
172849.0,26906.599999999999,-8119.3599999999997,10149.4,-13359.299999999999,1056.71,266.95600000000002,-9371.3700000000008
172850.0,24832.900000000001,-5773.1899999999996,16437.0,-5771.3599999999997,737.50599999999997,1671.23,-6148.4099999999999
172851.0,26012.599999999999,-9294.5400000000009,18498.200000000001,-1632.5599999999999,-1026.5799999999999,2699.4899999999998,-3338.4699999999998
172852.0,28969.400000000001,-15847.0,16258.5,281.85399999999998,-4213.8900000000003,1560.0,-1363.5699999999999
172853.0,30197.799999999999,-20153.299999999999,11162.4,1212.3399999999999,-6382.9099999999999,-2304.4499999999998,-1374.8499999999999
172854.0,29007.400000000001,-16994.5,9416.7600000000002,3830.3200000000002,-4830.0900000000001,-7125.54,-3554.2800000000002
172855.0,27888.0,-8726.3799999999992,13465.299999999999,6368.9099999999999,-504.983,-9984.8500000000004,-5553.7799999999997
172856.0,25379.0,454.62700000000001,19576.5,7934.2299999999996,2396.6300000000001,-9564.1599999999999,-4962.3800000000001
172857.0,20106.299999999999,7173.3000000000002,22648.400000000001,8335.1299999999992,2588.96,-6691.6999999999998,-2998.3800000000001
172858.0,15775.200000000001,7132.7200000000003,22019.700000000001,6195.3699999999999,880.86800000000005,-1798.26,353.392
172859.0,19518.5,-3477.6799999999998,13539.799999999999,2446.75,-4677.6000000000004,2170.0700000000002,5077.04
172860.0,25630.5,-16768.5,-2577.52,-1035.1400000000001,-11440.200000000001,-224.976,3581.6900000000001
172861.0,25424.299999999999,-15723.0,-7537.4200000000001,-3326.9699999999998,-11554.5,-5189.0100000000002,-3911.6700000000001
172862.0,16527.5,-7513.7399999999998,-2955.6799999999998,-6733.8199999999997,-7430.4799999999996,-4279.6199999999999,-3403.3200000000002
172863.0,12879.700000000001,-7935.3400000000001,-10373.200000000001,-9765.4799999999996,-6390.6999999999998,-1045.26,3428.0599999999999
172864.0,17182.200000000001,-12017.799999999999,-24099.900000000001,-10971.0,-5875.9799999999996,-1188.6900000000001,3038.02
172865.0,17039.900000000001,-11297.4,-26069.299999999999,-10187.200000000001,-3214.1999999999998,-2028.6600000000001,-1930.1900000000001
172866.0,13608.1,-3894.8600000000001,-14665.4,-3560.71,-938.96199999999999,-1717.1099999999999,-4241.6300000000001
172867.0,8112.0500000000002,1535.3499999999999,-4002.5599999999999,1616.98,-229.78100000000001,-928.48900000000003,-3262.5999999999999
172868.0,3819.8400000000001,3784.6900000000001,936.64099999999996,4509.4399999999996,-569.46500000000003,-351.84300000000002,-921.25099999999998
172869.0,4230.3500000000004,4049.6399999999999,1312.4300000000001,5748.0500000000002,-916.76099999999997,-305.65800000000002,150.99100000000001
172870.0,4585.1599999999999,3812.5100000000002,972.60400000000004,5781.1599999999999,-982.76599999999996,-282.43400000000003,344.22500000000002
172871.0,4803.8500000000004,4152.71,1226.53,6205.2600000000002,-1053.24,-219.87299999999999,523.56799999999998
172872.0,4964.9099999999999,4049.7600000000002,1000.2,6102.3699999999999,-1104.8599999999999,-172.77099999999999,612.67100000000005
172873.0,4988.5299999999997,4168.5100000000002,1053.1099999999999,6124.46,-1133.8599999999999,-113.209,674.55700000000002
172874.0,4985.6199999999999,4125.1700000000001,951.37900000000002,5962.4899999999998,-1156.22,-58.080599999999997,720.13699999999994
172875.0,4926.8199999999997,4141.2200000000003,940.15700000000004,5828.8599999999997,-1167.0599999999999,-2.4483700000000002,750.62199999999996
172876.0,4844.3999999999996,4128.04,916.29700000000003,5656.7700000000004,-1171.1700000000001,49.4724,771.10000000000002
172877.0,4732.5699999999997,4064.4200000000001,863.13800000000003,5423.54,-1167.6400000000001,98.778800000000004,781.34900000000005
172878.0,4603.3299999999999,4059.8200000000002,884.75800000000004,5246.2399999999998,-1158.4400000000001,145.16300000000001,784.40499999999997
172879.0,4456.9899999999998,4004.9899999999998,870.74000000000001,5016.0799999999999,-1143.0799999999999,188.28100000000001,779.66800000000001
172880.0,4299.1499999999996,3887.7199999999998,808.23400000000004,4724.4099999999999,-1123.7,228.83199999999999,769.77300000000002
172881.0,4132.3100000000004,3765.7199999999998,752.09100000000001,4431.1599999999999,-1100.1800000000001,266.04199999999997,753.27999999999997
172882.0,3958.9200000000001,3679.3000000000002,741.452,4177.6199999999999,-1072.5799999999999,299.95800000000003,732.255
172883.0,3779.5700000000002,3524.8400000000001,670.67100000000005,3859.8200000000002,-1040.72,330.49799999999999,705.59500000000003
172884.0,3600.27,3387.0900000000001,623.50599999999997,3564.0799999999999,-1006.66,359.274,677.42499999999995
172885.0,3422.7600000000002,3192.3099999999999,521.77599999999995,3218.9400000000001,-970.67200000000003,384.67500000000001,643.21100000000001
172886.0,3247.5300000000002,3080.7199999999998,508.12200000000001,2964.3099999999999,-933.79700000000003,407.58699999999999,605.48199999999997
172887.0,3070.0900000000001,2926.79,458.46899999999999,2671.1599999999999,-894.99099999999999,427.23599999999999,562.096
172888.0,2910.3899999999999,2846.73,479.52999999999997,2467.96,-858.69799999999998,442.91399999999999,522.59299999999996
172889.0,2735.5300000000002,2750.3600000000001,489.709,2246.5599999999999,-815.29899999999998,452.52199999999999,465.18400000000003
172890.0,2586.5300000000002,2663.2600000000002,508.35000000000002,2048.21,-775.33900000000006,462.15899999999999,427.92000000000002
172891.0,2431.3899999999999,2586.3699999999999,484.536,1884.4300000000001,-724.18899999999996,443.91899999999998,322.51400000000001
172892.0,2174.3499999999999,2632.5999999999999,686.07100000000003,1729.0599999999999,-629.11800000000005,447.40699999999998,176.357
172893.0,90044.600000000006,-188373.0,-173811.0,-168006.0,-39751.199999999997,-20377.299999999999,-24437.299999999999
172894.0,87467.0,-155157.0,-139099.0,-150549.0,-27142.5,-19060.099999999999,-37172.400000000001
172895.0,78335.899999999994,-119386.0,-92669.800000000003,-122080.0,-21444.900000000001,-14485.4,-33338.599999999999
172896.0,68961.699999999997,-88382.699999999997,-61326.0,-93846.800000000003,-18535.400000000001,-12903.4,-27783.599999999999
172897.0,59501.599999999999,-64556.400000000001,-39041.5,-73876.699999999997,-14154.5,-10615.799999999999,-23278.200000000001
172898.0,48046.0,-44555.5,-21710.299999999999,-54007.5,-10587.799999999999,-8368.3199999999997,-17652.700000000001
172899.0,39563.800000000003,-29244.0,-10081.799999999999,-37241.800000000003,-6479.4099999999999,-7460.6000000000004,-15143.299999999999
172900.0,34680.699999999997,-15193.6,3686.2199999999998,-22804.599999999999,-2068.96,-5954.2200000000003,-13234.799999999999
172901.0,29686.5,-4736.8699999999999,15334.4,-10619.0,721.43799999999999,-3952.52,-9614.9899999999998
172902.0,24816.799999999999,426.48899999999998,20874.900000000001,-2012.6700000000001,1984.98,-2463.0700000000002,-6107.0299999999997
172903.0,21533.400000000001,2849.2399999999998,23172.700000000001,4290.71,2724.77,-1763.4300000000001,-3926.9000000000001
172904.0,20167.299999999999,4444.4099999999999,25130.200000000001,9644.9899999999998,3269.1799999999998,-1622.8699999999999,-2542.1599999999999
172905.0,19901.0,4668.04,26048.599999999999,13001.6,3288.3200000000002,-1914.26,-1185.6500000000001
172906.0,18874.200000000001,2994.3400000000001,23448.0,13088.0,2512.7199999999998,-2780.1599999999999,328.34399999999999
172907.0,15780.4,1139.76,16980.599999999999,10750.799999999999,1629.1500000000001,-3995.6799999999998,837.71900000000005
172908.0,11906.4,2940.79,12668.200000000001,10055.700000000001,1598.5999999999999,-4383.9799999999996,-366.92899999999997
172909.0,9815.3099999999995,6156.8900000000003,13052.4,10766.6,2241.0100000000002,-3433.8200000000002,-1721.4000000000001
172910.0,9019.2600000000002,8073.9399999999996,15887.200000000001,11913.0,2522.73,-1947.98,-1301.4100000000001
172911.0,8953.1800000000003,7758.5200000000004,17111.799999999999,12980.299999999999,2003.6500000000001,-829.32799999999997,217.91200000000001
172912.0,9516.75,5916.54,15779.4,13594.1,1239.5999999999999,-836.35799999999995,1058.6600000000001
172913.0,9803.3500000000004,6290.2299999999996,15713.799999999999,14862.700000000001,1120.0,-1763.4400000000001,708.36300000000006
172914.0,9236.25,6058.6999999999998,15248.0,13435.700000000001,963.85500000000002,-1802.3900000000001,753.14800000000002
172915.0,9516.1299999999992,2335.5599999999999,11812.299999999999,9585.7999999999993,-1042.73,-537.57799999999997,2062.54
172916.0,13200.299999999999,-3634.7800000000002,5265.7200000000003,5772.0100000000002,-4754.3500000000004,79.276600000000002,2734.6799999999998
172917.0,16200.4,-8098.4499999999998,-1884.8,2245.23,-7579.7600000000002,-1082.5899999999999,1322.72
172918.0,15486.6,-7055.4899999999998,-5197.4300000000003,914.01900000000001,-7387.4200000000001,-2723.8600000000001,-752.39700000000005
172919.0,11881.0,-2975.3600000000001,-4779.5299999999997,1428.54,-4759.8299999999999,-3163.4299999999998,-2047.1900000000001
172920.0,7394.5100000000002,1448.71,-1303.3399999999999,3337.6999999999998,-2165.6100000000001,-2155.98,-1855.0599999999999
172921.0,4419.7399999999998,3671.5999999999999,1160.54,5112.7399999999998,-1208.3399999999999,-928.54499999999996,-434.42899999999997
172922.0,4723.8400000000001,4106.3500000000004,1316.8299999999999,6123.6499999999996,-1147.1099999999999,-442.66699999999997,316.75700000000001
172923.0,4956.1000000000004,4030.6199999999999,1060.23,6209.1800000000003,-1114.4000000000001,-265.76600000000002,441.536
172924.0,5074.9899999999998,4294.8999999999996,1214.6800000000001,6477.29,-1117.5899999999999,-133.06100000000001,572.32399999999996
172925.0,5174.5699999999997,4226.1099999999997,1025.3099999999999,6362.2399999999998,-1134.95,-50.823399999999999,647.70600000000002
172926.0,5164.4200000000001,4312.4099999999999,1046.1400000000001,6322.5500000000002,-1142.9000000000001,19.4435,701.56399999999996
172927.0,5133.8699999999999,4268.6199999999999,949.26800000000003,6137.6700000000001,-1150.78,75.839100000000002,741.84199999999998
172928.0,5053.9799999999996,4265.7799999999997,924.09400000000005,5966.7700000000004,-1151.1900000000001,125.8,769.23900000000003
172929.0,4954.3299999999999,4178.8400000000001,831.34900000000005,5705.2299999999996,-1147.73,169.29900000000001,787.90200000000004
172930.0,4828.4399999999996,4142.3800000000001,809.57100000000003,5485.4799999999996,-1138.45,208.291,797.41700000000003
172931.0,4687.29,4017.6300000000001,715.09000000000003,5176.2299999999996,-1124.8800000000001,242.98400000000001,800.43499999999995
172932.0,4531.0699999999997,3893.77,636.55999999999995,4867.4899999999998,-1106.71,274.00599999999997,796.19899999999996
172933.0,4364.6300000000001,3854.9699999999998,655.68200000000002,4646.1599999999999,-1084.6900000000001,301.84199999999998,786.19799999999998
172934.0,4190.2700000000004,3739.2600000000002,608.53200000000004,4351.0900000000001,-1059.2,326.52100000000002,770.61000000000001
172935.0,4011.3899999999999,3652.29,598.697,4088.4299999999998,-1030.8599999999999,348.67200000000003,751.02099999999996
172936.0,3831.1799999999998,3523.4899999999998,552.93100000000004,3790.6399999999999,-1000.4,368.02699999999999,725.73400000000004
172937.0,3649.0700000000002,3482.71,602.89200000000005,3587.8899999999999,-968.47299999999996,385.06200000000001,695.173
172938.0,3464.8699999999999,3359.6599999999999,577.86699999999996,3310.3299999999999,-935.68600000000004,398.44900000000001,658.00800000000004
172939.0,3280.21,3306.54,630.15800000000002,3108.6199999999999,-901.26800000000003,408.72699999999998,618.94299999999998
172940.0,3093.0900000000001,3136.23,572.38199999999995,2793.5,-863.43899999999996,416.44999999999999,576.85799999999995
172941.0,2923.2199999999998,3051.9200000000001,597.35400000000004,2578.1700000000001,-826.14700000000005,422.12599999999998,540.56100000000004
172942.0,2746.5,2867.3699999999999,522.65300000000002,2261.52,-782.94600000000003,423.68099999999998,490.41300000000001
172943.0,2595.0100000000002,2749.8400000000001,514.84699999999998,2020.95,-742.077,429.55700000000002,458.64100000000002
172944.0,2448.5,2657.4099999999999,482.31,1843.76,-698.37099999999998,412.15100000000001,364.726
172945.0,2192.8899999999999,2670.1999999999998,657.97500000000002,1659.8299999999999,-615.05999999999995,406.97399999999999,216.18899999999999
172946.0,73587.399999999994,-131572.0,-92985.699999999997,-105758.0,-24810.799999999999,-20095.0,-19981.5
172947.0,71305.199999999997,-102664.0,-66575.5,-92208.399999999994,-14434.299999999999,-20016.5,-27221.5
172948.0,63989.699999999997,-70676.399999999994,-31237.099999999999,-68194.300000000003,-8334.3500000000004,-15797.6,-23621.099999999999
172949.0,56301.300000000003,-47575.699999999997,-8347.3700000000008,-47714.400000000001,-5520.7700000000004,-12986.4,-18512.5
172950.0,49298.0,-32123.5,5633.6099999999997,-33750.800000000003,-3647.3600000000001,-10524.799999999999,-13764.5
172951.0,41439.900000000001,-19603.299999999999,13881.4,-21001.599999999999,-2743.8099999999999,-8882.8199999999997,-9797.2700000000004
172952.0,34926.400000000001,-10491.9,17318.099999999999,-12334.200000000001,-1148.4100000000001,-7905.5299999999997,-8172.79
172953.0,29728.5,-2284.8899999999999,21290.0,-5113.1300000000001,989.57600000000002,-6375.3599999999997,-6543.7399999999998
172954.0,24687.700000000001,3288.0100000000002,23641.900000000001,1049.02,2586.5,-4643.6300000000001,-4466.6999999999998
172955.0,20841.5,6519.9399999999996,24742.599999999999,5835.3299999999999,3394.9899999999998,-3284.9299999999998,-2732.9899999999998
172956.0,17666.0,7342.21,23542.099999999999,8400.8700000000008,3743.0799999999999,-2646.1399999999999,-938.33399999999995
172957.0,14965.200000000001,6875.96,20223.400000000001,9842.2999999999993,4367.4899999999998,-2540.3099999999999,62.909199999999998
172958.0,13650.799999999999,6395.0600000000004,17715.099999999999,10549.9,4971.5799999999999,-2143.6700000000001,111.458
172959.0,12135.700000000001,6550.6199999999999,16719.900000000001,11474.1,4546.7299999999996,-1431.1199999999999,713.37599999999998
172960.0,10105.4,5926.71,14440.200000000001,12274.799999999999,3442.3400000000001,-1240.3099999999999,1036.04
172961.0,9122.6399999999994,4399.9899999999998,11467.299999999999,11672.799999999999,2763.3899999999999,-1716.6300000000001,-101.774
172962.0,8893.1000000000004,5145.1300000000001,11607.200000000001,11463.4,2735.98,-1956.3299999999999,-1197.05
172963.0,7733.6099999999997,7419.4099999999999,13264.5,12568.799999999999,2643.8499999999999,-1465.46,-777.55200000000002
172964.0,6398.0299999999997,8181.5500000000002,12891.9,13267.6,2169.3299999999999,-950.97199999999998,-41.460099999999997
172965.0,5167.7700000000004,8073.4300000000003,11593.6,12869.0,1480.6199999999999,-661.14999999999998,321.32900000000001
172966.0,4270.7799999999997,7034.5100000000002,9134.8400000000001,11322.0,794.56500000000005,-306.36099999999999,870.89999999999998
172967.0,4872.8800000000001,6254.6400000000003,7174.5699999999997,10997.9,595.87099999999998,22.445799999999998,1110.0999999999999
172968.0,5915.5699999999997,5515.21,6581.4700000000003,11507.0,874.39999999999998,44.177100000000003,825.59500000000003
172969.0,6611.1999999999998,5918.6700000000001,8151.5500000000002,12962.6,1174.73,-307.07299999999998,369.911
172970.0,6458.5600000000004,6439.5900000000001,10288.700000000001,13460.200000000001,1015.3,-549.89300000000003,459.03699999999998
172971.0,6447.3500000000004,4912.5200000000004,8857.6499999999996,11449.299999999999,-59.1845,-647.351,1611.95
172972.0,6881.2200000000003,3795.3800000000001,4996.4399999999996,9760.1700000000001,-1147.26,-1025.01,1861.3099999999999
172973.0,6306.6899999999996,2962.3899999999999,1549.4100000000001,7485.9200000000001,-1291.01,-1131.4200000000001,833.30499999999995
172974.0,5428.8100000000004,3593.77,1241.23,6801.9700000000003,-1143.1500000000001,-705.16399999999999,477.97199999999998
172975.0,5401.6099999999997,4114.29,1275.8099999999999,6913.9099999999999,-1145.1199999999999,-340.524,592.755
172976.0,5446.6700000000001,4190.8299999999999,1064.4400000000001,6776.9899999999998,-1140.99,-135.40899999999999,621.22199999999998
172977.0,5440.4700000000003,4344.3800000000001,1061.6900000000001,6736.6599999999999,-1139.29,5.3319799999999997,671.45000000000005
172978.0,5439.4399999999996,4391.21,988.74099999999999,6616.3900000000003,-1144.0799999999999,96.731399999999994,714.92700000000002
172979.0,5383.5200000000004,4410.46,939.65499999999997,6449.9399999999996,-1144.2,164.619,750.27599999999995
172980.0,5308.75,4413.0299999999997,897.84500000000003,6266.6099999999997,-1142.6400000000001,215.21700000000001,778.68499999999995
172981.0,5201.7700000000004,4375.54,844.86599999999999,6034.2700000000004,-1136.22,255.761,799.09500000000003
172982.0,5077.25,4374.4200000000001,847.59000000000003,5838.1099999999997,-1126.3699999999999,288.012,812.48199999999997
172983.0,4932.7200000000003,4283.2799999999997,780.40999999999997,5549.8800000000001,-1112.22,314.72699999999998,819.01999999999998
172984.0,4775.3699999999999,4273.0500000000002,809.13699999999994,5344.21,-1094.5799999999999,336.70800000000003,819.19299999999998
172985.0,4607.3199999999997,4206.79,795.44399999999996,5084.8900000000003,-1073.6400000000001,355.01400000000001,813.90899999999999
172986.0,4431.75,4075.46,727.61199999999997,4764.9300000000003,-1049.8,369.90699999999998,802.48400000000004
172987.0,4248.54,3954.8600000000001,681.79600000000005,4460.6099999999997,-1023.91,381.91500000000002,783.851
172988.0,4059.4499999999998,3851.2399999999998,665.47900000000004,4178.0600000000004,-996.73099999999999,391.67500000000001,761.89599999999996
172989.0,3871.23,3707.1700000000001,614.88199999999995,3865.0999999999999,-968.5,397.76100000000002,735.35799999999995
172990.0,3677.5599999999999,3556.73,566.21600000000001,3551.4499999999998,-937.327,400.39600000000002,702.46400000000006
172991.0,3479.2199999999998,3392.1599999999999,511.505,3227.2199999999998,-902.35500000000002,400.471,666.053
172992.0,3287.71,3274.9499999999998,507.28800000000001,2956.6799999999998,-864.91800000000001,400.11099999999999,633.55700000000002
172993.0,3100.7199999999998,3150.1799999999998,495.29199999999997,2684.3000000000002,-824.73199999999997,398.73399999999998,596.75
172994.0,2932.0300000000002,3056.1300000000001,509.99099999999999,2455.48,-786.08000000000004,397.755,563.95899999999995
172995.0,2761.0999999999999,2962.1300000000001,526.32500000000005,2230.52,-745.154,394.59399999999999,517.83799999999997
172996.0,2610.6399999999999,2848.6599999999999,526.46699999999998,1997.8399999999999,-707.63800000000003,394.53500000000003,484.93799999999999
172997.0,2461.0999999999999,2714.2800000000002,465.089,1785.1900000000001,-670.07600000000002,372.613,392.05799999999999
172998.0,2204.0300000000002,2722.3699999999999,648.476,1602.79,-596.23199999999997,355.90899999999999,244.018
172999.0,57138.800000000003,-84146.100000000006,-41967.699999999997,-63433.900000000001,-12792.799999999999,-16630.200000000001,-14256.9
173000.0,53981.199999999997,-60968.199999999997,-25007.099999999999,-51901.199999999997,-5908.1300000000001,-16562.299999999999,-17672.799999999999
173001.0,49347.900000000001,-39701.0,-4938.46,-37877.099999999999,-1124.5699999999999,-13515.0,-15653.5
173002.0,43338.0,-21949.599999999999,11133.6,-23046.700000000001,1218.0699999999999,-10702.200000000001,-11519.9
173003.0,37169.800000000003,-10841.9,19389.099999999999,-12544.799999999999,2574.5300000000002,-8386.7199999999993,-7797.5299999999997
173004.0,31654.299999999999,-3584.3899999999999,23145.900000000001,-4875.0600000000004,3170.0300000000002,-6743.5200000000004,-5314.8500000000004
173005.0,27125.5,1559.8800000000001,24595.799999999999,231.19999999999999,3580.48,-5553.9799999999996,-3731.3600000000001
173006.0,22687.700000000001,4986.0100000000002,24265.200000000001,3756.9400000000001,3865.8699999999999,-4399.7200000000003,-2230.9200000000001
173007.0,18631.799999999999,7134.4700000000003,22843.200000000001,6561.2200000000003,4065.71,-3444.8600000000001,-1396.8399999999999
173008.0,16113.5,8041.5500000000002,21496.299999999999,7717.1400000000003,4276.0799999999999,-2473.5999999999999,-557.69299999999998
173009.0,13106.4,6836.3999999999996,17609.200000000001,7329.7799999999997,3976.4000000000001,-1603.0599999999999,1372.3900000000001
173010.0,9261.0900000000001,5957.9700000000003,12187.200000000001,8112.8500000000004,3639.4099999999999,-1366.0699999999999,1862.8
173011.0,7492.3100000000004,4434.1499999999996,7708.3699999999999,7270.7200000000003,3749.77,-1108.0599999999999,513.14999999999998
173012.0,6705.9300000000003,3435.96,6207.2200000000003,6693.8599999999997,3401.3000000000002,-576.673,4.6541499999999996
173013.0,5842.1499999999996,2646.4899999999998,4718.1400000000003,6770.6700000000001,2611.9000000000001,-547.11500000000001,-57.640999999999998
173014.0,5752.3100000000004,4113.1999999999998,5007.4099999999999,8321.0100000000002,2269.7199999999998,-804.15499999999997,-563.20000000000005
173015.0,5685.9499999999998,5980.5900000000001,6338.1099999999997,9686.1399999999994,2341.4899999999998,-691.21900000000005,-798.90099999999995
173016.0,5298.3000000000002,6069.9099999999999,6364.71,9772.8700000000008,2192.0900000000001,-366.267,-426.84699999999998
173017.0,5154.75,6547.3900000000003,6696.3500000000004,10579.700000000001,1877.53,-182.38900000000001,-267.75200000000001
173018.0,4872.1599999999999,6755.8800000000001,7340.5699999999997,10927.200000000001,1667.99,89.293899999999994,-146.99100000000001
173019.0,4895.9700000000003,6435.2700000000004,7451.4300000000003,11114.5,1217.0799999999999,354.93099999999998,570.40999999999997
173020.0,5477.6599999999999,5416.5799999999999,5619.1400000000003,10663.6,525.25,213.77500000000001,918.52800000000002
173021.0,5749.3699999999999,4667.96,3346.1799999999998,9527.8099999999995,31.7986,-66.496499999999997,645.51400000000001
173022.0,5930.8599999999997,5049.1599999999999,2188.8499999999999,8952.2800000000007,-65.287999999999997,-160.93199999999999,410.20999999999998
173023.0,5877.7799999999997,5703.3400000000001,2011.9100000000001,8725.9400000000005,200.82900000000001,80.799599999999998,403.01100000000002
173024.0,5867.3100000000004,5807.1099999999997,2396.3699999999999,8801.3600000000006,212.12100000000001,593.54300000000001,898.54999999999995
173025.0,6473.6099999999997,4766.4899999999998,1767.1400000000001,8638.0300000000007,-348.05099999999999,692.71100000000001,1225.79
173026.0,6552.8699999999999,4238.96,1311.6400000000001,8401.0900000000001,-823.66899999999998,337.50799999999998,910.42499999999995
173027.0,6150.5799999999999,4201.5500000000002,1195.27,7861.1400000000003,-976.38999999999999,139.06800000000001,702.255
173028.0,5980.9200000000001,4460.6000000000004,1228.21,7644.4300000000003,-1052.9200000000001,141.941,709.12199999999996
173029.0,5887.4300000000003,4504.6300000000001,1070.49,7319.0500000000002,-1098.25,189.75299999999999,720.15999999999997
173030.0,5791.9499999999998,4615.6599999999999,1047.6099999999999,7121.3999999999996,-1118.0799999999999,246.25700000000001,744.78200000000004
173031.0,5707.2399999999998,4622.2399999999998,958.77099999999996,6870.3000000000002,-1127.7,294.44400000000002,771.76199999999994
173032.0,5600.3299999999999,4623.0900000000001,904.81600000000003,6630.3800000000001,-1127.79,332.70800000000003,795.28999999999996
173033.0,5482.1300000000001,4608.46,862.66700000000003,6390.6400000000003,-1122.95,361.93099999999998,815.45899999999995
173034.0,5343.6400000000003,4542.5200000000004,795.50999999999999,6104.7600000000002,-1112.6500000000001,383.858,829.47000000000003
173035.0,5192.79,4470.6000000000004,741.70299999999997,5819.6800000000003,-1098.6700000000001,399.83699999999999,838.44899999999996
173036.0,5028.8500000000004,4382.4700000000003,689.32899999999995,5522.9300000000003,-1081.0599999999999,411.13900000000001,841.49400000000003
173037.0,4854.8800000000001,4267.8100000000004,625.42100000000005,5205.9499999999998,-1060.9000000000001,418.41500000000002,837.43799999999999
173038.0,4670.1000000000004,4108.3299999999999,532.45000000000005,4848.8500000000004,-1039.1199999999999,422.39299999999997,827.03800000000001
173039.0,4478.9099999999999,4072.52,576.10699999999997,4621.9799999999996,-1016.03,422.79000000000002,812.31100000000004
173040.0,4280.6800000000003,3943.2800000000002,537.21299999999997,4308.4899999999998,-989.70000000000005,419.23700000000002,791.60000000000002
173041.0,4077.04,3859.9299999999998,555.53700000000003,4045.98,-959.62599999999998,414.113,769.57899999999995
173042.0,3876.02,3732.6999999999998,533.64999999999998,3749.46,-927.39499999999998,406.66899999999998,743.72299999999996
173043.0,3673.4099999999999,3691.4299999999998,602.97299999999996,3542.6900000000001,-892.02200000000005,397.786,714.33500000000004
173044.0,3474.4699999999998,3576.3400000000001,601.23199999999997,3266.3400000000001,-854.25300000000004,389.15300000000002,683.93399999999997
173045.0,3289.2199999999998,3503.5999999999999,640.60599999999999,3043.0,-817.15099999999995,381.733,655.34900000000005
173046.0,3107.21,3330.1100000000001,581.35699999999997,2727.0,-780.14400000000001,373.416,618.86099999999999
173047.0,2940.0900000000001,3202.8499999999999,567.37099999999998,2471.04,-745.40499999999997,365.17599999999999,584.39599999999996
173048.0,2769.0700000000002,3019.7399999999998,501.88999999999999,2163.96,-709.00900000000001,354.10899999999998,537.35400000000004
173049.0,2614.8699999999999,2849.6399999999999,452.21499999999997,1879.0799999999999,-673.83500000000004,345.10399999999998,501.76499999999999
173050.0,2461.8800000000001,2759.21,446.54700000000003,1713.6400000000001,-640.35699999999997,317.94499999999999,409.81200000000001
173051.0,2209.0900000000001,2717.8299999999999,590.82600000000002,1488.04,-575.16999999999996,291.459,265.83600000000001
173052.0,45419.199999999997,-51842.800000000003,-10994.0,-35620.900000000001,-4059.5900000000001,-12358.5,-9766.2000000000007
173053.0,42678.599999999999,-35884.599999999999,-1266.3099999999999,-27813.599999999999,-1066.6700000000001,-12405.0,-11139.0
173054.0,38888.400000000001,-20267.400000000001,10558.799999999999,-18189.099999999999,2124.46,-10469.700000000001,-9650.8500000000004
173055.0,33686.599999999999,-9739.5300000000007,17724.799999999999,-10058.4,3804.5700000000002,-8012.3400000000001,-6723.5699999999997
173056.0,28361.400000000001,-2425.5500000000002,21099.299999999999,-3295.5599999999999,4229.8400000000001,-6060.0600000000004,-4686.0799999999999
173057.0,24159.799999999999,2540.5500000000002,22687.900000000001,1122.5699999999999,4123.5699999999997,-4553.8400000000001,-3365.4200000000001
173058.0,20124.200000000001,5579.1300000000001,22629.5,4011.4200000000001,3757.52,-3400.6199999999999,-1636.1600000000001
173059.0,15782.1,6425.3400000000001,19925.299999999999,5817.4099999999999,3484.5799999999999,-2642.0999999999999,-541.52499999999998
173060.0,12838.5,6866.8000000000002,17676.799999999999,6714.1899999999996,3378.5100000000002,-1933.71,-528.46799999999996
173061.0,10717.200000000001,6732.4499999999998,15781.299999999999,6426.5100000000002,2953.8000000000002,-1004.3,551.84299999999996
173062.0,7635.3900000000003,4379.2399999999998,10752.700000000001,5678.8900000000003,1974.5799999999999,-315.15499999999997,2022.98
173063.0,4544.8199999999997,894.601,4411.8199999999997,4376.04,992.678,-274.20400000000001,1320.02
173064.0,3660.1500000000001,-293.89400000000001,1823.21,3704.6599999999999,520.63900000000001,-397.44799999999998,-186.58000000000001
173065.0,3718.1199999999999,794.51800000000003,2286.6700000000001,4682.2399999999998,398.173,-320.68299999999999,-707.22000000000003
173066.0,3920.0700000000002,1923.5699999999999,2841.9699999999998,5941.7200000000003,325.92599999999999,-197.911,-737.57299999999998
173067.0,4171.9300000000003,1744.9200000000001,2073.0700000000002,5843.0600000000004,245.32300000000001,-147.571,-730.64300000000003
173068.0,4325.3900000000003,2037.23,1662.9300000000001,5974.4399999999996,220.965,-97.091800000000006,-687.70399999999995
173069.0,4515.8299999999999,3353.6700000000001,2246.6300000000001,7092.8500000000004,223.39400000000001,39.607100000000003,-545.24199999999996
173070.0,4848.3800000000001,4220.3599999999997,2431.7800000000002,7837.21,254.15000000000001,157.57900000000001,-403.68099999999998
173071.0,5076.0100000000002,4756.3900000000003,2385.71,8141.5299999999997,284.74400000000003,325.69999999999999,-182.648
173072.0,5489.6999999999998,4991.8100000000004,2150.4200000000001,8361.1200000000008,107.223,585.17200000000003,158.94
173073.0,5980.4799999999996,5019.2799999999997,2015.73,8722.4400000000005,-194.143,716.87099999999998,290.95299999999997
173074.0,6074.0500000000002,4875.54,2103.4299999999998,8860.2700000000004,-418.68299999999999,703.54999999999995,302.46100000000001
173075.0,6068.6400000000003,4608.9399999999996,2034.78,8685.3899999999994,-648.65899999999999,666.99900000000002,405.86900000000003
173076.0,6278.6300000000001,4383.3999999999996,1629.24,8414.2299999999996,-936.36199999999997,613.86500000000001,491.85300000000001
173077.0,6470.8699999999999,4174.8199999999997,1011.98,7994.96,-1109.6800000000001,544.87699999999995,450.08499999999998
173078.0,6431.8299999999999,4629.3599999999997,1172.9400000000001,8137.6599999999999,-1092.8099999999999,533.53300000000002,428.38799999999998
173079.0,6373.6400000000003,4722.96,1128.3599999999999,8005.9300000000003,-1048.1900000000001,565.09500000000003,538.26999999999998
173080.0,6365.0200000000004,4865.4799999999996,1162.6199999999999,7986.5200000000004,-1058.73,556.26199999999994,636.01900000000001
173081.0,6276.9200000000001,4734.6300000000001,947.04200000000003,7627.4099999999999,-1077.97,524.78700000000003,687.21400000000006
173082.0,6163.25,4862.1700000000001,996.30200000000002,7490.2200000000003,-1093.0999999999999,506.81599999999997,734.64700000000005
173083.0,6046.79,4803.3199999999997,866.72400000000005,7165.6700000000001,-1103.29,500.31200000000001,771.11000000000001
173084.0,5917.8000000000002,4870.4899999999998,887.26099999999997,6974.25,-1106.0699999999999,500.45699999999999,801.47900000000004
173085.0,5778.8199999999997,4801.6300000000001,794.86000000000001,6659.6700000000001,-1102.5799999999999,501.714,824.88099999999997
173086.0,5626.8000000000002,4796.2799999999997,789.30499999999995,6418.6700000000001,-1093.4200000000001,501.93000000000001,842.51199999999994
173087.0,5463.7799999999997,4709.3100000000004,722.52300000000002,6106.2799999999997,-1080.05,500.07299999999998,853.95299999999997
173088.0,5289.75,4687.46,739.30999999999995,5867.6000000000004,-1063.3299999999999,496.03399999999999,858.55600000000004
173089.0,5106.04,4568.8800000000001,675.92499999999995,5540.8199999999997,-1045.0699999999999,489.28500000000003,855.07000000000005
173090.0,4908.4899999999998,4538.9700000000003,719.22699999999998,5307.1999999999998,-1024.6300000000001,479.07299999999998,844.601
173091.0,4700.8599999999997,4464.3100000000004,733.596,5033.8999999999996,-1000.5,465.66199999999998,832.05600000000004
173092.0,4490.6800000000003,4327.0600000000004,695.39800000000002,4705.7700000000004,-972.19200000000001,450.476,819.39599999999996
173093.0,4281.0699999999997,4199.7700000000004,671.90300000000002,4395.2700000000004,-940.70299999999997,434.0,802.89599999999996
173094.0,4073.9099999999999,4083.3000000000002,663.07799999999997,4101.8199999999997,-907.17999999999995,417.42000000000002,783.89200000000005
173095.0,3870.8800000000001,3933.4499999999998,623.08799999999997,3783.0700000000002,-872.59000000000003,400.35500000000002,760.55100000000004
173096.0,3671.7600000000002,3762.2399999999998,565.404,3450.2600000000002,-837.48400000000004,383.66199999999998,734.01400000000001
173097.0,3477.4099999999999,3581.8499999999999,502.82999999999998,3116.9299999999998,-802.971,367.63,704.18299999999999
173098.0,3292.0500000000002,3421.9499999999998,462.57100000000003,2816.46,-770.029,351.38,672.23400000000004
173099.0,3107.79,3285.8299999999999,450.45400000000001,2546.5100000000002,-736.42100000000005,333.97199999999998,634.327
173100.0,2936.8299999999999,3154.0900000000001,440.67399999999998,2294.1399999999999,-703.84000000000003,316.56700000000001,597.05200000000002
173101.0,2763.9299999999998,3061.3600000000001,474.483,2083.2800000000002,-669.58000000000004,297.60399999999998,550.80999999999995
173102.0,2608.21,2919.4000000000001,459.44200000000001,1832.6600000000001,-636.26700000000005,281.15199999999999,513.82000000000005
173103.0,2453.8800000000001,2787.7199999999998,424.79500000000002,1631.8599999999999,-607.13400000000001,250.16800000000001,424.14299999999997
173104.0,2207.77,2749.5599999999999,582.86699999999996,1418.6700000000001,-550.30600000000004,214.90000000000001,285.774
173105.0,35404.0,-30056.900000000001,3034.6300000000001,-19665.0,1892.3199999999999,-8542.1800000000003,-7408.0200000000004
173106.0,33283.599999999999,-19048.200000000001,10272.5,-13661.200000000001,2878.1100000000001,-8285.5200000000004,-6981.5200000000004
173107.0,29225.900000000001,-9528.1000000000004,15198.0,-7820.6700000000001,3832.6399999999999,-6975.7700000000004,-5538.5900000000001
173108.0,24837.5,-2964.0799999999999,17705.5,-2810.73,4160.5600000000004,-5342.04,-4292.2799999999997
173109.0,21542.200000000001,1846.47,19816.099999999999,1580.51,3927.46,-4020.0999999999999,-3721.6599999999999
173110.0,19287.200000000001,5294.3299999999999,22042.900000000001,4575.79,3414.0799999999999,-2765.6599999999999,-2646.9400000000001
173111.0,15596.700000000001,6003.4899999999998,20557.700000000001,5826.7200000000003,2519.3299999999999,-1709.6700000000001,-582.93799999999999
173112.0,11029.9,6202.96,17008.0,7202.2399999999998,1816.71,-1251.1300000000001,-192.84200000000001
173113.0,9306.4099999999999,6036.25,15126.1,6695.1300000000001,1533.6400000000001,-724.279,-550.303
173114.0,8090.9799999999996,4573.9099999999999,12739.6,5682.6700000000001,881.41300000000001,0.54357999999999995,1194.3399999999999
173115.0,5800.6300000000001,2158.6100000000001,7556.8900000000003,5858.04,201.68600000000001,139.26599999999999,1880.6400000000001
173116.0,4561.0200000000004,253.518,3718.4400000000001,5384.0299999999997,109.30500000000001,-22.140899999999998,267.452
173117.0,4502.0799999999999,257.29700000000003,3219.0100000000002,5264.4700000000003,94.877300000000005,14.2341,-639.63099999999997
173118.0,4391.6599999999999,743.16899999999998,2887.9200000000001,5600.1700000000001,-69.028000000000006,83.733699999999999,-701.90300000000002
173119.0,4393.8999999999996,770.60599999999999,1956.26,5430.1099999999997,-197.07300000000001,165.94900000000001,-710.64400000000001
173120.0,4478.4099999999999,2203.8499999999999,2525.7199999999998,6640.4300000000003,-292.024,281.58100000000002,-633.423
173121.0,4739.3199999999997,3136.29,2701.73,7449.0200000000004,-400.19200000000001,402.13099999999997,-526.93899999999996
173122.0,5026.3000000000002,3122.4200000000001,2064.8299999999999,7320.7299999999996,-523.12,501.94,-409.28699999999998
173123.0,5338.4700000000003,3398.54,1761.51,7462.4499999999998,-664.66899999999998,613.52499999999998,-256.041
173124.0,5732.9099999999999,3654.79,1561.9300000000001,7700.1800000000003,-818.09699999999998,728.51199999999994,-134.911
173125.0,6033.0699999999997,3778.29,1404.97,7870.9899999999998,-918.125,765.23199999999997,-73.566999999999993
173126.0,6191.5500000000002,3876.6100000000001,1177.4200000000001,7863.5200000000004,-951.27999999999997,747.71900000000005,16.187200000000001
173127.0,6386.8500000000004,4364.1199999999999,1186.22,8123.8999999999996,-969.28700000000003,759.33699999999999,141.87299999999999
173128.0,6565.71,4735.3299999999999,1177.97,8308.1800000000003,-976.08699999999999,803.69799999999998,246.702
173129.0,6626.4499999999998,4975.1000000000004,1279.3599999999999,8457.6000000000004,-971.36699999999996,829.33799999999997,345.988
173130.0,6612.4399999999996,5151.8900000000003,1409.5599999999999,8544.3400000000001,-988.245,809.78499999999997,453.81700000000001
173131.0,6602.4200000000001,5012.5500000000002,1149.25,8231.5300000000007,-1035.26,768.63,542.08100000000002
173132.0,6576.2200000000003,5098.3000000000002,1077.8900000000001,8080.6000000000004,-1075.79,741.79999999999995,598.88999999999999
173133.0,6517.2200000000003,5094.96,955.81799999999998,7839.1300000000001,-1093.48,728.68299999999999,651.29300000000001
173134.0,6440.1700000000001,5241.9300000000003,1017.65,7760.1999999999998,-1099.5599999999999,714.75999999999999,705.19899999999996
173135.0,6336.4700000000003,5172.3699999999999,892.154,7463.9300000000003,-1099.5599999999999,696.29100000000005,750.42600000000004
173136.0,6208.9899999999998,5205.29,896.21799999999996,7268.0900000000001,-1095.27,675.46299999999997,789.94200000000001
173137.0,6062.5600000000004,5102.8199999999997,785.84199999999998,6935.9300000000003,-1086.8800000000001,653.40200000000004,820.54999999999995
173138.0,5902.2200000000003,5087.1999999999998,782.01900000000001,6693.5200000000004,-1074.9300000000001,631.57299999999998,845.149
173139.0,5728.1700000000001,4972.0200000000004,697.34799999999996,6356.2700000000004,-1059.3,609.17499999999995,861.41800000000001
173140.0,5545.1599999999999,4918.1000000000004,690.33100000000002,6087.7200000000003,-1040.6800000000001,586.36500000000001,872.03999999999996
173141.0,5353.0100000000002,4755.8400000000001,589.95100000000002,5719.8299999999999,-1019.4400000000001,562.26599999999996,873.45000000000005
173142.0,5148.0600000000004,4696.29,608.173,5461.8199999999997,-995.64800000000002,536.35199999999998,863.57899999999995
173143.0,4924.4399999999996,4527.5799999999999,537.79600000000005,5093.0699999999997,-968.56299999999999,509.61500000000001,848.97799999999995
173144.0,4699.5,4409.2799999999997,528.72000000000003,4776.4099999999999,-939.25,483.58300000000003,840.43299999999999
173145.0,4486.1999999999998,4315.6700000000001,543.73400000000004,4495.2600000000002,-909.00999999999999,457.58699999999999,833.02499999999998
173146.0,4277.75,4204.8800000000001,543.54600000000005,4207.9399999999996,-877.851,431.27699999999999,819.08600000000001
173147.0,4070.52,4055.9400000000001,511.02600000000001,3892.04,-846.72199999999998,405.04700000000003,798.72500000000002
173148.0,3865.5799999999999,3937.7399999999998,515.202,3615.5300000000002,-815.94299999999998,379.178,774.43700000000001
173149.0,3665.2399999999998,3819.3200000000002,522.50199999999995,3349.1300000000001,-785.44500000000005,353.23099999999999,745.85699999999997
173150.0,3467.5,3719.3400000000001,552.69600000000003,3108.5500000000002,-754.05799999999999,327.33699999999999,714.08100000000002
173151.0,3277.3899999999999,3573.3600000000001,537.31399999999996,2832.0100000000002,-722.60000000000002,301.62099999999998,679.57899999999995
173152.0,3091.6399999999999,3439.6700000000001,537.52499999999998,2572.5700000000002,-690.36300000000006,276.43900000000002,643.245
173153.0,2919.8000000000002,3237.5500000000002,464.56299999999999,2258.27,-659.53099999999995,251.59899999999999,604.83799999999997
173154.0,2748.4099999999999,3112.8099999999999,474.54700000000003,2022.8599999999999,-627.37599999999998,226.68600000000001,561.524
173155.0,2592.3600000000001,2855.5,350.36200000000002,1665.9100000000001,-596.11599999999999,203.51900000000001,522.57000000000005
173156.0,2438.4899999999998,2832.27,435.27300000000002,1580.55,-570.93299999999999,169.56999999999999,435.91699999999997
173157.0,2200.46,2687.1199999999999,497.48399999999998,1271.05,-521.87400000000002,126.854,304.18299999999999
173158.0,27132.400000000001,-17490.599999999999,6900.6300000000001,-12413.4,3295.1100000000001,-5673.5799999999999,-6059.5200000000004
173159.0,24791.299999999999,-9861.9799999999996,11854.799999999999,-7501.6800000000003,3521.77,-5074.0500000000002,-4974.21
173160.0,21694.099999999999,-4179.8400000000001,14618.6,-3136.7600000000002,3283.77,-4261.5600000000004,-4039.0
173161.0,19085.400000000001,-283.22699999999998,16194.4,278.64600000000002,2949.6100000000001,-3585.4299999999998,-3512.5599999999999
173162.0,17268.799999999999,4117.8999999999996,19018.200000000001,4497.4899999999998,3046.9699999999998,-2927.04,-3063.1700000000001
173163.0,15506.799999999999,6000.3800000000001,19990.099999999999,6472.0500000000002,3190.9299999999998,-1711.8599999999999,-1982.1199999999999
173164.0,12366.299999999999,6204.3400000000001,18574.0,7967.3500000000004,2279.8400000000001,-498.36900000000003,-871.375
173165.0,10228.700000000001,7019.9799999999996,17869.5,9415.1599999999999,1053.2,-118.877,-1124.5
173166.0,9696.0200000000004,6772.6099999999997,17130.400000000001,8401.6700000000001,537.73599999999999,163.40899999999999,25.2744
173167.0,7988.6499999999996,4780.8100000000004,12602.5,7823.4499999999998,267.38600000000002,576.59699999999998,2307.1199999999999
173168.0,5666.96,1787.6600000000001,5891.6800000000003,7101.2200000000003,27.009699999999999,548.86599999999999,1626.71
173169.0,4710.7399999999998,288.25700000000001,2624.2800000000002,5637.0500000000002,-56.362099999999998,412.68299999999999,-181.53399999999999
173170.0,4446.6000000000004,1092.6900000000001,2640.71,5849.8800000000001,-136.857,487.44499999999999,-668.38499999999999
173171.0,4580.8599999999997,1832.21,2588.5900000000001,6442.0200000000004,-264.33600000000001,600.47900000000004,-672.61300000000006
173172.0,4772.5200000000004,2626.29,2721.75,7106.4300000000003,-393.09500000000003,693.13300000000004,-637.42899999999997
173173.0,5035.7799999999997,2576.9400000000001,2040.1500000000001,6957.0299999999997,-532.68799999999999,768.40300000000002,-551.37699999999995
173174.0,5331.3500000000004,2701.1700000000001,1556.8,6978.0,-649.06799999999998,825.96600000000001,-453.755
173175.0,5622.3599999999997,3565.4499999999998,1867.02,7727.7600000000002,-731.39099999999996,889.553,-343.19600000000003
173176.0,5918.8900000000003,4020.5900000000001,1869.6700000000001,8121.75,-802.28399999999999,943.90700000000004,-232.49799999999999
173177.0,6157.9300000000003,4292.0200000000004,1722.23,8299.1000000000004,-854.33000000000004,953.43399999999997,-123.199
173178.0,6362.6000000000004,4788.3800000000001,1766.5,8609.9300000000003,-895.15999999999997,965.14700000000005,1.7744800000000001
173179.0,6556.2200000000003,5143.79,1760.3399999999999,8802.7700000000004,-946.17399999999998,1006.33,121.56999999999999
173180.0,6692.2399999999998,5147.8900000000003,1556.21,8717.7999999999993,-1003.52,1024.5899999999999,222.958
173181.0,6764.54,5059.8999999999996,1279.6600000000001,8504.1499999999996,-1050.29,996.90700000000004,313.57999999999998
173182.0,6819.8299999999999,5223.7399999999998,1185.25,8449.8799999999992,-1081.29,962.322,399.27199999999999
173183.0,6857.9700000000003,5246.9200000000001,963.13499999999999,8230.0200000000004,-1096.1700000000001,950.14400000000001,479.55599999999998
173184.0,6848.6300000000001,5536.1199999999999,1103.3199999999999,8315.6599999999999,-1098.4400000000001,942.73500000000001,554.07600000000002
173185.0,6791.5299999999997,5490.7399999999998,973.47299999999996,8081.4300000000003,-1097.02,917.83799999999997,623.67600000000004
173186.0,6704.7200000000003,5577.0799999999999,993.73900000000003,7959.5100000000002,-1094.8599999999999,885.10900000000004,684.23099999999999
173187.0,6596.3299999999999,5429.7299999999996,801.81399999999996,7596.4300000000003,-1090.9400000000001,852.64400000000001,734.99400000000003
173188.0,6466.6400000000003,5473.5,825.69399999999996,7424.1899999999996,-1082.97,818.697,777.71000000000004
173189.0,6318.6400000000003,5363.1000000000004,716.69600000000003,7098.1599999999999,-1070.8800000000001,783.55999999999995,812.755
173190.0,6154.1400000000003,5361.5100000000002,737.673,6883.46,-1055.4200000000001,747.423,841.08000000000004
173191.0,5975.4899999999998,5235.96,653.24599999999998,6548.1300000000001,-1037.04,710.07000000000005,862.39300000000003
173192.0,5785.3299999999999,5181.3500000000004,656.40899999999999,6288.1000000000004,-1016.16,672.08600000000001,877.33600000000001
173193.0,5585.5799999999999,5042.3100000000004,589.80499999999995,5949.1199999999999,-993.07600000000002,633.32399999999996,885.47199999999998
173194.0,5379.8800000000001,4984.8299999999999,615.93899999999996,5699.04,-967.88900000000001,593.45899999999995,886.65099999999995
173195.0,5164.25,4832.9200000000001,558.54999999999995,5359.5200000000004,-939.28099999999995,552.11900000000003,877.44799999999998
173196.0,4935.9099999999999,4781.1300000000001,615.70899999999995,5120.5100000000002,-907.08600000000001,512.19799999999998,861.81100000000004
173197.0,4704.0699999999997,4683.8500000000004,641.38800000000003,4839.1800000000003,-875.00300000000004,476.63400000000001,847.80700000000002
173198.0,4478.54,4524.3699999999999,612.67700000000002,4505.3900000000003,-846.48599999999999,442.904,835.00599999999997
173199.0,4260.4200000000001,4366.4300000000003,588.52099999999996,4183.2399999999998,-819.41499999999996,408.08699999999999,821.21100000000001
173200.0,4049.27,4212.9499999999998,568.28599999999994,3877.02,-791.00099999999998,372.20699999999999,802.47299999999996
173201.0,3840.8499999999999,4045.2199999999998,536.18700000000001,3565.1700000000001,-760.81799999999998,336.63799999999998,778.11099999999999
173202.0,3636.3400000000001,3842.29,471.25400000000002,3226.1900000000001,-730.24900000000002,301.64499999999998,749.14200000000005
173203.0,3437.5700000000002,3660.5100000000002,429.75799999999998,2914.6700000000001,-699.54899999999998,267.77800000000002,718.62800000000004
173204.0,3247.6399999999999,3465.8499999999999,374.23200000000003,2600.3000000000002,-669.64200000000005,234.78700000000001,684.399
173205.0,3062.9200000000001,3341.7399999999998,392.45600000000002,2361.29,-639.41800000000001,203.108,648.90099999999995
173206.0,2891.21,3169.1799999999998,357.54500000000002,2087.27,-610.80499999999995,172.46000000000001,610.12699999999995
173207.0,2721.8200000000002,3097.0900000000001,428.11900000000003,1914.8800000000001,-581.37199999999996,142.14699999999999,568.024
173208.0,2567.3600000000001,2909.2399999999998,380.02199999999999,1636.9200000000001,-552.58299999999997,113.928,528.70799999999997
173209.0,2415.0999999999999,2808.3600000000001,397.495,1482.3900000000001,-531.73199999999997,77.754300000000001,444.459
173210.0,2186.7600000000002,2699.1399999999999,505.04000000000002,1222.6400000000001,-490.60399999999998,28.334099999999999,317.74000000000001
173211.0,22067.799999999999,-10524.6,9425.1800000000003,-7757.2399999999998,2108.8800000000001,-3610.7600000000002,-5294.3199999999997
173212.0,19915.5,-4830.3900000000003,13160.5,-3397.3499999999999,1853.9300000000001,-3258.4699999999998,-4262.9700000000003
173213.0,17942.599999999999,-445.99099999999999,15784.4,403.13799999999998,1789.55,-2989.25,-3423.3899999999999
173214.0,15893.799999999999,2679.6500000000001,17162.200000000001,3374.0500000000002,2175.77,-2703.3000000000002,-2332.1700000000001
173215.0,13261.799999999999,4825.0299999999997,16801.200000000001,5972.4700000000003,2901.8600000000001,-2089.04,-1474.0799999999999
173216.0,11016.700000000001,5559.79,15362.5,7582.9700000000003,3171.6399999999999,-956.79999999999995,-1642.04
173217.0,10272.200000000001,6950.3800000000001,16204.5,9599.2900000000009,2555.1599999999999,-75.859099999999998,-2433.8800000000001
173218.0,10639.5,8726.1599999999999,18924.599999999999,10535.1,2043.1099999999999,403.19799999999998,-1945.5999999999999
173219.0,9618.0,7531.54,17001.799999999999,9206.9099999999999,1539.5599999999999,1169.1500000000001,1247.3299999999999
173220.0,7409.1199999999999,4999.4300000000003,10217.6,9145.0699999999997,583.83500000000004,1517.96,2838.8099999999999
173221.0,5478.3100000000004,1542.76,3506.3000000000002,7072.54,-21.0441,1201.47,837.44399999999996
173222.0,4918.1599999999999,1322.8699999999999,2604.8600000000001,6293.2700000000004,-230.06100000000001,1030.3599999999999,-537.971
173223.0,4892.1700000000001,2180.6599999999999,2808.9499999999998,6827.5799999999999,-416.15499999999997,1018.29,-641.34500000000003
173224.0,5108.8800000000001,2282.3299999999999,2121.27,6745.1000000000004,-548.51099999999997,1038.1199999999999,-659.29399999999998
173225.0,5311.04,2676.8400000000001,1854.0699999999999,6942.9200000000001,-645.58399999999995,1084.6400000000001,-589.10000000000002
173226.0,5599.3100000000004,3554.0,2100.1700000000001,7694.04,-720.16700000000003,1122.8099999999999,-497.25
173227.0,5879.2299999999996,4274.6199999999999,2267.1999999999998,8286.5200000000004,-789.56500000000005,1166.26,-381.221
173228.0,6173.4700000000003,4298.0,1780.6199999999999,8201.7999999999993,-864.47500000000002,1190.74,-265.827
173229.0,6422.9399999999996,4562.6599999999999,1567.8599999999999,8317.4099999999999,-924.05200000000002,1199.2,-148.977
173230.0,6645.7799999999997,4960.7399999999998,1547.22,8556.9699999999993,-975.62699999999995,1217.55,-30.450399999999998
173231.0,6829.4799999999996,5000.7700000000004,1270.4000000000001,8475.6800000000003,-1025.3399999999999,1226.99,77.313100000000006
173232.0,6957.3400000000001,5116.0699999999997,1106.22,8454.2900000000009,-1057.29,1204.0,176.73500000000001
173233.0,7044.21,5410.8299999999999,1113.1700000000001,8551.1900000000005,-1068.24,1175.53,273.25299999999999
173234.0,7104.3100000000004,5789.8199999999997,1254.6300000000001,8728.6000000000004,-1074.72,1163.78,369.95800000000003
173235.0,7114.9300000000003,5784.0500000000002,1108.3499999999999,8556.3199999999997,-1083.3199999999999,1149.7,456.779
173236.0,7082.04,5929.1499999999996,1161.3199999999999,8540.25,-1091.21,1114.99,533.61900000000003
173237.0,7022.1099999999997,5740.0500000000002,880.43700000000001,8156.8199999999997,-1094.04,1069.5799999999999,601.67100000000005
173238.0,6943.46,5857.8299999999999,920.33000000000004,8065.5,-1090.71,1028.6199999999999,662.18399999999997
173239.0,6838.6700000000001,5746.5100000000002,768.24699999999996,7752.6300000000001,-1082.3399999999999,987.03899999999999,715.48400000000004
173240.0,6707.1000000000004,5846.4399999999996,856.87699999999995,7651.3900000000003,-1068.99,941.24099999999999,761.49699999999996
173241.0,6555.71,5704.25,726.38199999999995,7307.6499999999996,-1052.54,894.16099999999994,800.77800000000002
173242.0,6386.5699999999997,5686.6599999999999,742.47299999999996,7090.6700000000001,-1033.6300000000001,845.58900000000006,832.69299999999998
173243.0,6203.0200000000004,5523.2399999999998,631.202,6730.2799999999997,-1012.3200000000001,796.029,857.94500000000005
173244.0,6007.0100000000002,5456.5,633.53800000000001,6470.0900000000001,-989.0,745.86800000000005,876.35699999999997
173245.0,5801.79,5296.5,556.93200000000002,6121.2600000000002,-963.995,695.32399999999996,888.78399999999999
173246.0,5588.5299999999997,5195.0600000000004,551.74099999999999,5835.5900000000001,-937.447,644.62800000000004,895.11300000000006
173247.0,5370.7299999999996,5002.3000000000002,465.27499999999998,5464.4200000000001,-909.82799999999997,594.04600000000005,895.90099999999995
173248.0,5149.1300000000001,4886.5100000000002,464.07999999999998,5175.5900000000001,-881.01800000000003,543.505,890.47199999999998
173249.0,4925.3199999999997,4681.2399999999998,379.76100000000002,4803.6899999999996,-850.36599999999999,493.702,878.21799999999996
173250.0,4695.6899999999996,4515.1199999999999,344.11900000000003,4476.6599999999999,-818.10799999999995,445.48500000000001,857.88
173251.0,4459.2799999999997,4404.8900000000003,377.53899999999999,4209.5799999999999,-785.702,399.947,833.101
173252.0,4223.8500000000004,4284.4200000000001,411.76299999999998,3935.8800000000001,-754.90700000000004,357.22699999999998,812.245
173253.0,4002.2600000000002,4130.3999999999996,412.25299999999999,3639.1199999999999,-726.89099999999996,315.31299999999999,794.85299999999995
173254.0,3793.0500000000002,3991.8499999999999,424.30000000000001,3369.0100000000002,-699.35299999999995,273.16399999999999,775.19100000000003
173255.0,3590.6900000000001,3855.1900000000001,435.96899999999999,3111.0300000000002,-671.44299999999998,231.61600000000001,748.15700000000004
173256.0,3392.7600000000002,3738.9000000000001,470.077,2879.2600000000002,-642.91700000000003,191.84,717.91800000000001
173257.0,3203.4099999999999,3579.2199999999998,459.38600000000002,2613.04,-615.14099999999996,153.506,683.96400000000006
173258.0,3020.9499999999998,3433.2199999999998,463.75099999999998,2364.4899999999998,-586.90999999999997,116.72,649.48400000000004
173259.0,2851.5300000000002,3220.4499999999998,395.80000000000001,2061.2399999999998,-560.35799999999995,81.487700000000004,611.34299999999996
173260.0,2685.5599999999999,3086.29,410.90499999999997,1837.4200000000001,-532.98599999999999,46.9955,570.74400000000003
173261.0,2533.8699999999999,2820.6199999999999,291.428,1492.3299999999999,-506.55799999999999,14.883800000000001,531.76900000000001
173262.0,2384.1700000000001,2781.8600000000001,380.137,1408.8399999999999,-489.79700000000003,-22.700199999999999,449.88299999999998
173263.0,2166.5500000000002,2623.7600000000002,447.245,1115.3399999999999,-455.77699999999999,-77.708100000000002,328.20100000000002
173264.0,19776.700000000001,-4839.21,13271.5,-2878.8200000000002,1246.8499999999999,-2411.9499999999998,-4921.54
173265.0,18092.099999999999,-275.34899999999999,16658.299999999999,894.23000000000002,1089.74,-2268.2800000000002,-3652.2199999999998
173266.0,15770.0,3168.9400000000001,18168.900000000001,3636.96,1357.8900000000001,-2087.8000000000002,-1990.46
173267.0,12186.6,4275.3900000000003,15885.299999999999,4776.7799999999997,1910.1099999999999,-1660.6700000000001,-156.69800000000001
173268.0,7941.1800000000003,3916.3000000000002,11157.9,5685.5500000000002,2341.5599999999999,-1130.55,81.494299999999996
173269.0,7212.9399999999996,3929.98,8697.0599999999995,6776.3599999999997,2642.4400000000001,-722.30799999999999,-2021.21
173270.0,9382.2600000000002,6486.9700000000003,12076.5,8352.6299999999992,2918.3499999999999,-193.89099999999999,-3562.23
173271.0,8790.4400000000005,9372.5599999999995,16014.700000000001,9601.4200000000001,2864.1100000000001,866.94299999999998,-1608.0699999999999
173272.0,7018.9099999999999,7766.6800000000003,12666.5,9095.3999999999996,1896.6099999999999,2024.6400000000001,1518.04
173273.0,5958.1199999999999,3961.79,5891.5600000000004,7989.4499999999998,458.875,2185.3899999999999,1669.9300000000001
173274.0,5426.9799999999996,2166.6100000000001,2660.0100000000002,6959.3100000000004,-296.33699999999999,1666.7,-46.0627
173275.0,5164.8299999999999,2419.73,2435.3299999999999,6720.9399999999996,-471.22800000000001,1433.05,-686.74300000000005
173276.0,5342.71,3086.4699999999998,2420.4899999999998,7210.3400000000001,-605.93899999999996,1413.6199999999999,-645.96100000000001
173277.0,5611.2399999999998,3525.0999999999999,2220.23,7522.5100000000002,-711.11300000000006,1407.4300000000001,-613.26999999999998
173278.0,5858.2299999999996,4227.46,2345.8699999999999,8076.6300000000001,-793.85199999999998,1418.26,-514.71799999999996
173279.0,6164.4799999999996,4273.5699999999997,1825.02,8003.6599999999999,-877.59400000000005,1431.6700000000001,-407.84300000000002
173280.0,6438.6599999999999,4432.4499999999998,1481.8199999999999,8037.0299999999997,-941.28700000000003,1437.75,-295.46699999999998
173281.0,6681.1700000000001,5051.4200000000001,1655.76,8526.7700000000004,-984.86000000000001,1439.6500000000001,-183.28700000000001
173282.0,6887.9200000000001,5373.71,1602.3399999999999,8722.8500000000004,-1022.45,1440.1500000000001,-69.173699999999997
173283.0,7056.25,5517.79,1419.76,8740.8700000000008,-1052.0,1423.1199999999999,37.919199999999996
173284.0,7177.9399999999996,5846.1199999999999,1445.78,8907.4699999999993,-1066.27,1395.8399999999999,142.65700000000001
173285.0,7268.6700000000001,6109.2200000000003,1451.55,8997.5599999999995,-1079.1099999999999,1374.76,245.553
173286.0,7320.9899999999998,6090.3000000000002,1245.0899999999999,8823.4099999999999,-1095.5,1349.03,340.86000000000001
173287.0,7330.2700000000004,5986.6199999999999,992.44000000000005,8560.5400000000009,-1104.8399999999999,1305.04,424.226
173288.0,7308.3400000000001,6109.6199999999999,977.072,8497.5599999999995,-1102.5699999999999,1252.8699999999999,501.41800000000001
173289.0,7257.7600000000002,6080.7700000000004,838.93700000000001,8270.9799999999996,-1092.6199999999999,1204.8800000000001,572.64999999999998
173290.0,7175.4399999999996,6240.9799999999996,940.31200000000001,8246.1399999999994,-1080.0999999999999,1157.97,637.19600000000003
173291.0,7060.9899999999998,6118.4799999999996,797.43700000000001,7943.2799999999997,-1065.1300000000001,1103.97,693.92200000000003
173292.0,6924.1300000000001,6133.9899999999998,812.97799999999995,7772.1700000000001,-1047.22,1046.3399999999999,742.83600000000001
173293.0,6769.3999999999996,5943.7200000000003,644.60599999999999,7395.25,-1027.4000000000001,988.30700000000002,784.952
173294.0,6596.6199999999999,5915.2700000000004,660.03300000000002,7182.3599999999997,-1005.51,928.43799999999999,819.42100000000005
173295.0,6409.04,5763.8100000000004,571.16999999999996,6848.2700000000004,-981.51499999999999,867.98299999999995,847.50699999999995
173296.0,6208.96,5702.5200000000004,589.71000000000004,6607.75,-956.17399999999998,807.13300000000004,868.99099999999999
173297.0,5998.9499999999998,5538.75,520.495,6268.4799999999996,-929.524,746.25,884.553
173298.0,5780.96,5431.3400000000001,520.68100000000004,5989.9499999999998,-901.95600000000002,685.65300000000002,894.19500000000005
173299.0,5557.5100000000002,5257.8400000000001,465.72699999999998,5650.4099999999999,-873.73500000000001,625.649,898.45000000000005
173300.0,5330.1199999999999,5152.1099999999997,488.07900000000001,5384.1899999999996,-845.00599999999997,566.47900000000004,897.39099999999996
173301.0,5100.8699999999999,4966.6899999999996,438.71800000000002,5044.5,-815.971,508.48500000000001,891.61599999999999
173302.0,4872.0900000000001,4853.4300000000003,467.26100000000002,4784.1899999999996,-787.20299999999997,451.34399999999999,880.81799999999998
173303.0,4644.4399999999996,4710.25,468.95299999999997,4500.8100000000004,-757.851,394.70699999999999,863.37900000000002
173304.0,4414.79,4519.5,427.11900000000003,4174.4200000000001,-727.03399999999999,339.30000000000001,837.62599999999998
173305.0,4178.8100000000004,4351.5699999999997,418.709,3871.54,-695.25300000000004,286.827,807.38599999999997
173306.0,3945.5700000000002,4198.3699999999999,434.37900000000002,3586.54,-664.04499999999996,238.47499999999999,782.08500000000004
173307.0,3727.9000000000001,4030.8699999999999,434.79700000000003,3297.4000000000001,-635.18100000000004,192.96100000000001,762.25400000000002
173308.0,3525.3299999999999,3821.75,387.24000000000001,2978.8400000000001,-608.31299999999999,147.93600000000001,739.54700000000003
173309.0,3330.9899999999998,3626.3000000000002,350.63600000000002,2681.3200000000002,-581.54999999999995,103.468,712.09500000000003
173310.0,3145.9000000000001,3421.9200000000001,302.05000000000001,2383.5100000000002,-555.50999999999999,60.918399999999998,680.09799999999996
173311.0,2966.5799999999999,3285.1700000000001,322.77499999999998,2157.23,-529.78399999999999,20.061499999999999,645.68899999999996
173312.0,2800.9899999999998,3106.25,295.76499999999999,1899.77,-505.77199999999999,-18.2012,609.23199999999997
173313.0,2638.98,3019.3600000000001,364.536,1735.29,-481.64999999999998,-55.941200000000002,568.89800000000002
173314.0,2491.9499999999998,2830.0300000000002,326.916,1476.8499999999999,-457.80399999999997,-90.666300000000007,531.31600000000003
173315.0,2346.23,2716.3899999999999,348.35899999999998,1327.55,-445.505,-128.899,451.61799999999999
173316.0,2140.7600000000002,2587.0,451.37299999999999,1079.28,-419.26600000000002,-188.215,334.17599999999999
173317.0,17817.700000000001,542.14700000000005,16780.700000000001,1627.6900000000001,1116.1300000000001,-1768.3,-4363.0600000000004
173318.0,16038.5,4356.5200000000004,19500.599999999999,4613.6199999999999,1263.3599999999999,-1402.96,-2647.4000000000001
173319.0,13073.799999999999,5710.54,18414.900000000001,5523.3199999999997,1289.76,-808.59799999999996,-229.643
173320.0,8754.8199999999997,4644.6199999999999,13214.6,5446.6300000000001,966.23000000000002,-248.459,1465.8499999999999
173321.0,4100.8500000000004,2335.5100000000002,6587.1300000000001,4804.5600000000004,588.20399999999995,-225.09100000000001,806.63800000000003
173322.0,4191.54,3243.6599999999999,4788.2399999999998,6016.75,992.66800000000001,-603.15899999999999,-1605.0899999999999
173323.0,6442.5100000000002,5586.7299999999996,7049.2299999999996,6581.9700000000003,2065.3899999999999,-193.31999999999999,-2995.6900000000001
173324.0,5418.8400000000001,6541.5699999999997,8711.4599999999991,6452.1099999999997,2185.8099999999999,1241.6700000000001,-1353.3699999999999
173325.0,4544.2600000000002,5705.8100000000004,6921.8699999999999,7237.8000000000002,1011.3099999999999,2224.8200000000002,506.53199999999998
173326.0,5102.1599999999999,3785.2199999999998,3645.9699999999998,7153.04,-95.418599999999998,2163.3200000000002,211.595
173327.0,5396.1700000000001,3096.1799999999998,2399.5999999999999,6839.4399999999996,-541.26499999999999,1850.6700000000001,-535.45799999999997
173328.0,5553.0600000000004,3662.9499999999998,2481.7800000000002,7315.9700000000003,-702.34799999999996,1724.1700000000001,-679.16099999999994
173329.0,5838.1499999999996,3910.0799999999999,2130.73,7494.3599999999997,-809.92700000000002,1688.3900000000001,-625.36699999999996
173330.0,6117.6499999999996,4306.6099999999997,1955.49,7783.2200000000003,-888.21699999999998,1672.6199999999999,-540.79600000000005
173331.0,6404.8500000000004,4513.8199999999997,1629.79,7885.5,-947.99599999999998,1667.28,-438.43799999999999
173332.0,6666.8800000000001,5137.0299999999997,1781.01,8404.8700000000008,-988.95799999999997,1661.1900000000001,-329.62799999999999
173333.0,6903.0,5630.0200000000004,1844.9100000000001,8782.2700000000004,-1023.6799999999999,1650.54,-215.62799999999999
173334.0,7114.1800000000003,5655.3299999999999,1482.3199999999999,8684.3600000000006,-1056.78,1633.05,-102.32899999999999
173335.0,7283.5500000000002,5860.5,1343.78,8753.4799999999996,-1078.1199999999999,1604.79,6.5118799999999997
173336.0,7411.4799999999996,6120.96,1308.53,8864.1100000000006,-1091.6099999999999,1573.9100000000001,112.54000000000001
173337.0,7502.1400000000003,6187.2600000000002,1137.6300000000001,8786.0900000000001,-1104.46,1539.45,213.71799999999999
173338.0,7546.9700000000003,6177.9799999999996,939.88199999999995,8631.8500000000004,-1108.1099999999999,1492.3900000000001,304.75999999999999
173339.0,7551.6999999999998,6385.3100000000004,989.33100000000002,8677.6700000000001,-1099.3499999999999,1438.2,389.94999999999999
173340.0,7523.21,6549.1199999999999,1033.74,8671.5900000000001,-1086.6700000000001,1385.77,470.64499999999998
173341.0,7463.25,6518.4700000000003,930.17700000000002,8478.3400000000001,-1074.8499999999999,1331.9000000000001,544.61800000000005
173342.0,7372.21,6515.8500000000004,890.08699999999999,8315.25,-1061.5999999999999,1270.3499999999999,610.21000000000004
173343.0,7256.9799999999996,6360.5299999999997,716.18499999999995,7990.4300000000003,-1043.8599999999999,1202.99,667.952
173344.0,7121.3100000000004,6359.3999999999996,718.58900000000006,7815.5799999999999,-1022.97,1135.8099999999999,718.851
173345.0,6964.3699999999999,6232.8299999999999,623.774,7519.4200000000001,-1000.1900000000001,1067.98,762.91700000000003
173346.0,6788.1800000000003,6225.0699999999997,670.678,7343.8100000000004,-975.26599999999996,998.23299999999995,799.95299999999997
173347.0,6597.0699999999997,6064.8699999999999,584.06200000000001,7017.1999999999998,-948.66099999999994,928.31500000000005,830.73299999999995
173348.0,6393.4899999999998,5966.5799999999999,576.51999999999998,6755.7600000000002,-921.06500000000005,858.02999999999997,855.11900000000003
173349.0,6179.4899999999998,5775.6499999999996,491.14600000000002,6404.6700000000001,-892.36199999999997,787.90899999999999,873.50699999999995
173350.0,5957.6099999999997,5650.79,484.798,6123.7799999999997,-863.10199999999998,718.32399999999996,886.12400000000002
173351.0,5729.5200000000004,5461.2700000000004,425.05700000000002,5782.54,-833.36800000000005,649.52300000000002,893.23800000000006
173352.0,5497.5699999999997,5317.4099999999999,420.34399999999999,5491.9499999999998,-803.37199999999996,581.85500000000002,895.35599999999999
173353.0,5263.3100000000004,5097.0799999999999,347.02699999999999,5130.04,-773.33799999999997,515.45699999999999,892.673
173354.0,5028.9799999999996,4942.7600000000002,345.70999999999998,4840.0100000000002,-743.51099999999997,450.54899999999998,885.476
173355.0,4795.0799999999999,4714.6599999999999,275.88799999999998,4481.6000000000004,-713.62199999999996,387.32299999999998,874.15599999999995
173356.0,4564.6700000000001,4509.5200000000004,232.13499999999999,4153.5299999999997,-684.74199999999996,325.99299999999999,858.44299999999998
173357.0,4336.9399999999996,4356.5299999999997,243.02500000000001,3884.6300000000001,-656.74099999999999,265.78899999999999,836.81399999999996
173358.0,4108.8999999999996,4199.8900000000003,253.15700000000001,3615.7199999999998,-627.70299999999997,206.45599999999999,808.45100000000002
173359.0,3883.25,4041.5,264.57499999999999,3345.9699999999998,-596.80700000000002,150.88399999999999,779.06500000000005
173360.0,3663.71,3889.2600000000002,284.88900000000001,3087.1799999999998,-568.19799999999998,100.08499999999999,748.41700000000003
173361.0,3453.4099999999999,3773.0999999999999,344.55000000000001,2869.6799999999998,-542.68299999999999,52.379300000000001,721.245
173362.0,3256.71,3626.0999999999999,370.887,2630.29,-519.40599999999995,5.8244100000000003,695.279
173363.0,3076.4099999999999,3494.9200000000001,405.56099999999998,2417.1100000000001,-496.09300000000002,-38.838299999999997,669.67499999999995
173364.0,2902.6199999999999,3295.4099999999999,369.24099999999999,2142.1100000000001,-473.22199999999998,-82.608599999999996,636.42700000000002
173365.0,2743.1700000000001,3129.5900000000001,360.58800000000002,1908.8699999999999,-450.59699999999998,-122.833,603.66899999999998
173366.0,2585.4400000000001,2925.9899999999998,317.63299999999998,1640.1300000000001,-429.351,-163.13900000000001,562.32100000000003
173367.0,2444.1799999999998,2727.02,276.00599999999997,1381.95,-407.14299999999997,-199.34399999999999,528.39099999999996
173368.0,2302.23,2595.8699999999999,286.79199999999997,1224.8099999999999,-399.44799999999998,-237.62,449.60000000000002
173369.0,2108.9699999999998,2511.4299999999998,440.36599999999999,1040.1099999999999,-380.87099999999998,-300.08600000000001,334.435
173370.0,15364.0,4453.8800000000001,18399.099999999999,4683.5200000000004,1280.78,-1140.95,-3459.6399999999999
173371.0,13347.4,6932.29,19492.099999999999,6459.9700000000003,1387.0899999999999,-414.58800000000002,-1628.8699999999999
173372.0,10615.9,6760.8500000000004,17050.799999999999,6499.79,871.87400000000002,469.23000000000002,610.58799999999997
173373.0,7240.8599999999997,4889.9200000000001,11836.6,6255.5500000000002,-64.004099999999994,852.38499999999999,1789.2
173374.0,4078.1700000000001,2446.9200000000001,6173.5699999999997,5262.5500000000002,-619.65300000000002,604.56299999999999,1009.99
173375.0,2744.6399999999999,2167.0,3446.3200000000002,4953.1899999999996,-538.29700000000003,260.46899999999999,-456.488
173376.0,3063.96,4012.1900000000001,3788.29,5674.4799999999996,-15.162599999999999,416.38099999999997,-1376.1700000000001
173377.0,3236.0100000000002,4645.0500000000002,3994.1599999999999,5694.8000000000002,280.29500000000002,1196.3399999999999,-1115.5699999999999
173378.0,4115.3199999999997,4499.8699999999999,3622.1199999999999,6361.6400000000003,-79.888800000000003,1851.76,-502.947
173379.0,5168.8900000000003,4002.5100000000002,2699.04,6826.7600000000002,-568.39300000000003,1968.25,-506.411
173380.0,5669.1099999999997,4127.9899999999998,2382.0500000000002,7214.5299999999997,-789.52300000000002,1912.28,-666.92200000000003
173381.0,5989.9300000000003,4339.6099999999997,2086.8800000000001,7425.71,-883.32899999999995,1890.4400000000001,-649.649
173382.0,6305.8400000000001,4831.4300000000003,2041.52,7873.46,-949.40099999999995,1876.97,-567.45600000000002
173383.0,6595.8800000000001,5203.0500000000002,1910.9100000000001,8171.8199999999997,-997.70299999999997,1865.22,-467.88999999999999
173384.0,6866.4200000000001,5699.2700000000004,1937.01,8579.0799999999999,-1036.78,1848.7,-359.43099999999998
173385.0,7113.8100000000004,5794.2600000000002,1594.72,8567.2800000000007,-1070.9000000000001,1826.9400000000001,-245.97300000000001
173386.0,7323.6400000000003,5915.8100000000004,1334.74,8578.1900000000005,-1093.9400000000001,1799.8900000000001,-136.45699999999999
173387.0,7484.1999999999998,6326.6800000000003,1423.8,8872.2700000000004,-1104.01,1765.8900000000001,-29.548100000000002
173388.0,7605.4200000000001,6522.0100000000002,1347.8299999999999,8945.0100000000002,-1110.4000000000001,1726.8900000000001,74.8874
173389.0,7686.2299999999996,6587.7600000000002,1189.98,8885.6800000000003,-1111.1199999999999,1679.6900000000001,173.44499999999999
173390.0,7724.5,6734.8900000000003,1153.04,8896.9400000000005,-1102.0,1624.1900000000001,265.214
173391.0,7729.5200000000004,6902.5100000000002,1172.79,8918.4599999999991,-1090.3299999999999,1566.1800000000001,353.86599999999999
173392.0,7703.8599999999997,6816.0,978.88800000000003,8686.5699999999997,-1080.05,1504.5799999999999,435.55000000000001
173393.0,7645.3299999999999,6731.6300000000001,823.33199999999999,8456.9400000000005,-1065.79,1436.0,509.47500000000002
173394.0,7555.54,6727.6300000000001,777.05200000000002,8301.3099999999995,-1045.1400000000001,1362.29,574.91099999999994
173395.0,7440.6000000000004,6682.4200000000001,717.73099999999999,8100.79,-1020.58,1288.28,634.91499999999996
173396.0,7300.3299999999999,6683.1899999999996,737.63,7949.4200000000001,-995.29300000000001,1214.1099999999999,687.84500000000003
173397.0,7139.04,6551.1000000000004,650.80799999999999,7668.3699999999999,-968.59299999999996,1137.26,734.24800000000005
173398.0,6959.6099999999997,6462.3800000000001,626.93899999999996,7429.0299999999997,-940.06700000000001,1058.6600000000001,773.53899999999999
173399.0,6766.7799999999997,6263.2700000000004,510.83699999999999,7081.2700000000004,-910.78399999999999,980.18499999999995,806.92600000000004
173400.0,6560.54,6150.0200000000004,498.31200000000001,6821.8599999999997,-880.88400000000001,901.31799999999998,833.76300000000003
173401.0,6343.9200000000001,5979.7600000000002,443.755,6508.2399999999998,-850.447,822.94500000000005,854.68399999999997
173402.0,6119.1199999999999,5857.54,450.45699999999999,6246.2399999999998,-819.899,745.33399999999995,870.06299999999999
173403.0,5888.0200000000004,5667.54,400.63200000000001,5920.21,-789.25099999999998,668.726,880.05200000000002
173404.0,5652.7700000000004,5514.3400000000001,397.04700000000003,5635.1999999999998,-758.67100000000005,593.47799999999995,885.17999999999995
173405.0,5414.9799999999996,5311.3199999999997,351.53899999999999,5304.9799999999996,-728.48099999999999,519.74800000000005,885.33900000000006
173406.0,5176.3999999999996,5169.3900000000003,373.56299999999999,5040.6400000000003,-698.56200000000001,447.85300000000001,881.36099999999999
173407.0,4938.4300000000003,4959.5600000000004,332.72699999999998,4713.71,-669.279,377.85300000000001,872.82299999999998
173408.0,4702.8599999999997,4816.4700000000003,362.40800000000002,4458.7799999999997,-640.64099999999996,310.01299999999998,860.98699999999997
173409.0,4470.6700000000001,4642.9200000000001,363.75799999999998,4179.3500000000004,-612.67399999999998,244.209,844.48299999999995
173410.0,4242.6199999999999,4438.3500000000004,335.73200000000003,3873.5700000000002,-584.59799999999996,180.56700000000001,825.29100000000005
173411.0,4020.2800000000002,4216.8299999999999,290.613,3556.2800000000002,-557.471,119.28,802.00199999999995
173412.0,3805.8499999999999,4040.8499999999999,289.48599999999999,3290.3299999999999,-531.01599999999996,60.835099999999997,776.09100000000001
173413.0,3594.54,3832.8200000000002,256.31900000000002,2998.5799999999999,-506.077,4.6131900000000003,741.31200000000001
173414.0,3383.3000000000002,3655.0900000000001,259.80900000000003,2736.1900000000001,-480.39800000000002,-48.562199999999997,705.90499999999997
173415.0,3179.4000000000001,3442.23,231.72800000000001,2440.7199999999998,-455.98099999999999,-98.297300000000007,673.5
173416.0,2997.4499999999998,3283.0700000000002,250.398,2206.8800000000001,-432.49099999999999,-143.39699999999999,650.71600000000001
173417.0,2827.54,3095.54,234.21600000000001,1954.76,-413.01299999999998,-187.52099999999999,620.02700000000004
173418.0,2674.3000000000002,2970.8800000000001,273.44799999999998,1772.6800000000001,-393.31900000000002,-228.46899999999999,592.00900000000001
173419.0,2523.1500000000001,2803.8699999999999,271.488,1552.4200000000001,-375.99200000000002,-269.95600000000002,551.84500000000003
173420.0,2389.3099999999999,2697.3499999999999,325.774,1395.8499999999999,-355.78800000000001,-307.00799999999998,521.08900000000006
173421.0,2253.3800000000001,2480.3099999999999,255.38,1161.03,-352.55500000000001,-344.76799999999997,444.48899999999998
173422.0,2074.2199999999998,2433.3299999999999,450.27199999999999,1030.8599999999999,-341.39699999999999,-409.12200000000001,332.827
173423.0,12518.1,6682.9399999999996,17961.700000000001,6290.6300000000001,1130.98,-393.32400000000001,-2621.1799999999998
173424.0,10613.200000000001,8390.4599999999991,18317.200000000001,7745.6800000000003,979.56500000000005,400.42399999999998,-1143.47
173425.0,8747.0100000000002,7694.6400000000003,16128.0,7655.1000000000004,361.036,1164.6600000000001,444.84399999999999
173426.0,6792.9300000000003,5943.3699999999999,12212.0,7394.6300000000001,-491.93299999999999,1501.0,1455.3599999999999
173427.0,4922.8800000000001,4594.46,8266.4599999999991,7270.7299999999996,-1062.96,1396.3099999999999,1180.02
173428.0,4016.04,3495.8099999999999,5165.1400000000003,6439.8599999999997,-1230.29,1271.26,258.17500000000001
173429.0,4009.5700000000002,3355.5599999999999,3856.4499999999998,6039.1199999999999,-1233.73,1301.5,-326.82900000000001
173430.0,4274.1000000000004,3917.9499999999998,3490.1500000000001,6456.0299999999997,-1110.72,1463.9300000000001,-377.209
173431.0,5003.2299999999996,4197.5299999999997,2801.5,6875.6999999999998,-930.47199999999998,1733.8,-430.68200000000002
173432.0,5717.9899999999998,4378.5500000000002,2269.29,7117.96,-886.35500000000002,1947.0599999999999,-641.34299999999996
173433.0,6100.6700000000001,4744.9099999999999,2124.3400000000001,7408.3299999999999,-953.29399999999998,2014.49,-677.37400000000002
173434.0,6433.6899999999996,5234.2600000000002,2078.8099999999999,7846.2700000000004,-1017.37,2019.01,-587.81299999999999
173435.0,6751.5600000000004,5523.7299999999996,1856.6099999999999,8077.3599999999997,-1058.52,2012.9100000000001,-494.45699999999999
173436.0,7030.1999999999998,5828.3400000000001,1692.48,8301.9099999999999,-1088.6400000000001,1996.55,-389.62900000000002
173437.0,7277.2799999999997,6016.3199999999997,1459.3,8403.4200000000001,-1108.9200000000001,1973.6600000000001,-283.41399999999999
173438.0,7478.5600000000004,6408.0,1491.3800000000001,8706.0499999999993,-1117.9400000000001,1943.5699999999999,-177.35499999999999
173439.0,7639.75,6737.1000000000004,1504.77,8935.0,-1121.55,1903.4000000000001,-71.252300000000005
173440.0,7766.8500000000004,6739.2200000000003,1230.8599999999999,8827.6499999999996,-1122.8900000000001,1855.6900000000001,32.150599999999997
173441.0,7851.1599999999999,6856.8599999999997,1119.5799999999999,8830.1200000000008,-1116.0799999999999,1800.2,129.756
173442.0,7895.3500000000004,7003.6899999999996,1081.3800000000001,8854.4799999999996,-1104.2,1738.6900000000001,223.24299999999999
173443.0,7905.6099999999997,7032.0699999999997,966.65200000000004,8757.8299999999999,-1091.5699999999999,1673.05,311.82799999999997
173444.0,7877.7399999999998,6964.1400000000003,799.38199999999995,8565.5,-1074.0,1601.72,392.10500000000002
173445.0,7813.5900000000001,7048.9700000000003,822.38,8522.3199999999997,-1049.22,1525.75,465.745
173446.0,7720.5500000000002,7077.3299999999999,821.09799999999996,8418.7199999999993,-1022.12,1447.5899999999999,533.68200000000002
173447.0,7603.4499999999998,6994.0200000000004,738.36400000000003,8203.6100000000006,-995.41600000000005,1367.74,595.72199999999998
173448.0,7462.75,6905.6800000000003,678.35799999999995,7984.46,-967.81100000000004,1284.7,650.66800000000001
173449.0,7302.0500000000002,6740.1300000000001,562.63599999999997,7686.79,-937.91700000000003,1198.8499999999999,698.49099999999999
173450.0,7123.71,6656.7299999999996,550.26400000000001,7470.4700000000003,-906.78200000000004,1112.9100000000001,740.39700000000005
173451.0,6929.4799999999996,6493.0299999999997,479.11500000000001,7176.96,-875.524,1027.0,775.846
173452.0,6721.6199999999999,6416.21,512.68399999999997,6972.3299999999999,-843.53899999999999,940.96299999999997,805.25199999999995
173453.0,6502.8900000000003,6223.8400000000001,445.97500000000002,6654.2700000000004,-811.274,855.49000000000001,828.95699999999999
173454.0,6276.0799999999999,6071.96,432.65199999999999,6379.8699999999999,-779.0,770.87099999999998,847.14800000000002
173455.0,6042.4200000000001,5849.5900000000001,360.32900000000001,6037.8699999999999,-746.678,687.38099999999997,860.18899999999996
173456.0,5804.3500000000004,5682.8500000000004,353.08499999999998,5755.3599999999997,-714.81299999999999,605.39800000000002,867.95699999999999
173457.0,5563.3500000000004,5468.6599999999999,306.53500000000003,5429.1000000000004,-683.38300000000004,525.17399999999998,871.29600000000005
173458.0,5321.1499999999996,5290.0900000000001,302.00099999999998,5142.7200000000003,-652.58399999999995,446.87700000000001,869.91499999999996
173459.0,5079.4700000000003,5054.6300000000001,245.66200000000001,4803.6700000000001,-622.47400000000005,370.77999999999997,864.85199999999998
173460.0,4839.54,4863.3699999999999,237.245,4513.4499999999998,-593.26199999999994,296.95800000000003,855.57799999999997
173461.0,4602.8999999999996,4629.0699999999997,188.316,4184.6800000000003,-564.654,225.62299999999999,843.23400000000004
173462.0,4370.5299999999997,4396.0200000000004,142.214,3862.1700000000001,-537.41800000000001,156.75299999999999,827.12300000000005
173463.0,4144.1700000000001,4224.2200000000003,157.78700000000001,3605.6599999999999,-511.30700000000002,90.757800000000003,808.69200000000001
173464.0,3924.0500000000002,4040.0300000000002,160.58199999999999,3342.3499999999999,-486.65100000000001,27.584099999999999,786.36199999999997
173465.0,3710.9299999999998,3859.4299999999998,166.53999999999999,3087.8200000000002,-462.83199999999999,-32.9377,761.96400000000006
173466.0,3505.9699999999998,3667.21,158.00999999999999,2828.29,-440.40600000000001,-91.286100000000005,732.72400000000005
173467.0,3306.8099999999999,3532.7600000000002,205.77500000000001,2629.3699999999999,-417.79700000000003,-147.57900000000001,699.19299999999998
173468.0,3111.27,3370.9099999999999,227.45699999999999,2402.3899999999999,-394.70800000000003,-200.85300000000001,662.50300000000004
173469.0,2928.8600000000001,3255.1700000000001,293.21699999999998,2223.9899999999998,-371.82299999999998,-248.51900000000001,631.39599999999996
173470.0,2756.6900000000001,3057.71,276.524,1969.4200000000001,-352.10399999999998,-293.52800000000002,598.96699999999998
173471.0,2604.1100000000001,2904.5700000000002,295.86799999999999,1767.04,-333.14800000000002,-334.38900000000001,571.88300000000004
173472.0,2458.8400000000001,2692.9200000000001,255.035,1511.1400000000001,-317.351,-374.84300000000002,536.47000000000003
173473.0,2329.5300000000002,2503.4099999999999,231.20599999999999,1281.8199999999999,-301.05599999999998,-411.45699999999999,505.774
173474.0,2198.5599999999999,2351.5700000000002,234.065,1118.4100000000001,-302.78500000000003,-447.78300000000002,433.52300000000002
173475.0,2032.9000000000001,2273.6300000000001,406.428,971.73400000000004,-297.19900000000001,-513.07500000000005,330.40199999999999
173476.0,10655.6,8095.5600000000004,17930.400000000001,7924.1800000000003,516.26099999999997,217.03200000000001,-2172.6999999999998
173477.0,9252.0100000000002,9073.5499999999993,17896.400000000001,8893.5699999999997,317.18799999999999,853.63800000000003,-1102.8900000000001
173478.0,7849.8500000000004,8970.8500000000004,16546.400000000001,9245.8999999999996,35.4497,1432.6800000000001,160.869
173479.0,6417.4799999999996,7791.6599999999999,13489.700000000001,9094.8799999999992,-365.82499999999999,1905.8800000000001,1023.9400000000001
173480.0,5402.4700000000003,5987.6599999999999,9723.75,8320.3099999999995,-892.07100000000003,2072.54,1037.3800000000001
173481.0,4880.0600000000004,5439.7399999999998,7543.3000000000002,8374.5100000000002,-1182.71,1974.95,592.428
173482.0,4578.5799999999999,5169.4399999999996,6062.3400000000001,8135.6300000000001,-1029.71,1894.6400000000001,148.87100000000001
173483.0,4836.96,4665.5600000000004,4229.8900000000003,7490.7299999999996,-760.95500000000004,2019.1500000000001,92.763000000000005
173484.0,5851.5200000000004,4824.04,2776.4000000000001,7649.0900000000001,-797.72400000000005,2182.29,-168.92400000000001
173485.0,6422.4700000000003,4942.8100000000004,1975.6199999999999,7502.0900000000001,-996.38199999999995,2161.3000000000002,-660.31799999999998
173486.0,6516.25,5409.4300000000003,2016.51,7658.3100000000004,-1071.3699999999999,2120.77,-664.67399999999998
173487.0,6835.9399999999996,5860.5,1939.47,8041.4899999999998,-1097.46,2132.1799999999998,-514.90700000000004
173488.0,7138.8199999999997,6122.9700000000003,1720.79,8232.3199999999997,-1122.9400000000001,2121.1500000000001,-435.05000000000001
173489.0,7374.8000000000002,6517.9899999999998,1702.4300000000001,8537.8999999999996,-1133.6900000000001,2098.4499999999998,-329.03800000000001
173490.0,7592.4700000000003,6800.6000000000004,1608.2,8740.5900000000001,-1140.74,2064.6599999999999,-227.65700000000001
173491.0,7764.7200000000003,6937.4300000000003,1413.6700000000001,8781.4400000000005,-1141.6700000000001,2019.7,-122.407
173492.0,7898.9200000000001,6983.6599999999999,1180.22,8732.7000000000007,-1136.8599999999999,1968.46,-22.728300000000001
173493.0,7983.8299999999999,7260.1499999999996,1233.5,8911.5799999999999,-1123.0799999999999,1909.6800000000001,74.215699999999998
173494.0,8031.25,7342.8100000000004,1136.6400000000001,8892.9500000000007,-1106.8499999999999,1844.05,167.39400000000001
173495.0,8041.1800000000003,7351.1899999999996,1008.58,8797.5900000000001,-1086.7,1772.8099999999999,254.626
173496.0,8013.2299999999996,7377.1000000000004,939.38099999999997,8717.6700000000001,-1060.53,1695.9000000000001,335.613
173497.0,7954.2299999999996,7436.6300000000001,937.27099999999996,8666.25,-1032.3499999999999,1614.4200000000001,411.56599999999997
173498.0,7869.6199999999999,7324.9399999999996,794.63300000000004,8441.7600000000002,-1004.88,1529.5599999999999,482.21499999999997
173499.0,7757.6000000000004,7203.9300000000003,674.61699999999996,8208.1800000000003,-975.76300000000003,1441.5799999999999,545.279
173500.0,7619.8800000000001,7138.9300000000003,639.72299999999996,8030.5100000000002,-943.17100000000005,1351.21,602.077
173501.0,7459.4300000000003,7026.4200000000001,583.66099999999994,7804.5500000000002,-909.26400000000001,1259.6199999999999,651.89999999999998
173502.0,7280.9499999999998,6951.96,589.39599999999996,7617.96,-875.12400000000002,1168.28,696.87300000000005
173503.0,7085.4700000000003,6766.9700000000003,505.774,7322.9099999999999,-840.79899999999998,1075.75,734.58199999999999
173504.0,6877.54,6639.8900000000003,496.238,7086.3699999999999,-805.75199999999995,983.29899999999998,767.11900000000003
173505.0,6658.1499999999996,6392.9499999999998,382.77600000000001,6731.9499999999998,-771.13199999999995,891.27499999999998,793.58000000000004
173506.0,6430.1199999999999,6244.4700000000003,381.238,6478.5,-736.75199999999995,800.30799999999999,814.89300000000003
173507.0,6194.6800000000003,6032.3199999999997,328.09800000000001,6164.0299999999997,-703.05700000000002,710.55700000000002,830.58799999999997
173508.0,5954.4700000000003,5880.7700000000004,345.411,5913.1700000000001,-670.02599999999995,622.50999999999999,841.78399999999999
173509.0,5710.8299999999999,5654.9200000000001,296.74400000000003,5591.2700000000004,-637.91399999999999,536.25900000000001,847.94500000000005
173510.0,5465.8699999999999,5473.25,298.80399999999997,5316.9300000000003,-606.47500000000002,452.20800000000003,850.178
173511.0,5220.5799999999999,5241.6999999999998,256.43900000000002,4996.3999999999996,-576.26499999999999,370.41199999999998,847.83900000000006
173512.0,4976.9799999999996,5068.5500000000002,276.24799999999999,4738.0100000000002,-546.85400000000004,291.21199999999999,842.10000000000002
173513.0,4735.8599999999997,4845.5299999999997,249.06100000000001,4433.79,-518.80399999999997,214.59999999999999,832.32100000000003
173514.0,4498.9200000000001,4666.9300000000003,267.976,4177.9399999999996,-491.86799999999999,140.852,819.77499999999998
173515.0,4266.9300000000003,4482.6700000000001,281.72699999999998,3920.5999999999999,-466.05099999999999,69.976699999999994,803.69100000000003
173516.0,4041.3800000000001,4254.4399999999996,251.08199999999999,3623.4200000000001,-440.97500000000002,2.0618300000000001,785.37699999999995
173517.0,3822.8400000000001,4025.6100000000001,218.68199999999999,3330.3099999999999,-417.36099999999999,-63.108600000000003,763.84699999999998
173518.0,3612.4400000000001,3816.5799999999999,204.10499999999999,3060.6100000000001,-394.44999999999999,-125.377,740.55799999999999
173519.0,3411.02,3610.0300000000002,189.09200000000001,2797.6100000000001,-372.87799999999999,-184.631,714.625
173520.0,3220.3400000000001,3382.8899999999999,149.398,2518.4200000000001,-352.13099999999997,-240.92599999999999,687.24800000000005
173521.0,3038.4099999999999,3172.9099999999999,123.248,2260.5599999999999,-332.98599999999999,-294.86200000000002,655.24199999999996
173522.0,2865.8600000000001,2960.9000000000001,91.922600000000003,2002.8199999999999,-313.87599999999998,-345.58999999999997,621.572
173523.0,2699.75,2814.8200000000002,127.614,1811.1700000000001,-295.14499999999998,-393.75299999999999,586.17999999999995
173524.0,2551.0799999999999,2644.1100000000001,131.072,1599.8099999999999,-276.56299999999999,-435.93599999999998,555.83500000000004
173525.0,2409.7600000000002,2535.6199999999999,197.41300000000001,1454.8800000000001,-261.42200000000003,-476.51400000000001,520.42200000000003
173526.0,2283.6199999999999,2363.8899999999999,194.93700000000001,1252.4200000000001,-246.47300000000001,-512.77999999999997,488.12900000000002
173527.0,2154.79,2230.7800000000002,224.959,1112.4400000000001,-250.59999999999999,-548.23800000000006,417.21300000000002
173528.0,2001.6199999999999,2084.3800000000001,337.94799999999998,909.10400000000004,-248.483,-614.07899999999995,322.08600000000001
173529.0,10061.0,8320.5200000000004,17832.700000000001,8799.1000000000004,721.00199999999995,579.77099999999996,-2040.95
173530.0,8963.4200000000001,9597.5,18100.299999999999,9994.4599999999991,738.39200000000005,1164.51,-1361.3399999999999
173531.0,7687.3100000000004,9659.5799999999999,16796.900000000001,10025.9,605.64700000000005,1744.6600000000001,-366.13600000000002
173532.0,6205.8100000000004,9704.1800000000003,14878.700000000001,10680.4,275.13600000000002,2231.0599999999999,474.471
173533.0,5235.3100000000004,8484.0900000000001,11787.200000000001,10160.9,-81.111000000000004,2466.75,562.86099999999999
173534.0,4738.8000000000002,7225.5100000000002,8869.7999999999993,9216.4099999999999,-289.44200000000001,2458.7399999999998,474.32900000000001
173535.0,4725.0,6641.0600000000004,6445.3900000000003,8662.2999999999993,-343.37599999999998,2366.9699999999998,463.702
173536.0,5628.1099999999997,5927.6400000000003,3774.8499999999999,7928.6599999999999,-476.726,2432.6100000000001,313.41199999999998
173537.0,6668.8400000000001,5549.3599999999997,2118.2800000000002,7681.9399999999996,-886.38999999999999,2473.6100000000001,-202.40000000000001
173538.0,6891.0100000000002,5455.6700000000001,1709.27,7526.1199999999999,-1168.8199999999999,2312.2600000000002,-650.35000000000002
173539.0,6878.0,5981.1499999999996,1933.1400000000001,7837.3400000000001,-1160.4100000000001,2227.02,-589.49800000000005
173540.0,7192.3299999999999,6434.5900000000001,1852.1400000000001,8194.5400000000009,-1155.74,2231.9099999999999,-453.47399999999999
173541.0,7462.25,6676.1700000000001,1646.24,8352.1700000000001,-1170.72,2206.48,-377.86599999999999
173542.0,7672.0900000000001,6898.6499999999996,1481.71,8480.7800000000007,-1167.5799999999999,2169.5999999999999,-278.81299999999999
173543.0,7858.0299999999997,7074.8900000000003,1316.26,8571.3600000000006,-1163.8,2126.46,-183.44300000000001
173544.0,7991.54,7304.96,1267.76,8717.6499999999996,-1150.7,2073.48,-85.945700000000002
173545.0,8088.2399999999998,7531.5299999999997,1260.04,8861.4300000000003,-1132.71,2010.77,9.3272399999999998
173546.0,8147.7299999999996,7497.3699999999999,1033.8699999999999,8739.5200000000004,-1112.1199999999999,1940.4000000000001,102.01900000000001
173547.0,8168.5900000000001,7557.8000000000002,948.49300000000005,8712.3299999999999,-1086.8900000000001,1864.3699999999999,189.45400000000001
173548.0,8152.2799999999997,7607.6499999999996,894.75699999999995,8672.9200000000001,-1058.02,1782.3599999999999,272.20699999999999
173549.0,8105.1800000000003,7596.7399999999998,816.27599999999995,8570.3799999999992,-1028.22,1696.03,350.38299999999998
173550.0,8025.6700000000001,7488.8500000000004,679.27499999999998,8371.1499999999996,-996.30999999999995,1606.6199999999999,421.46899999999999
173551.0,7914.8400000000001,7474.6800000000003,671.88300000000004,8266.0200000000004,-960.37400000000002,1514.4100000000001,486.41899999999998
173552.0,7778.8599999999997,7414.1300000000001,646.93200000000002,8113.54,-922.87,1419.7,545.18299999999999
173553.0,7622.29,7282.5799999999999,576.048,7889.3500000000004,-885.90200000000004,1323.4400000000001,598.69500000000005
173554.0,7446.9799999999996,7137.2399999999998,514.51400000000001,7652.2399999999998,-848.94000000000005,1225.8599999999999,645.68299999999999
173555.0,7254.6199999999999,6953.3699999999999,435.28300000000002,7377.1800000000003,-811.30899999999997,1127.3199999999999,686.72699999999998
173556.0,7047.6800000000003,6807.6199999999999,413.24799999999999,7141.1499999999996,-774.005,1029.03,722.00099999999998
173557.0,6828.7700000000004,6608.8599999999997,355.23599999999999,6853.9899999999998,-737.23500000000001,931.70299999999997,751.98000000000002
173558.0,6599.1899999999996,6477.3999999999996,379.54000000000002,6636.1199999999999,-701.00999999999999,834.947,776.03700000000003
173559.0,6362.7200000000003,6259.5699999999997,329.09899999999999,6333.8000000000002,-665.28200000000004,739.82100000000003,795.44000000000005
173560.0,6120.0500000000002,6061.2200000000003,308.93599999999998,6053.4099999999999,-630.452,646.08000000000004,809.61900000000003
173561.0,5873.8400000000001,5815.6199999999999,249.875,5728.2299999999996,-596.37599999999998,554.45699999999999,819.34199999999998
173562.0,5625.1999999999998,5611.5900000000001,239.696,5447.5500000000002,-563.53599999999994,464.92899999999997,824.351
173563.0,5376.1400000000003,5378.79,206.21700000000001,5140.9499999999998,-531.79999999999995,377.91000000000003,825.46600000000001
173564.0,5127.9899999999998,5170.2299999999996,201.124,4861.8299999999999,-501.38,293.47199999999998,822.40599999999995
173565.0,4882.1700000000001,4923.5200000000004,160.84899999999999,4547.5699999999997,-472.14999999999998,211.86699999999999,816.14700000000005
173566.0,4639.8599999999997,4699.6999999999998,145.19300000000001,4259.6999999999998,-444.42599999999999,133.149,806.10599999999999
173567.0,4402.4399999999996,4462.3100000000004,116.54600000000001,3961.3499999999999,-417.64100000000002,57.482199999999999,793.46299999999997
173568.0,4170.8400000000001,4205.54,68.382099999999994,3647.46,-392.86799999999999,-15.121499999999999,777.50900000000001
173569.0,3946.21,4019.3400000000001,89.805300000000003,3407.21,-369.31299999999999,-84.492400000000004,759.70600000000002
173570.0,3729.2199999999998,3815.9499999999998,91.997100000000003,3153.4899999999998,-347.64499999999998,-150.67500000000001,738.61199999999997
173571.0,3521.4699999999998,3631.4499999999998,110.376,2921.54,-326.76100000000002,-213.477,716.79399999999998
173572.0,3322.6799999999998,3413.4099999999999,92.102999999999994,2660.1599999999999,-308.197,-273.14499999999998,691.54600000000005
173573.0,3134.7800000000002,3267.4200000000001,142.214,2473.2800000000002,-290.005,-329.31400000000002,666.69600000000003
173574.0,2957.0300000000002,3063.9099999999999,130.43299999999999,2233.5700000000002,-274.40199999999999,-382.49599999999998,637.77999999999997
173575.0,2792.3200000000002,2940.8299999999999,193.58000000000001,2076.7199999999998,-258.41899999999998,-432.59500000000003,609.68399999999997
173576.0,2636.6500000000001,2698.96,134.31999999999999,1803.55,-244.47800000000001,-480.73099999999999,576.36199999999997
173577.0,2497.3800000000001,2563.8699999999999,173.523,1638.8499999999999,-229.03999999999999,-524.06899999999996,546.89800000000002
173578.0,2364.04,2313.3099999999999,97.920199999999994,1361.51,-217.19399999999999,-566.14999999999998,510.005
173579.0,2246.5100000000002,2162.0100000000002,116.389,1185.78,-203.06,-603.53300000000002,479.49700000000001
173580.0,2125.3800000000001,1965.3800000000001,83.924199999999999,987.04600000000005,-209.387,-638.77800000000002,410.38799999999998
173581.0,1985.01,1926.3,305.25,903.12199999999996,-213.935,-704.34299999999996,315.48599999999999
173582.0,20636.799999999999,-29950.599999999999,-10628.299999999999,-25438.400000000001,-5801.9099999999999,-2085.3200000000002,-1331.6900000000001
173583.0,19784.099999999999,-38697.400000000001,-20624.400000000001,-34800.900000000001,-5746.7799999999997,-2054.4499999999998,-1660.9300000000001
173584.0,18153.5,-46782.699999999997,-28999.400000000001,-43035.699999999997,-3992.5900000000001,-1779.71,-1690.4000000000001
173585.0,19469.5,-54142.800000000003,-33306.0,-48871.900000000001,-2292.3000000000002,-1501.79,-1211.77
173586.0,22886.900000000001,-62693.699999999997,-37571.199999999997,-55207.900000000001,-2404.8699999999999,-1525.1800000000001,-350.50400000000002
173587.0,24877.799999999999,-70721.399999999994,-43648.800000000003,-62274.5,-3228.6700000000001,-1899.1800000000001,635.87900000000002
173588.0,25938.299999999999,-79224.5,-51156.5,-70671.199999999997,-2969.5799999999999,-2547.9899999999998,1409.8199999999999
173589.0,28060.799999999999,-87928.5,-57532.199999999997,-78626.5,-2399.5100000000002,-3341.8499999999999,1724.1800000000001
173590.0,30285.200000000001,-97842.5,-64972.400000000001,-86801.399999999994,-2029.6600000000001,-4269.25,1891.1500000000001
173591.0,35688.199999999997,-109643.0,-70819.800000000003,-94006.300000000003,-2530.48,-5665.4300000000003,2120.1900000000001
173592.0,41808.0,-128459.0,-84387.899999999994,-108428.0,-6914.29,-6587.2399999999998,2130.7600000000002
173593.0,44167.099999999999,-144889.0,-100446.0,-124011.0,-10146.5,-6758.2200000000003,2687.0500000000002
173594.0,52040.0,-174864.0,-123891.0,-149306.0,-14024.4,-7259.6599999999999,1937.6500000000001
173595.0,78698.300000000003,-214338.0,-148682.0,-173548.0,-30723.400000000001,-4632.1899999999996,511.786
173596.0,20100.099999999999,-26114.900000000001,-7380.3500000000004,-22616.700000000001,-4926.8500000000004,-2455.8200000000002,-2266.8400000000001
173597.0,19593.400000000001,-34729.900000000001,-16868.799999999999,-31634.400000000001,-4784.3599999999997,-2428.0300000000002,-2842.0100000000002
173598.0,19094.599999999999,-42893.5,-24352.799999999999,-39410.599999999999,-3301.8400000000001,-2109.4099999999999,-3012.9899999999998
173599.0,21056.099999999999,-51157.800000000003,-29144.200000000001,-45971.699999999997,-2303.7600000000002,-1802.6099999999999,-2605.1799999999998
173600.0,24163.400000000001,-60248.400000000001,-34424.900000000001,-53398.099999999999,-2951.5500000000002,-1843.22,-1885.25
173601.0,25195.0,-69595.0,-42917.5,-62663.800000000003,-3748.0300000000002,-2153.79,-1140.6800000000001
173602.0,25205.400000000001,-78465.899999999994,-51602.099999999999,-71744.0,-2970.3600000000001,-2723.23,-329.37
173603.0,27068.900000000001,-87947.5,-58991.5,-80488.100000000006,-2128.8899999999999,-3687.9400000000001,276.18400000000003
173604.0,28646.900000000001,-96413.600000000006,-66206.899999999994,-88706.100000000006,-1205.1700000000001,-5069.1000000000004,235.34
173605.0,35145.0,-106338.0,-69586.0,-95464.899999999994,-193.16,-7350.9300000000003,-1096.45
173606.0,42899.900000000001,-126852.0,-83201.699999999997,-110939.0,-5056.2799999999997,-9239.4099999999999,-3814.0900000000001
173607.0,43217.599999999999,-143559.0,-102501.0,-125683.0,-9045.2800000000007,-9756.6900000000005,-4667.6300000000001
173608.0,49337.5,-174235.0,-128763.0,-151207.0,-11265.9,-11879.0,-5139.96
173609.0,84986.100000000006,-216265.0,-148477.0,-174743.0,-28893.599999999999,-16355.299999999999,-11706.6
173610.0,19423.799999999999,-21482.5,-3330.9400000000001,-19251.5,-3675.0599999999999,-2523.5500000000002,-2810.8299999999999
173611.0,19957.5,-29455.400000000001,-11179.4,-27412.099999999999,-3489.77,-2536.7399999999998,-3724.6199999999999
173612.0,20932.400000000001,-37630.199999999997,-17569.799999999999,-34794.599999999999,-2494.29,-2240.0,-4117.7600000000002
173613.0,23374.299999999999,-46682.599999999999,-22942.299999999999,-41988.099999999999,-2364.6399999999999,-1958.4000000000001,-3824.8000000000002
173614.0,25637.400000000001,-57008.199999999997,-30511.900000000001,-50921.199999999997,-3651.5999999999999,-1974.3199999999999,-3041.71
173615.0,25330.700000000001,-67168.800000000003,-41332.599999999999,-61521.0,-4389.8699999999999,-2327.1900000000001,-2167.6599999999999
173616.0,24120.0,-76251.399999999994,-51444.300000000003,-71263.5,-3134.48,-3102.8800000000001,-1514.6800000000001
173617.0,25170.0,-85456.399999999994,-59501.699999999997,-80021.100000000006,-1658.8299999999999,-4349.2600000000002,-1461.54
173618.0,26356.0,-92672.600000000006,-66055.0,-87412.899999999994,69.426699999999997,-5437.8100000000004,-1802.8399999999999
173619.0,33881.400000000001,-100279.0,-66280.699999999997,-93049.199999999997,2109.0300000000002,-7212.7600000000002,-2323.1700000000001
173620.0,43297.099999999999,-118542.0,-76127.300000000003,-108677.0,-2202.7600000000002,-9912.0,-5399.0500000000002
173621.0,45317.800000000003,-132029.0,-92516.0,-122406.0,-5599.5699999999997,-11785.1,-9474.6399999999994
173622.0,50875.400000000001,-161268.0,-120209.0,-148339.0,-6381.1099999999997,-14751.6,-12795.0
173623.0,83534.399999999994,-193500.0,-133678.0,-169381.0,-19562.5,-23081.400000000001,-22466.0
173624.0,18486.5,-16529.700000000001,983.35599999999999,-15381.0,-2374.9699999999998,-2190.21,-2740.2600000000002
173625.0,20240.099999999999,-23735.0,-4741.3199999999997,-22430.0,-2330.5700000000002,-2277.1199999999999,-3657.5799999999999
173626.0,22334.700000000001,-31713.200000000001,-10063.5,-29338.0,-2056.25,-2119.1399999999999,-4072.3499999999999
173627.0,24955.900000000001,-41464.599999999999,-16442.599999999999,-37303.400000000001,-2726.0999999999999,-2115.9200000000001,-3990.73
173628.0,26420.799999999999,-52564.900000000001,-26294.400000000001,-47413.099999999999,-4335.6099999999997,-2407.9200000000001,-3783.1399999999999
173629.0,24814.0,-63050.300000000003,-39094.199999999997,-58810.900000000001,-4571.8599999999997,-2820.1199999999999,-3599.0500000000002
173630.0,22829.099999999999,-72020.199999999997,-49984.900000000001,-69128.899999999994,-2392.9400000000001,-3480.52,-3532.9099999999999
173631.0,24460.400000000001,-79100.600000000006,-55935.099999999999,-76733.600000000006,229.00700000000001,-4525.0799999999999,-4054.4499999999998
173632.0,27725.799999999999,-85995.100000000006,-60508.300000000003,-83553.5,2386.8099999999999,-5384.2399999999998,-4876.8400000000001
173633.0,33734.099999999999,-92507.0,-60954.199999999997,-88240.5,3649.3600000000001,-6811.4300000000003,-5153.8500000000004
173634.0,40763.800000000003,-104908.0,-67540.300000000003,-100145.0,1204.9000000000001,-9333.7099999999991,-7185.9799999999996
173635.0,46033.099999999999,-115883.0,-78081.300000000003,-113734.0,-269.02600000000001,-11220.6,-11384.0
173636.0,54315.5,-138883.0,-98055.899999999994,-137838.0,-750.50999999999999,-13591.799999999999,-16010.299999999999
173637.0,78229.699999999997,-161640.0,-108660.0,-159660.0,-8849.6700000000001,-20261.0,-25478.799999999999
173638.0,17236.299999999999,-12761.0,3913.1599999999999,-12142.1,-1434.28,-1632.3,-2223.79
173639.0,19750.799999999999,-18789.799999999999,245.523,-17772.0,-1540.22,-1945.28,-3034.1599999999999
173640.0,22460.200000000001,-26448.400000000001,-4446.9499999999998,-24242.700000000001,-1785.3599999999999,-2162.8600000000001,-3672.54
173641.0,25051.099999999999,-35732.699999999997,-11067.799999999999,-32201.700000000001,-2770.8200000000002,-2480.6799999999998,-4176.5
173642.0,26303.200000000001,-46619.199999999997,-21560.599999999999,-42942.0,-3973.9099999999999,-2896.6599999999999,-4830.3599999999997
173643.0,25084.200000000001,-56743.199999999997,-33935.900000000001,-54461.699999999997,-3576.3400000000001,-3062.02,-5458.1400000000003
173644.0,23722.299999999999,-65112.0,-43865.699999999997,-64440.300000000003,-977.75199999999995,-3085.29,-5589.8699999999999
173645.0,25866.700000000001,-71071.100000000006,-48221.699999999997,-71282.800000000003,2163.6199999999999,-3406.1100000000001,-5575.5799999999999
173646.0,30648.400000000001,-76063.399999999994,-49506.400000000001,-76519.199999999997,4527.2799999999997,-4116.2200000000003,-6039.3800000000001
173647.0,36554.199999999997,-81814.0,-50535.300000000003,-82080.899999999994,5769.5200000000004,-5483.71,-7288.1700000000001
173648.0,42800.900000000001,-89376.800000000003,-53876.5,-90310.0,5619.5500000000002,-7173.6999999999998,-9806.8099999999995
173649.0,49431.0,-99294.699999999997,-60008.800000000003,-102068.0,4992.7700000000004,-8218.2399999999998,-12987.5
173650.0,56835.5,-113345.0,-70052.100000000006,-119341.0,3379.04,-9172.0200000000004,-16060.799999999999
173651.0,71638.0,-132670.0,-82265.0,-143366.0,-2346.5300000000002,-12638.700000000001,-21925.0
173652.0,15639.1,-9990.4500000000007,5455.2299999999996,-9331.0799999999999,-949.03899999999999,-1102.26,-1771.6900000000001
173653.0,18445.299999999999,-14982.799999999999,3131.96,-14100.200000000001,-933.75699999999995,-1567.0799999999999,-2402.0100000000002
173654.0,21896.5,-21553.400000000001,-2.1068600000000002,-19824.200000000001,-1138.5999999999999,-2051.71,-3304.4299999999998
173655.0,25028.200000000001,-30127.799999999999,-5770.1300000000001,-27651.400000000001,-2149.8800000000001,-2408.8099999999999,-4321.6199999999999
173656.0,26411.900000000001,-39845.5,-15079.799999999999,-37871.800000000003,-3022.21,-2580.54,-5223.5900000000001
173657.0,25958.200000000001,-49274.099999999999,-25887.700000000001,-48716.300000000003,-2359.54,-2511.1700000000001,-5888.4099999999999
173658.0,25329.5,-57246.199999999997,-34777.599999999999,-57812.900000000001,-72.927099999999996,-2226.1399999999999,-6022.4200000000001
173659.0,26945.599999999999,-62801.5,-39017.400000000001,-63793.5,2944.7800000000002,-2097.4899999999998,-5674.1199999999999
173660.0,31512.0,-67107.199999999997,-39817.699999999997,-68443.899999999994,5705.4799999999996,-2350.3600000000001,-5650.8299999999999
173661.0,38575.699999999997,-69569.0,-36974.699999999997,-71778.100000000006,7985.3400000000001,-2745.9400000000001,-6705.6700000000001
173662.0,47015.400000000001,-74699.100000000006,-35435.0,-78407.399999999994,9034.8299999999999,-2944.5999999999999,-8916.7600000000002
173663.0,55037.699999999997,-80791.699999999997,-34964.900000000001,-86513.399999999994,8234.2999999999993,-3064.6799999999998,-11583.4
173664.0,60940.5,-95334.600000000006,-45940.0,-104697.0,5577.0299999999997,-3196.1799999999998,-14140.799999999999
173665.0,70333.899999999994,-108333.0,-54517.900000000001,-123734.0,734.82600000000002,-3975.7399999999998,-17660.700000000001
173666.0,14102.4,-8139.4099999999999,5959.96,-7229.0900000000001,-708.62400000000002,-722.63800000000003,-1733.95
173667.0,16805.400000000001,-12226.299999999999,4586.0,-11122.700000000001,-544.79399999999998,-1115.47,-2039.75
173668.0,20620.5,-18002.700000000001,2735.7800000000002,-16244.4,-640.82299999999998,-1570.47,-2572.8899999999999
173669.0,24198.700000000001,-25433.200000000001,-1350.9400000000001,-23156.599999999999,-1788.05,-1916.71,-3398.5900000000001
173670.0,25498.599999999999,-34474.199999999997,-9953.9799999999996,-32855.0,-2714.3699999999999,-1970.5599999999999,-4173.8999999999996
173671.0,25086.099999999999,-42906.900000000001,-19492.099999999999,-42622.199999999997,-1844.3299999999999,-1873.9300000000001,-4722.3400000000001
173672.0,25325.200000000001,-50563.699999999997,-27283.099999999999,-51018.699999999997,421.10300000000001,-1660.3299999999999,-5156.8000000000002
173673.0,27298.799999999999,-55870.300000000003,-31219.599999999999,-56430.099999999999,3363.6799999999998,-1305.1500000000001,-5304.2399999999998
173674.0,32355.799999999999,-59817.599999999999,-31164.0,-60026.0,6668.54,-829.10000000000002,-5303.5100000000002
173675.0,40421.099999999999,-62486.199999999997,-26054.900000000001,-61914.099999999999,8981.9099999999999,161.89500000000001,-5324.1000000000004
173676.0,49666.699999999997,-67351.800000000003,-20905.599999999999,-66822.100000000006,9020.2999999999993,1885.48,-5134.6199999999999
173677.0,57969.699999999997,-73819.899999999994,-19622.799999999999,-76531.100000000006,7107.0200000000004,3449.71,-5216.6300000000001
173678.0,64038.300000000003,-82278.0,-25727.400000000001,-91640.399999999994,5498.3400000000001,4018.9200000000001,-6992.5
173679.0,76553.0,-98242.600000000006,-30578.900000000001,-109747.0,200.999,5072.9300000000003,-9897.6100000000006
173680.0,12883.9,-6242.6099999999997,6700.1899999999996,-5097.5699999999997,-534.23400000000004,-469.03199999999998,-1868.3800000000001
173681.0,15436.5,-10352.1,5322.0500000000002,-8764.0300000000007,-398.642,-800.33399999999995,-2047.5999999999999
173682.0,18892.0,-15383.9,4035.1599999999999,-12970.299999999999,-595.41499999999996,-1240.5,-2248.73
173683.0,22160.400000000001,-22597.200000000001,-79.320599999999999,-19689.0,-1725.8,-1716.46,-2785.8099999999999
173684.0,23364.599999999999,-30549.299999999999,-7631.9499999999998,-28271.799999999999,-2499.7399999999998,-1897.8099999999999,-3566.3400000000001
173685.0,23011.900000000001,-38755.400000000001,-16709.0,-37664.599999999999,-1375.8199999999999,-1739.8699999999999,-4147.3699999999999
173686.0,24186.799999999999,-44890.0,-21961.0,-44276.800000000003,1159.0699999999999,-1460.4300000000001,-4565.0600000000004
173687.0,27475.799999999999,-50689.900000000001,-25152.299999999999,-49765.599999999999,4101.6400000000003,-864.07299999999998,-4925.8199999999997
173688.0,34108.099999999999,-53354.400000000001,-21455.599999999999,-50501.099999999999,7304.3199999999997,227.26599999999999,-4778.1400000000003
173689.0,42640.5,-61199.699999999997,-18753.700000000001,-54800.900000000001,7958.8800000000001,1918.6600000000001,-3921.3000000000002
173690.0,51251.699999999997,-67147.899999999994,-13252.299999999999,-57315.5,5407.0600000000004,4356.5900000000001,-1879.03
173691.0,58012.699999999997,-83144.5,-23011.200000000001,-74673.100000000006,1128.72,7726.5299999999997,1181.8099999999999
173692.0,64865.800000000003,-84717.0,-23121.700000000001,-84532.5,1497.23,11190.299999999999,3765.0700000000002
173693.0,90009.100000000006,-109244.0,-21486.599999999999,-106645.0,-5852.1499999999996,12862.1,2741.9099999999999
173694.0,11821.9,-4621.8199999999997,7294.4499999999998,-3154.6700000000001,-406.50400000000002,-313.11599999999999,-2024.8900000000001
173695.0,14372.6,-8381.9300000000003,6319.3000000000002,-6369.7299999999996,-356.37700000000001,-645.84299999999996,-2186.8800000000001
173696.0,17479.200000000001,-13520.6,4521.0900000000001,-10725.799999999999,-651.12900000000002,-1124.1300000000001,-2419.96
173697.0,20207.900000000001,-19867.599999999999,662.15999999999997,-16768.299999999999,-1464.8399999999999,-1652.3399999999999,-2959.8400000000001
173698.0,21617.900000000001,-27329.799999999999,-6064.4200000000001,-24765.0,-1731.8199999999999,-1901.29,-3796.4000000000001
173699.0,21994.400000000001,-34411.699999999997,-13194.1,-32637.599999999999,-523.86699999999996,-1678.6500000000001,-4426.6599999999999
173700.0,23800.900000000001,-40129.0,-17269.599999999999,-38336.0,2093.0,-1277.1300000000001,-4606.8299999999999
173701.0,28426.400000000001,-45349.0,-18004.200000000001,-42125.599999999999,4932.5,-564.90300000000002,-4623.6000000000004
173702.0,36184.400000000001,-50171.5,-13839.299999999999,-43050.0,6999.8199999999997,563.42899999999997,-4056.5300000000002
173703.0,44858.300000000003,-61037.900000000001,-12731.0,-48251.599999999999,5607.7799999999997,2099.8699999999999,-2905.3800000000001
173704.0,53559.5,-73117.800000000003,-13327.1,-54762.300000000003,813.11800000000005,4068.5700000000002,-931.94799999999998
173705.0,59020.0,-97992.300000000003,-34102.900000000001,-77465.100000000006,-5848.29,7507.0,2577.4200000000001
173706.0,67060.399999999994,-107332.0,-40817.0,-87627.199999999997,-7191.21,13400.0,10023.700000000001
173707.0,108052.0,-148371.0,-45048.400000000001,-119790.0,-21483.400000000001,17468.700000000001,16691.400000000001
173708.0,11011.0,-2819.96,8169.9099999999999,-1003.05,-351.65899999999999,-284.98200000000003,-2346.3299999999999
173709.0,13333.200000000001,-6676.54,6975.9200000000001,-4243.3500000000004,-396.505,-609.178,-2387.27
173710.0,16128.4,-11366.4,5266.0500000000002,-8309.3199999999997,-712.60299999999995,-1060.46,-2587.8899999999999
173711.0,18484.799999999999,-17354.099999999999,1401.1800000000001,-14211.700000000001,-1160.51,-1499.0899999999999,-3066.4299999999998
173712.0,20196.200000000001,-23681.0,-3575.52,-20800.5,-1018.89,-1718.27,-3710.4299999999998
173713.0,21278.0,-30820.799999999999,-9799.2999999999993,-28189.400000000001,60.312800000000003,-1529.8199999999999,-4171.6899999999996
173714.0,23580.099999999999,-35654.599999999999,-12277.799999999999,-32390.700000000001,2576.98,-1139.5699999999999,-4138.1800000000003
173715.0,29416.799999999999,-42459.400000000001,-12551.0,-36240.900000000001,4970.4399999999996,-576.68499999999995,-3787.5999999999999
173716.0,37500.300000000003,-48729.800000000003,-8500.1399999999994,-37292.900000000001,5494.1000000000004,155.38399999999999,-2973.1399999999999
173717.0,46952.900000000001,-63701.400000000001,-10738.799999999999,-45246.300000000003,2703.54,1066.1700000000001,-1918.5
173718.0,57095.300000000003,-82402.199999999997,-17757.700000000001,-57073.0,-4285.3199999999997,2670.21,-316.43400000000003
173719.0,62375.199999999997,-112945.0,-46448.699999999997,-84988.899999999994,-12164.299999999999,5212.7399999999998,2636.8099999999999
173720.0,70806.600000000006,-137398.0,-67076.899999999994,-102372.0,-16849.200000000001,8183.9700000000003,9167.25
173721.0,122801.0,-199471.0,-94645.0,-141020.0,-42876.599999999999,10692.4,17739.700000000001
173722.0,10678.9,-656.83100000000002,9546.0900000000001,1146.46,-236.58500000000001,-413.36000000000001,-2852.2199999999998
173723.0,12596.700000000001,-4379.0799999999999,8127.8100000000004,-1733.01,-357.03699999999998,-776.58699999999999,-2952.6399999999999
173724.0,14900.4,-9264.3999999999996,5797.6800000000003,-5877.4200000000001,-730.06700000000001,-1180.8,-3104.6199999999999
173725.0,16768.700000000001,-14547.700000000001,2352.6700000000001,-10983.700000000001,-967.48099999999999,-1511.6800000000001,-3338.3899999999999
173726.0,18482.700000000001,-20937.900000000001,-2379.3899999999999,-17328.900000000001,-651.255,-1766.6700000000001,-3674.7399999999998
173727.0,19948.299999999999,-26746.099999999999,-6663.1700000000001,-22883.900000000001,402.911,-1766.22,-3975.4299999999998
173728.0,22862.799999999999,-32619.299999999999,-9196.8299999999999,-27322.599999999999,2599.0599999999999,-1536.1700000000001,-3775.1300000000001
173729.0,29282.700000000001,-39384.5,-8194.1599999999999,-30108.299999999999,4169.8400000000001,-1414.3699999999999,-3149.48
173730.0,37487.199999999997,-49818.400000000001,-7913.1400000000003,-34484.800000000003,3435.6700000000001,-1276.52,-2336.48
173731.0,47712.900000000001,-66081.899999999994,-11349.5,-43069.5,-479.82999999999998,-1142.8900000000001,-1440.27
173732.0,59489.400000000001,-93971.899999999994,-27967.900000000001,-62923.599999999999,-9413.1000000000004,-538.82000000000005,-600.904
173733.0,64662.900000000001,-125984.0,-61662.699999999997,-92703.699999999997,-18772.400000000001,1458.22,2122.1100000000001
173734.0,71556.699999999997,-161963.0,-95394.600000000006,-123777.0,-23477.0,709.553,6265.6999999999998
173735.0,127956.0,-233387.0,-136584.0,-168254.0,-54604.400000000001,-4812.2399999999998,4088.6300000000001
173736.0,10734.299999999999,2320.3200000000002,11990.700000000001,3661.5999999999999,166.91300000000001,-543.25199999999995,-3261.5100000000002
173737.0,12617.299999999999,-1306.49,10362.0,873.96199999999999,-42.6723,-945.08399999999995,-3698.9099999999999
173738.0,14619.1,-5905.4399999999996,7860.5500000000002,-2862.1999999999998,-413.72300000000001,-1442.0699999999999,-4086.3699999999999
173739.0,16111.1,-11131.0,4109.9700000000003,-7524.3199999999997,-576.48900000000003,-1823.1800000000001,-4407.25
173740.0,17521.5,-17241.900000000001,-478.733,-13239.5,-184.76400000000001,-2110.75,-4604.46
173741.0,19309.599999999999,-22882.799999999999,-4041.46,-18246.299999999999,946.78700000000003,-2260.8600000000001,-4679.6999999999998
173742.0,22824.900000000001,-29413.400000000001,-6135.71,-22616.200000000001,2520.04,-2332.1300000000001,-4312.0299999999997
173743.0,28626.700000000001,-37091.099999999999,-6362.9300000000003,-26205.5,3223.6999999999998,-2746.8499999999999,-3533.2800000000002
173744.0,37072.599999999999,-49361.099999999999,-7933.5299999999997,-31966.799999999999,2009.71,-3546.8699999999999,-2962.0700000000002
173745.0,47742.099999999999,-69424.100000000006,-15567.6,-43837.599999999999,-3136.23,-4136.6499999999996,-2662.9000000000001
173746.0,59895.099999999999,-99294.800000000003,-35757.099999999999,-66421.899999999994,-12557.9,-4553.8999999999996,-2775.2399999999998
173747.0,66409.199999999997,-139149.0,-78677.399999999994,-103956.0,-23091.0,-3303.27,-1889.77
173748.0,72352.0,-173511.0,-114166.0,-137143.0,-28769.400000000001,-3820.3299999999999,2694.21
173749.0,124917.0,-252381.0,-171971.0,-204233.0,-57810.800000000003,-14461.299999999999,-3563.4899999999998
173750.0,11062.6,5227.8500000000004,14952.1,6010.2799999999997,692.06600000000003,-368.98000000000002,-3315.0999999999999
173751.0,12763.6,2562.6500000000001,13837.4,3727.8699999999999,355.10700000000003,-794.28700000000003,-3885.8400000000001
173752.0,14801.200000000001,-1205.48,11819.700000000001,547.25300000000004,259.07299999999998,-1436.52,-4574.8500000000004
173753.0,16826.5,-5682.5200000000004,8968.7700000000004,-3194.8800000000001,220.54499999999999,-1965.21,-5385.0900000000001
173754.0,18361.900000000001,-11481.5,4645.4300000000003,-8242.7700000000004,524.91600000000005,-2284.8299999999999,-5840.4700000000003
173755.0,20017.700000000001,-17003.5,1362.5799999999999,-12639.6,1425.3900000000001,-2585.3899999999999,-5725.6899999999996
173756.0,23163.099999999999,-24450.200000000001,-1688.0599999999999,-17598.0,2304.9299999999998,-3182.0300000000002,-5199.9200000000001
173757.0,27870.5,-32832.0,-3892.1399999999999,-22121.0,2531.6700000000001,-4197.4799999999996,-4561.1700000000001
173758.0,36369.699999999997,-46154.099999999999,-6932.0500000000002,-29125.5,1375.1600000000001,-5821.71,-4280.25
173759.0,48149.0,-69178.5,-17253.700000000001,-43532.699999999997,-4710.0500000000002,-7307.1400000000003,-4807.8800000000001
173760.0,60130.5,-101815.0,-41970.599999999999,-69440.100000000006,-14802.4,-7879.9700000000003,-5163.71
173761.0,70352.0,-146509.0,-86858.600000000006,-111220.0,-26082.799999999999,-6928.7299999999996,-4688.6700000000001
173762.0,80859.899999999994,-193918.0,-140326.0,-159207.0,-37334.599999999999,-6817.7799999999997,-411.99299999999999
173763.0,114725.0,-252827.0,-208347.0,-226806.0,-59848.900000000001,-16905.700000000001,-4494.8400000000001
173764.0,10981.5,6904.5100000000002,16901.5,7397.04,799.81500000000005,97.709199999999996,-2792.1100000000001
173765.0,12058.200000000001,5877.2799999999997,16649.0,6128.2700000000004,542.31399999999996,-353.86000000000001,-3201.71
173766.0,14098.799999999999,3457.3000000000002,15816.1,3884.23,861.12800000000004,-1018.45,-3906.98
173767.0,16776.799999999999,-210.70599999999999,14434.4,906.81100000000004,915.07299999999998,-1634.77,-4884.3500000000004
173768.0,18849.099999999999,-5016.5299999999997,11477.299999999999,-3081.1500000000001,982.33500000000004,-2059.0500000000002,-5651.1199999999999
173769.0,20597.200000000001,-10846.299999999999,7656.1300000000001,-7716.6099999999997,1492.52,-2584.96,-5867.6400000000003
173770.0,23175.700000000001,-17364.700000000001,4196.3100000000004,-12274.5,2200.7600000000002,-3707.8800000000001,-5782.1300000000001
173771.0,27675.400000000001,-26164.700000000001,448.62299999999999,-17627.299999999999,2680.4400000000001,-5404.2600000000002,-5853.9700000000003
173772.0,35814.300000000003,-39331.300000000003,-3152.0500000000002,-24676.799999999999,1344.5799999999999,-7586.96,-6084.2799999999997
173773.0,47574.0,-63646.099999999999,-15845.5,-40987.300000000003,-5171.8900000000003,-10261.299999999999,-7116.6800000000003
173774.0,59677.900000000001,-99321.600000000006,-46473.099999999999,-69686.800000000003,-16152.700000000001,-12294.9,-8567.4899999999998
173775.0,73502.800000000003,-147754.0,-95687.100000000006,-112531.0,-29221.5,-12945.299999999999,-8574.2199999999993
173776.0,88907.399999999994,-205133.0,-168976.0,-173591.0,-44958.0,-13364.9,-6910.3999999999996
173777.0,102510.0,-248443.0,-250656.0,-240961.0,-55166.800000000003,-17604.0,-11119.5
173778.0,1953.9100000000001,1771.0799999999999,213.464,1004.53,-287.03199999999998,-738.66300000000001,194.89500000000001
173779.0,1917.6400000000001,1599.8800000000001,207.434,1019.3,-251.91800000000001,-798.83900000000006,187.04300000000001
173780.0,1892.52,1410.6300000000001,184.23400000000001,1025.7,-217.875,-848.33199999999999,182.66300000000001
173781.0,1870.03,1219.3599999999999,160.77799999999999,1041.1800000000001,-184.864,-882.75699999999995,176.06999999999999
173782.0,1853.5699999999999,1053.0,158.69999999999999,1088.6900000000001,-156.90700000000001,-903.26099999999997,164.56899999999999
173783.0,1839.75,894.12800000000004,160.62799999999999,1145.4100000000001,-131.98099999999999,-909.11099999999999,150.00299999999999
173784.0,1829.02,734.59100000000001,156.90299999999999,1199.23,-107.86499999999999,-901.37699999999995,135.31299999999999
173785.0,1820.1099999999999,576.27999999999997,148.28999999999999,1248.4400000000001,-85.081199999999995,-880.33100000000002,120.384
173786.0,1812.78,426.18200000000002,139.643,1297.27,-63.850700000000003,-846.70000000000005,104.48099999999999
173787.0,1806.29,279.51799999999997,125.77200000000001,1338.4100000000001,-43.8994,-801.21500000000003,88.269599999999997
173788.0,1800.9000000000001,146.34899999999999,115.346,1379.6700000000001,-27.737100000000002,-745.173,70.265100000000004
173789.0,1795.5899999999999,37.745399999999997,119.878,1430.51,-15.673500000000001,-679.11300000000006,50.592399999999998
173790.0,1792.26,-76.025899999999993,110.41200000000001,1459.4400000000001,-6.6273200000000001,-606.40999999999997,30.1981
173791.0,1789.71,-165.69499999999999,117.999,1494.8599999999999,-2.9296700000000002,-527.87900000000002,8.4489300000000007
173792.0,2082.0799999999999,1835.48,37.146799999999999,1072.3299999999999,-247.88800000000001,-679.27999999999997,327.84399999999999
173793.0,2034.4000000000001,1673.1199999999999,33.8215,1083.1900000000001,-206.75,-741.61699999999996,312.15499999999997
173794.0,1998.75,1506.8099999999999,26.251899999999999,1107.74,-170.339,-792.274,296.86799999999999
173795.0,1966.4200000000001,1357.0999999999999,38.4056,1159.28,-134.96000000000001,-828.86199999999997,279.22699999999998
173796.0,1939.5999999999999,1174.8800000000001,18.5122,1184.3399999999999,-102.34,-852.37400000000002,259.98200000000003
173797.0,1916.3599999999999,1003.87,8.3747100000000003,1222.9100000000001,-72.055199999999999,-861.92899999999997,238.77799999999999
173798.0,1897.24,836.95600000000002,-3.9940600000000002,1263.6600000000001,-44.161900000000003,-857.22799999999995,216.82300000000001
173799.0,1880.8800000000001,692.36000000000001,-0.77968599999999999,1322.29,-18.738399999999999,-838.71299999999997,193.59700000000001
173800.0,1866.8299999999999,550.178,-3.4243100000000002,1374.72,3.99776,-807.46900000000005,169.483
173801.0,1854.5,430.69799999999998,7.5358400000000003,1439.47,23.861699999999999,-764.09900000000005,144.161
173802.0,1843.28,313.012,11.3934,1492.3,40.811999999999998,-710.24599999999998,118.268
173803.0,1833.24,195.214,7.3251900000000001,1531.3699999999999,54.684399999999997,-646.81200000000001,91.371600000000001
173804.0,1822.0,96.387799999999999,17.8752,1571.55,64.580699999999993,-576.40800000000002,64.121899999999997
173805.0,1810.0699999999999,-15.1967,17.102599999999999,1584.8499999999999,69.307000000000002,-499.50099999999998,36.196800000000003
173806.0,2177.4200000000001,2050.7199999999998,95.675200000000004,1300.99,-269.43900000000002,-650.62300000000005,334.10599999999999
173807.0,2126.8400000000001,1909.8599999999999,108.845,1328.21,-227.661,-713.92200000000003,318.57799999999997
173808.0,2086.04,1713.1800000000001,68.886700000000005,1317.5599999999999,-190.50299999999999,-765.51900000000001,302.72699999999998
173809.0,2048.9400000000001,1551.0999999999999,65.720299999999995,1351.8499999999999,-154.46000000000001,-803.00300000000004,284.04000000000002
173810.0,2018.45,1375.5899999999999,46.980499999999999,1379.0599999999999,-120.173,-826.55899999999997,265.44
173811.0,1991.54,1243.7,69.505399999999995,1452.29,-87.819599999999994,-835.81399999999996,245.05500000000001
173812.0,1968.48,1072.7,49.024900000000002,1485.4300000000001,-58.429200000000002,-831.62800000000004,222.92099999999999
173813.0,1947.97,939.02099999999996,60.494599999999998,1551.0699999999999,-32.009300000000003,-814.26199999999994,198.60300000000001
173814.0,1929.79,774.79899999999998,34.6965,1578.45,-8.3696199999999994,-784.30999999999995,173.27500000000001
173815.0,1914.01,650.47799999999995,40.545299999999997,1635.4000000000001,12.2431,-742.90499999999997,146.58500000000001
173816.0,1898.8499999999999,501.589,13.8001,1654.23,30.2011,-690.74900000000002,119.36499999999999
173817.0,1885.75,408.99299999999999,36.436700000000002,1716.4100000000001,45.021500000000003,-629.79999999999995,90.952699999999993
173818.0,1868.3199999999999,268.07799999999997,10.955500000000001,1712.3199999999999,56.657600000000002,-561.45299999999997,63.281599999999997
173819.0,1851.1400000000001,160.62200000000001,27.6403,1732.8,63.729700000000001,-487.44499999999999,32.833599999999997
173820.0,2310.3299999999999,2234.25,80.056200000000004,1508.1300000000001,-281.13999999999999,-603.10400000000004,367.745
173821.0,2254.9400000000001,2071.1599999999999,64.102500000000006,1504.26,-238.185,-666.83399999999995,350.565
173822.0,2207.6999999999998,1918.0599999999999,62.221200000000003,1528.7,-197.994,-718.78700000000003,333.27600000000001
173823.0,2165.1399999999999,1765.0999999999999,62.169800000000002,1563.4300000000001,-159.65899999999999,-756.88800000000003,313.846
173824.0,2128.3099999999999,1598.9300000000001,48.465899999999998,1592.8800000000001,-123.913,-781.60199999999998,292.30700000000002
173825.0,2095.46,1426.27,26.078800000000001,1618.03,-90.705500000000001,-792.39099999999996,268.84800000000001
173826.0,2066.6100000000001,1274.0799999999999,20.7743,1663.3299999999999,-59.671900000000001,-789.86599999999999,243.84899999999999
173827.0,2041.0,1123.51,11.546799999999999,1705.3099999999999,-31.399000000000001,-774.32000000000005,217.65100000000001
173828.0,2017.9200000000001,994.96199999999999,18.154599999999999,1762.3599999999999,-5.7908400000000002,-746.33900000000006,189.881
173829.0,1997.6900000000001,866.178,16.245100000000001,1808.77,16.635300000000001,-707.12900000000002,161.059
173830.0,1977.99,761.00999999999999,31.078900000000001,1866.26,36.116799999999998,-657.16899999999998,131.35300000000001
173831.0,1960.3399999999999,628.697,12.6927,1883.7,52.865699999999997,-599.08100000000002,100.48699999999999
173832.0,1935.96,535.31200000000001,37.957900000000002,1924.47,64.854900000000001,-533.11900000000003,69.899199999999993
173833.0,1911.28,388.839,21.6768,1904.76,73.621399999999994,-463.07499999999999,36.489899999999999
173834.0,2446.3299999999999,2443.6500000000001,103.548,1739.1600000000001,-296.13499999999999,-559.12199999999996,391.48200000000003
173835.0,2387.0799999999999,2273.04,74.638099999999994,1719.0699999999999,-252.13900000000001,-623.48900000000003,373.81299999999999
173836.0,2334.9499999999998,2124.54,71.733400000000003,1740.4200000000001,-210.42599999999999,-675.43799999999999,354.72699999999998
173837.0,2288.8099999999999,1939.05,32.976700000000001,1735.22,-170.60400000000001,-714.23900000000003,334.06099999999998
173838.0,2247.2199999999998,1804.5699999999999,46.2209,1789.4200000000001,-133.155,-739.69899999999996,310.90300000000002
173839.0,2210.4000000000001,1644.96,32.072699999999998,1820.5699999999999,-98.177300000000002,-751.78899999999999,286.30599999999998
173840.0,2177.04,1513.3399999999999,42.970500000000001,1879.72,-65.898799999999994,-750.46699999999998,259.45100000000002
173841.0,2147.6599999999999,1355.1500000000001,21.774999999999999,1907.8,-36.206299999999999,-736.58100000000002,231.43299999999999
173842.0,2120.3800000000001,1228.6099999999999,26.819199999999999,1960.71,-9.4357100000000003,-710.31500000000005,201.63300000000001
173843.0,2096.8299999999999,1081.05,2.5266899999999999,1982.6700000000001,14.8529,-673.19399999999996,171.15299999999999
173844.0,2073.0900000000001,967.11400000000003,6.3542199999999998,2026.23,35.383499999999998,-625.43499999999995,139.131
173845.0,2051.4000000000001,847.86300000000006,-0.60604899999999995,2052.1100000000001,52.767699999999998,-569.92100000000005,105.806
173846.0,2021.3399999999999,733.00699999999995,4.31914,2068.1100000000001,66.241699999999994,-506.67200000000003,73.369900000000001
173847.0,1989.3099999999999,584.851,-10.011200000000001,2045.04,75.669499999999999,-440.21300000000002,37.3187
173848.0,2602.1700000000001,2640.0900000000001,101.688,1961.6500000000001,-312.62,-509.06700000000001,415.96199999999999
173849.0,2539.27,2464.8299999999999,61.997199999999999,1928.1199999999999,-267.31900000000002,-573.673,397.55500000000001
173850.0,2482.3899999999999,2337.8699999999999,74.937200000000004,1961.6600000000001,-224.01300000000001,-625.83900000000006,376.66199999999998
173851.0,2432.5300000000002,2174.8499999999999,52.513100000000001,1970.0599999999999,-182.869,-665.40499999999997,354.47500000000002
173852.0,2386.8800000000001,2034.8,54.000500000000002,2009.6700000000001,-143.93199999999999,-691.46699999999998,329.78100000000001
173853.0,2346.6900000000001,1860.98,19.4724,2018.47,-107.149,-704.68100000000004,303.75099999999998
173854.0,2309.27,1728.8199999999999,24.8338,2069.1399999999999,-73.2667,-704.77999999999997,275.19600000000003
173855.0,2276.29,1575.51,3.81162,2094.75,-42.0169,-692.74300000000005,245.34100000000001
173856.0,2245.1500000000001,1461.1500000000001,16.908100000000001,2152.6999999999998,-14.0853,-668.47799999999995,213.44800000000001
173857.0,2218.04,1329.52,4.8567799999999997,2184.1100000000001,10.6442,-633.69799999999998,180.32400000000001
173858.0,2190.5599999999999,1233.6600000000001,23.6877,2239.2399999999998,32.344299999999997,-588.577,146.28
173859.0,2165.0799999999999,1099.0999999999999,-0.69667100000000004,2244.29,51.756900000000002,-536.02999999999997,111.114
173860.0,2129.5100000000002,1008.64,28.441700000000001,2280.3800000000001,65.917400000000001,-475.97000000000003,76.364400000000003
173861.0,2090.3699999999999,853.94000000000005,8.4718499999999999,2247.2800000000002,77.934700000000007,-413.447,38.180799999999998
173862.0,2768.3099999999999,2849.79,113.19199999999999,2198.1700000000001,-330.04899999999998,-457.80000000000001,438.81299999999999
173863.0,2701.9499999999998,2672.2199999999998,64.898200000000003,2152.7199999999998,-283.43200000000002,-522.27800000000002,419.423
173864.0,2642.2600000000002,2552.4899999999998,77.7303,2183.3400000000001,-238.57300000000001,-574.38999999999999,397.423
173865.0,2589.8800000000001,2366.8400000000001,25.700299999999999,2160.4000000000001,-195.59299999999999,-614.35000000000002,374.25200000000001
173866.0,2541.1500000000001,2255.0999999999999,49.164999999999999,2219.3600000000001,-155.39599999999999,-641.19299999999998,347.86099999999999
173867.0,2497.8099999999999,2088.9699999999998,16.5594,2227.5300000000002,-117.473,-655.58199999999999,319.91800000000001
173868.0,2457.4299999999998,1979.78,38.807200000000002,2292.4099999999999,-82.501499999999993,-657.04200000000003,289.54700000000003
173869.0,2421.6199999999999,1817.71,3.4588299999999998,2301.3200000000002,-49.892699999999998,-646.67700000000002,257.83499999999998
173870.0,2387.6199999999999,1713.72,21.7376,2361.5599999999999,-20.594799999999999,-624.50900000000001,224.184
173871.0,2357.8299999999999,1562.47,-14.477499999999999,2366.0100000000002,6.4553500000000001,-592.10799999999995,189.61600000000001
173872.0,2327.4699999999998,1469.5999999999999,3.2321200000000001,2417.2399999999998,29.172499999999999,-549.596,153.38399999999999
173873.0,2298.75,1342.5899999999999,-17.0624,2423.6599999999999,48.940800000000003,-499.88900000000001,115.651
173874.0,2258.4000000000001,1242.5,1.2392700000000001,2445.04,64.595799999999997,-443.36099999999999,78.804400000000001
173875.0,2212.23,1078.3599999999999,-27.575399999999998,2399.02,76.623400000000004,-384.79000000000002,38.194200000000002
173876.0,2950.71,3048.9000000000001,105.998,2427.6399999999999,-349.125,-401.791,461.29700000000003
173877.0,2881.3000000000002,2893.3899999999999,72.707400000000007,2393.5,-300.779,-466.07799999999997,440.72000000000003
173878.0,2819.0999999999999,2768.1500000000001,72.877899999999997,2408.1799999999998,-254.83000000000001,-518.35500000000002,417.36900000000003
173879.0,2764.23,2623.1100000000001,54.148000000000003,2415.75,-210.749,-558.63699999999994,392.26100000000002
173880.0,2713.6199999999999,2488.3099999999999,46.796500000000002,2441.2399999999998,-169.14500000000001,-586.06799999999998,364.78500000000003
173881.0,2668.2399999999998,2338.0900000000001,22.730499999999999,2455.6500000000001,-129.55600000000001,-601.35599999999999,335.34899999999999
173882.0,2625.71,2208.27,17.675899999999999,2490.46,-93.141000000000005,-604.27099999999996,303.54399999999998
173883.0,2587.4499999999998,2075.0599999999999,5.1406400000000003,2519.2399999999998,-59.270000000000003,-595.72500000000002,269.81799999999998
173884.0,2551.1700000000001,1958.8900000000001,5.5274700000000001,2558.6300000000001,-28.877300000000002,-575.74400000000003,234.32499999999999
173885.0,2518.8899999999999,1845.23,1.62991,2592.4200000000001,-1.69983,-545.798,197.01300000000001
173886.0,2485.9400000000001,1744.45,7.2039499999999999,2627.9000000000001,22.347200000000001,-506.39800000000002,158.95099999999999
173887.0,2454.0500000000002,1627.26,-6.3493599999999999,2637.2399999999998,43.853700000000003,-460.14699999999999,119.37
173888.0,2409.5500000000002,1528.02,10.360099999999999,2653.3600000000001,60.480899999999998,-407.43799999999999,80.386799999999994
173889.0,2357.1799999999998,1384.8800000000001,1.7241599999999999,2623.5700000000002,74.931200000000004,-353.24000000000001,38.015099999999997
173890.0,3144.9000000000001,3258.1399999999999,105.20999999999999,2669.1300000000001,-368.98399999999998,-342.66199999999998,482.65699999999998
173891.0,3073.0799999999999,3121.48,83.308599999999998,2642.4400000000001,-319.70100000000002,-406.72500000000002,460.55700000000002
173892.0,3009.6999999999998,2988.8099999999999,67.356099999999998,2638.2600000000002,-272.125,-458.76499999999999,436.303
173893.0,2953.5,2846.79,43.502299999999998,2638.1700000000001,-226.822,-499.13799999999998,409.99900000000002
173894.0,2901.71,2720.8400000000001,36.833100000000002,2661.96,-183.83799999999999,-527.21000000000004,380.94900000000001
173895.0,2854.5,2591.02,25.904,2686.4000000000001,-143.59999999999999,-543.46199999999999,349.61000000000001
173896.0,2810.7399999999998,2469.46,21.3551,2719.0599999999999,-105.846,-547.82899999999995,316.08800000000002
173897.0,2770.8000000000002,2342.9299999999998,8.5757600000000007,2744.5300000000002,-71.084900000000005,-540.995,280.56900000000002
173898.0,2733.1300000000001,2228.8499999999999,4.2641299999999998,2776.2399999999998,-39.282899999999998,-523.37900000000002,243.215
173899.0,2698.9299999999998,2110.5999999999999,-9.8205399999999994,2796.2199999999998,-10.395099999999999,-496.13499999999999,204.446
173900.0,2664.6399999999999,2007.8499999999999,-12.234299999999999,2821.0,14.770099999999999,-459.755,164.22499999999999
173901.0,2630.4000000000001,1907.77,-13.4557,2839.3600000000001,36.450499999999998,-416.904,122.21599999999999
173902.0,2582.3899999999999,1794.47,-13.738300000000001,2834.7399999999998,54.589700000000001,-368.42700000000002,81.194999999999993
173903.0,2523.8200000000002,1649.7,-25.0596,2797.96,69.079099999999997,-318.85899999999998,36.340699999999998
173904.0,3352.52,3471.3400000000001,102.28400000000001,2917.0999999999999,-390.20800000000003,-279.524,502.57499999999999
173905.0,3279.0900000000001,3356.3000000000002,94.047200000000004,2900.3000000000002,-340.096,-343.03100000000001,479.50599999999997
173906.0,3214.8699999999999,3220.5500000000002,65.965699999999998,2880.98,-291.07799999999997,-394.97399999999999,453.75200000000001
173907.0,3157.73,3110.3699999999999,65.468100000000007,2901.0500000000002,-245.274,-435.279,426.01900000000001
173908.0,3105.7800000000002,2972.9200000000001,37.784700000000001,2901.4200000000001,-200.73699999999999,-463.86399999999998,395.471
173909.0,3057.9699999999998,2856.6799999999998,31.847000000000001,2927.9400000000001,-159.51300000000001,-480.78699999999998,363.01999999999998
173910.0,3013.8400000000001,2726.73,10.2346,2941.0300000000002,-120.352,-486.62700000000001,327.57999999999998
173911.0,2972.71,2620.4000000000001,10.258599999999999,2975.6799999999998,-84.805999999999997,-481.58699999999999,290.54700000000003
173912.0,2934.3600000000001,2504.3099999999999,-3.6322999999999999,2994.8800000000001,-51.756799999999998,-466.40899999999999,251.05699999999999
173913.0,2898.8200000000002,2411.5500000000002,1.1918200000000001,3030.0700000000002,-22.8278,-441.89600000000002,210.18700000000001
173914.0,2863.0900000000001,2311.3099999999999,-4.3777499999999998,3047.9200000000001,3.5040300000000002,-409.09500000000003,167.72499999999999
173915.0,2826.5300000000002,2211.3899999999999,-9.8302300000000002,3057.6300000000001,26.6189,-370.23599999999999,124.22
173916.0,2775.9499999999998,2110.6900000000001,-1.85606,3057.8000000000002,45.750999999999998,-326.21499999999997,80.979600000000005
173917.0,2712.1799999999998,1976.4400000000001,-4.7990199999999996,3025.0900000000001,62.6297,-281.64299999999997,34.517499999999998
173918.0,3571.6999999999998,3695.2399999999998,105.98,3178.4899999999998,-412.75900000000001,-212.84999999999999,521.19899999999996
173919.0,3497.2199999999998,3593.1999999999998,101.876,3161.7800000000002,-361.81999999999999,-275.52699999999999,496.93000000000001
173920.0,3433.2199999999998,3460.7199999999998,67.026399999999995,3132.8899999999999,-311.56700000000001,-327.03500000000003,470.036
173921.0,3376.27,3352.04,58.334699999999998,3141.9099999999999,-264.822,-367.08699999999999,441.22800000000001
173922.0,3324.6999999999998,3229.7399999999998,35.982799999999997,3145.1199999999999,-219.21000000000001,-396.08499999999998,409.00400000000002
173923.0,3276.8000000000002,3124.7399999999998,32.1569,3170.4699999999998,-177.44800000000001,-413.774,374.93599999999998
173924.0,3232.7800000000002,3011.4299999999998,17.9682,3187.96,-137.19399999999999,-421.06400000000002,337.68299999999999
173925.0,3191.5,2905.1500000000001,9.3878299999999992,3210.5300000000002,-100.895,-417.81900000000002,299.11000000000001
173926.0,3152.98,2803.5300000000002,1.7002600000000001,3232.5700000000002,-66.891400000000004,-405.18200000000002,257.51299999999998
173927.0,3116.8499999999999,2700.6100000000001,-10.999000000000001,3246.23,-36.568100000000001,-383.67899999999997,215.339
173928.0,3080.9000000000001,2611.5599999999999,-12.8009,3264.6100000000001,-9.25319,-354.36399999999998,170.703
173929.0,3043.1500000000001,2518.9499999999998,-17.101299999999998,3271.6100000000001,14.199999999999999,-319.56799999999998,125.172
173930.0,2989.98,2418.48,-13.095800000000001,3263.5,34.359699999999997,-280.49000000000001,79.657399999999996
173931.0,2921.5999999999999,2273.1199999999999,-29.810600000000001,3212.7199999999998,51.395899999999997,-241.363,31.175899999999999
173932.0,3802.3800000000001,3926.25,112.387,3449.75,-436.94799999999998,-142.09999999999999,538.33100000000002
173933.0,3727.6199999999999,3836.0900000000001,110.23,3431.2199999999998,-384.81799999999998,-203.91499999999999,512.72900000000004
173934.0,3664.0500000000002,3709.79,71.564499999999995,3395.0900000000001,-333.97800000000001,-254.816,484.81
173935.0,3608.04,3623.6799999999998,74.735100000000003,3413.1799999999998,-286.41399999999999,-294.608,454.32100000000003
173936.0,3557.5100000000002,3499.4699999999998,39.955199999999998,3400.9099999999999,-240.09200000000001,-323.72699999999998,420.93799999999999
173937.0,3510.7600000000002,3408.6799999999998,39.723999999999997,3427.0500000000002,-197.27199999999999,-342.12200000000001,385.33999999999997
173938.0,3467.6300000000001,3291.5500000000002,11.667999999999999,3427.4699999999998,-156.30500000000001,-350.63099999999997,346.62
173939.0,3426.8499999999999,3207.4000000000001,15.788600000000001,3459.1700000000001,-119.241,-349.37599999999998,306.11599999999999
173940.0,3388.6700000000001,3101.79,-4.7406100000000002,3464.5100000000002,-84.365200000000002,-339.27600000000001,262.98599999999999
173941.0,3352.6199999999999,3027.6700000000001,3.0646800000000001,3494.7600000000002,-53.895600000000002,-320.94999999999999,218.46299999999999
173942.0,3316.0900000000001,2936.4899999999998,-7.8600599999999998,3499.4299999999998,-25.9955,-295.59699999999998,171.971
173943.0,3277.5,2852.98,-9.4710599999999996,3504.75,-1.3293600000000001,-265.36399999999998,124.70099999999999
173944.0,3222.5999999999999,2756.77,-6.71861,3491.0700000000002,19.977499999999999,-231.44,77.410899999999998
173945.0,3150.8099999999999,2631.0900000000001,-7.4694799999999999,3452.2399999999998,39.161299999999997,-198.17400000000001,27.602699999999999
173946.0,4043.3200000000002,4154.71,112.66200000000001,3721.0900000000001,-462.31999999999999,-67.595500000000001,553.79200000000003
173947.0,3968.8499999999999,4091.2600000000002,126.64700000000001,3714.79,-409.36700000000002,-128.24299999999999,526.73299999999995
173948.0,3906.8200000000002,3957.21,69.013800000000003,3656.52,-357.92599999999999,-178.261,498.08300000000003
173949.0,3852.4099999999999,3892.2600000000002,81.916700000000006,3681.5100000000002,-309.59300000000002,-217.584,465.98099999999999
173950.0,3803.8099999999999,3766.6799999999998,34.3735,3653.54,-262.67399999999998,-246.714,431.56999999999999
173951.0,3758.4899999999998,3704.0300000000002,51.286200000000001,3693.54,-219.41900000000001,-265.77600000000001,393.928
173952.0,3716.7600000000002,3586.27,11.9186,3678.9099999999999,-177.803,-275.61599999999999,353.94499999999999
173953.0,3677.1999999999998,3522.5799999999999,26.106999999999999,3716.9699999999998,-140.15199999999999,-276.29399999999998,311.50299999999999
173954.0,3640.0999999999999,3415.3499999999999,-5.9369899999999998,3706.75,-104.79600000000001,-268.83600000000001,266.78399999999999
173955.0,3604.7199999999998,3354.0999999999999,5.65306,3736.46,-73.273499999999999,-253.88499999999999,220.53999999999999
173956.0,3568.8699999999999,3256.0,-20.879200000000001,3721.3299999999999,-44.332500000000003,-232.53999999999999,172.59800000000001
173957.0,3529.98,3200.6700000000001,-1.6331500000000001,3743.0,-19.6568,-207.08099999999999,122.985
173958.0,3473.75,3088.0999999999999,-21.147200000000002,3702.3600000000001,2.4338299999999999,-178.76599999999999,73.976399999999998
173959.0,3398.9899999999998,2974.9000000000001,-13.857699999999999,3667.23,21.593499999999999,-151.79400000000001,22.022200000000002
173960.0,4293.71,4392.4499999999998,119.124,4004.5300000000002,-488.779,10.740500000000001,567.09299999999996
173961.0,4220.3299999999999,4347.3100000000004,140.203,4001.0999999999999,-435.64100000000002,-48.4009,539.05200000000002
173962.0,4160.3299999999999,4217.2399999999998,74.615200000000002,3931.9499999999998,-383.43099999999998,-97.500299999999996,509.20999999999998
173963.0,4108.0799999999999,4175.1999999999998,98.457300000000004,3964.4099999999999,-334.95400000000001,-136.06999999999999,475.83499999999998
173964.0,4062.0799999999999,4051.3699999999999,40.308300000000003,3922.98,-287.46300000000002,-165.21700000000001,439.91699999999997
173965.0,4018.9299999999998,4004.73,61.3889,3963.4099999999999,-243.846,-184.68100000000001,400.98399999999998
173966.0,3979.77,3888.2800000000002,11.276999999999999,3934.9200000000001,-201.65100000000001,-195.78200000000001,359.36099999999999
173967.0,3941.71,3845.02,35.051499999999997,3978.02,-163.77199999999999,-198.38200000000001,315.33100000000002
173968.0,3906.25,3738.5700000000002,-6.7615999999999996,3953.8600000000001,-127.623,-193.803,268.98399999999998
173969.0,3871.7399999999998,3701.1799999999998,19.142900000000001,3992.8899999999999,-96.356099999999998,-182.31800000000001,220.77500000000001
173970.0,3836.8000000000002,3608.29,-11.214600000000001,3969.3099999999999,-67.242500000000007,-165.38200000000001,170.86099999999999
173971.0,3797.7800000000002,3558.3200000000002,5.63741,3983.25,-41.569600000000001,-145.07400000000001,119.797
173972.0,3741.3099999999999,3455.3200000000002,-11.482900000000001,3940.6500000000001,-18.390899999999998,-122.70099999999999,69.386499999999998
173973.0,3663.9299999999998,3355.71,4.4550999999999998,3909.1900000000001,2.9035099999999998,-102.45,15.831099999999999
173974.0,4552.4899999999998,4644.5699999999997,137.922,4305.1899999999996,-516.60699999999997,93.009600000000006,578.21400000000006
173975.0,4481.1199999999999,4596.6300000000001,143.86799999999999,4282.5699999999997,-463.21800000000002,35.432299999999998,549.44600000000003
173976.0,4423.5799999999999,4492.5900000000001,91.843599999999995,4223.7200000000003,-410.786,-12.309699999999999,518.24099999999999
173977.0,4374.5200000000004,4443.46,95.436000000000007,4232.7799999999997,-361.97800000000001,-50.102200000000003,483.78699999999998
173978.0,4331.4899999999998,4351.1199999999999,56.027900000000002,4206.8299999999999,-314.33499999999998,-78.942099999999996,446.41399999999999
173979.0,4291.4799999999996,4299.6300000000001,59.236400000000003,4225.8100000000004,-270.45400000000001,-98.860500000000002,406.08600000000001
173980.0,4254.6000000000004,4218.1000000000004,32.146900000000002,4216.0,-228.24199999999999,-111.217,362.755
173981.0,4219.1300000000001,4161.6300000000001,30.5121,4229.3500000000004,-189.89099999999999,-115.854,317.35899999999998
173982.0,4185.7700000000004,4091.96,14.1092,4225.9799999999996,-153.935,-114.017,269.12200000000001
173983.0,4153.0500000000002,4034.2800000000002,8.9226200000000002,4228.8800000000001,-121.61499999999999,-106.348,219.72399999999999
173984.0,4119.1899999999996,3971.7800000000002,-0.55308199999999996,4220.8800000000001,-92.043400000000005,-93.943399999999997,168.22399999999999
173985.0,4081.02,3914.5799999999999,0.102506,4213.5600000000004,-66.200400000000002,-79.117900000000006,115.416
173986.0,4024.0999999999999,3835.5500000000002,-0.23358400000000001,4182.3900000000003,-43.156500000000001,-63.055999999999997,63.094499999999996
173987.0,3945.4400000000001,3714.75,-11.9343,4118.8500000000004,-21.595099999999999,-49.988500000000002,7.9980799999999999
173988.0,4818.9300000000003,4902.7700000000004,161.381,4614.5600000000004,-546.06299999999999,179.21100000000001,587.03999999999996
173989.0,4750.0699999999997,4850.4799999999996,149.773,4570.5799999999999,-492.12200000000001,123.29600000000001,557.32000000000005
173990.0,4695.4300000000003,4770.9499999999998,109.482,4519.6099999999997,-440.00999999999999,77.139200000000002,525.21100000000001
173991.0,4650.3199999999997,4729.6899999999996,106.70399999999999,4519.3999999999996,-390.774,40.254399999999997,489.36200000000002
173992.0,4610.6999999999998,4652.4499999999998,69.174999999999997,4491.4200000000001,-343.61700000000002,11.959,450.77699999999999
173993.0,4574.4399999999996,4614.0900000000001,71.606399999999994,4506.0600000000004,-299.38999999999999,-8.4509399999999992,408.78500000000003
173994.0,4540.8000000000002,4536.9399999999996,35.816699999999997,4483.0299999999997,-257.36599999999999,-21.7346,364.40699999999998
173995.0,4508.3900000000003,4505.5699999999997,46.3812,4504.1199999999999,-218.86799999999999,-28.590800000000002,317.05099999999999
173996.0,4476.9200000000001,4431.4399999999996,14.2082,4479.1099999999997,-182.85599999999999,-29.691500000000001,267.74700000000001
173997.0,4446.6400000000003,4407.0,30.654699999999998,4498.6999999999998,-150.93700000000001,-25.9666,216.16200000000001
173998.0,4414.3299999999999,4340.6999999999998,7.00021,4470.6300000000001,-121.66,-18.2578,163.34399999999999
173999.0,4377.3299999999999,4303.6899999999996,18.2941,4468.4899999999998,-95.107100000000003,-9.3845500000000008,108.96599999999999
174000.0,4320.3500000000004,4218.7600000000002,4.1235900000000001,4417.6599999999999,-70.9619,0.00069117500000000004,55.801000000000002
174001.0,4240.7600000000002,4127.79,15.6402,4372.7600000000002,-47.784100000000002,5.37453,-0.44677899999999998
174002.0,5091.8500000000004,5149.21,172.32300000000001,4914.4799999999996,-576.399,269.13,593.47400000000005
174003.0,5026.0200000000004,5117.6300000000001,167.953,4873.8199999999997,-522.56899999999996,215.23500000000001,562.94799999999998
174004.0,4975.1899999999996,5045.3999999999996,120.866,4812.5200000000004,-470.78500000000003,170.81999999999999,529.654
174005.0,4934.2200000000003,5019.54,119.181,4809.96,-421.74400000000003,135.096,492.51900000000001
174006.0,4898.9399999999996,4956.4499999999998,81.309799999999996,4777.8900000000003,-374.79300000000001,107.419,452.82900000000001
174007.0,4866.71,4929.79,81.180700000000002,4785.7600000000002,-330.68000000000001,86.740899999999996,409.40800000000002
174008.0,4836.5,4874.9700000000003,54.214399999999998,4766.5299999999997,-289.22899999999998,72.262699999999995,363.49200000000002
174009.0,4807.5200000000004,4844.75,52.438600000000001,4770.1899999999996,-250.68899999999999,63.353499999999997,314.74799999999999
174010.0,4779.3800000000001,4797.3299999999999,33.770899999999997,4753.3599999999997,-215.10599999999999,59.300199999999997,264.053
174011.0,4751.25,4766.46,32.110199999999999,4748.6599999999999,-182.64099999999999,58.837600000000002,211.19900000000001
174012.0,4720.6300000000001,4720.3699999999999,17.9878,4723.7700000000004,-153.255,61.354500000000002,157.23099999999999
174013.0,4685.0200000000004,4688.1099999999997,23.9815,4710.2799999999997,-127.012,64.156700000000001,101.18600000000001
174014.0,4629.0500000000002,4620.1700000000001,17.627500000000001,4661.7200000000003,-103.242,66.464299999999994,46.685600000000001
174015.0,4549.4300000000003,4521.5799999999999,13.3857,4596.1700000000001,-79.806899999999999,63.759999999999998,-11.0634
174016.0,5369.9799999999996,5416.3800000000001,204.74799999999999,5237.9799999999996,-608.12099999999998,362.72199999999998,597.02499999999998
174017.0,5307.8599999999997,5371.4399999999996,172.529,5165.5299999999997,-554.44000000000005,311.08699999999999,565.77599999999995
174018.0,5261.2399999999998,5337.1300000000001,148.863,5123.8000000000002,-503.24400000000003,268.625,531.54499999999996
174019.0,5225.1400000000003,5305.54,126.181,5096.7399999999998,-454.32100000000003,234.27799999999999,493.37599999999998
174020.0,5194.3500000000004,5274.75,105.827,5077.8500000000004,-408.28699999999998,207.30500000000001,452.22300000000001
174021.0,5166.75,5248.5299999999997,91.105999999999995,5066.75,-364.524,186.465,407.37099999999998
174022.0,5140.8999999999996,5215.1599999999999,70.846400000000003,5049.1199999999999,-323.49299999999999,171.017,360.43400000000003
174023.0,5115.4700000000003,5195.1400000000003,65.439400000000006,5043.4300000000003,-285.40300000000002,159.88499999999999,310.05000000000001
174024.0,5090.0299999999997,5162.2600000000002,48.673099999999998,5021.8699999999999,-250.41800000000001,152.565,258.13099999999997
174025.0,5065.0900000000001,5146.7200000000003,49.342300000000002,5013.4499999999998,-218.607,147.93100000000001,203.691
174026.0,5037.0,5117.6400000000003,40.298900000000003,4987.1400000000003,-189.82300000000001,145.18600000000001,148.535
174027.0,5002.9899999999998,5087.3199999999997,37.591500000000003,4958.3199999999997,-163.066,141.44499999999999,91.494100000000003
174028.0,4947.6700000000001,5033.46,36.257100000000001,4908.3000000000002,-138.70099999999999,136.12299999999999,36.213200000000001
174029.0,4867.9799999999996,4944.0900000000001,33.286700000000003,4838.7600000000002,-114.18899999999999,124.932,-22.059000000000001
174030.0,5652.0900000000001,5657.1400000000003,212.386,5537.1800000000003,-640.76199999999994,459.94400000000002,598.09400000000005
174031.0,5594.2200000000003,5650.71,203.56399999999999,5484.4399999999996,-587.46100000000001,410.72800000000001,565.85000000000002
174032.0,5552.46,5607.3500000000004,155.666,5414.4899999999998,-537.34799999999996,370.517,530.774
174033.0,5521.5600000000004,5613.8500000000004,155.28800000000001,5406.0600000000004,-489.08800000000002,337.65100000000001,490.95499999999998
174034.0,5495.9200000000001,5576.3599999999997,112.73,5360.3299999999999,-443.82400000000001,311.64100000000002,449.16899999999998
174035.0,5473.2600000000002,5584.3800000000001,116.57599999999999,5362.96,-400.48599999999999,290.64999999999998,402.77800000000002
174036.0,5451.5100000000002,5552.7700000000004,83.576999999999998,5326.5100000000002,-360.79000000000002,274.14499999999998,354.55900000000003
174037.0,5430.5200000000004,5558.6199999999999,88.938999999999993,5325.8100000000004,-323.01600000000002,260.87299999999999,302.85000000000002
174038.0,5408.8999999999996,5528.7200000000003,60.944400000000002,5286.4200000000001,-288.64400000000001,250.42099999999999,250.126
174039.0,5386.5200000000004,5534.5900000000001,70.384900000000002,5279.4700000000003,-257.08100000000002,241.12100000000001,194.333
174040.0,5360.3900000000003,5501.0200000000004,45.319499999999998,5229.4899999999998,-228.72,232.68299999999999,138.40899999999999
174041.0,5328.4799999999996,5502.8699999999999,63.502600000000001,5214.6400000000003,-202.815,222.17599999999999,79.986900000000006
174042.0,5274.9300000000003,5442.0600000000004,44.684100000000001,5140.7700000000004,-178.773,209.01400000000001,23.939
174043.0,5196.46,5374.9899999999998,54.276200000000003,5078.6800000000003,-154.185,188.81700000000001,-35.097499999999997
174044.0,5936.8100000000004,5924.5600000000004,249.774,5865.8599999999997,-674.52099999999996,560.54300000000001,595.70100000000002
174045.0,5883.7700000000004,5905.6999999999998,212.58799999999999,5780.6599999999999,-621.98199999999997,514.07500000000005,562.76800000000003
174046.0,5847.2600000000002,5902.8599999999997,189.523,5731.4399999999996,-572.84199999999998,476.25599999999997,527.03899999999999
174047.0,5822.1000000000004,5901.4799999999996,164.78800000000001,5694.5799999999999,-525.20000000000005,445.15100000000001,486.24900000000002
174048.0,5801.8500000000004,5901.6499999999996,143.97200000000001,5665.6199999999999,-481.471,420.13600000000002,443.05500000000001
174049.0,5784.4200000000001,5909.0900000000001,131.256,5646.3400000000001,-439.197,399.173,395.19
174050.0,5767.7700000000004,5902.5100000000002,107.297,5612.8699999999999,-400.089,381.73399999999998,346.37200000000001
174051.0,5750.6599999999999,5916.75,106.495,5598.9700000000003,-363.61099999999999,366.14699999999999,293.01299999999998
174052.0,5732.4200000000001,5908.0699999999997,85.8566,5559.2799999999997,-330.49200000000002,352.209,239.22499999999999
174053.0,5713.6599999999999,5923.96,91.306100000000001,5541.0200000000004,-299.82799999999997,338.38900000000001,182.346
174054.0,5690.5500000000002,5913.6700000000001,76.509600000000006,5493.7299999999996,-272.12299999999999,324.12299999999999,125.746
174055.0,5660.3299999999999,5913.0,80.9011,5457.1099999999997,-246.26499999999999,306.38900000000001,66.687600000000003
174056.0,5608.1999999999998,5872.4099999999999,71.974599999999995,5385.9899999999998,-222.12,284.78800000000001,10.2746
174057.0,5530.4799999999996,5808.8999999999996,75.877700000000004,5312.2600000000002,-197.15100000000001,255.227,-49.057099999999998
174058.0,6222.3699999999999,6158.8000000000002,258.22000000000003,6162.9399999999996,-708.67499999999995,664.39200000000005,590.39999999999998
174059.0,6174.9499999999998,6187.6000000000004,252.363,6105.4099999999999,-657.56399999999996,620.92600000000004,556.83100000000002
174060.0,6144.2799999999997,6170.71,198.73699999999999,6021.5699999999997,-609.75800000000004,585.75099999999998,520.05600000000004
174061.0,6125.0100000000002,6215.2399999999998,203.30600000000001,6009.4200000000001,-563.69799999999998,556.53999999999996,477.82799999999997
174062.0,6110.6499999999996,6204.9799999999996,155.422,5948.1599999999999,-520.96500000000003,532.702,434.00999999999999
174063.0,6098.6999999999998,6249.4499999999998,163.19200000000001,5943.3000000000002,-479.77300000000002,511.84399999999999,385.02300000000002
174064.0,6086.6700000000001,6246.3400000000001,127.35599999999999,5890.9200000000001,-442.70699999999999,493.31599999999997,334.68000000000001
174065.0,6074.4399999999996,6286.4300000000003,136.31,5879.5900000000001,-406.86700000000002,475.58999999999997,280.68099999999998
174066.0,6060.21,6281.1599999999999,104.196,5820.5600000000004,-374.58499999999998,458.16399999999999,226.24600000000001
174067.0,6044.2299999999996,6320.0699999999997,119.325,5803.1899999999996,-345.04899999999998,439.351,168.40199999999999
174068.0,6023.46,6308.8800000000001,91.230999999999995,5733.8199999999997,-318.51499999999999,418.83800000000002,111.105
174069.0,5995.5,6338.3500000000004,113.786,5707.0500000000002,-293.78500000000003,393.67200000000003,51.366300000000003
174070.0,5945.6000000000004,6295.6199999999999,91.311300000000003,5615.1800000000003,-270.26299999999998,363.37200000000001,-5.3504399999999999
174071.0,5869.8800000000001,6253.29,105.337,5545.6899999999996,-245.16800000000001,323.98000000000002,-64.676699999999997
174072.0,6507.79,6433.25,312.72399999999999,6503.1099999999997,-743.88300000000004,771.34000000000003,581.09500000000003
174073.0,6466.2299999999996,6428.4099999999999,256.18299999999999,6390.3800000000001,-694.37599999999998,731.10199999999998,547.41600000000005
174074.0,6441.5299999999997,6474.6599999999999,248.94800000000001,6348.5299999999997,-647.87900000000002,698.71799999999996,509.68200000000002
174075.0,6428.6599999999999,6490.7299999999996,207.83199999999999,6285.6999999999998,-603.08500000000004,671.62,467.13499999999999
174076.0,6420.2799999999997,6539.2299999999996,201.905,6260.71,-562.38300000000004,649.05899999999997,421.529
174077.0,6414.0100000000002,6567.9300000000003,177.239,6216.7700000000004,-523.04100000000005,628.38300000000004,371.55700000000002
174078.0,6407.2799999999997,6604.3999999999996,164.30099999999999,6179.96,-486.73899999999998,608.93799999999999,320.661
174079.0,6399.1099999999997,6640.79,154.535,6141.3400000000001,-453.13400000000001,588.745,265.37799999999999
174080.0,6388.5600000000004,6673.25,145.55600000000001,6096.4899999999998,-422.84800000000001,567.66200000000003,209.78999999999999
174081.0,6376.1700000000001,6707.2600000000002,141.30099999999999,6050.8400000000001,-394.33499999999998,543.85400000000004,151.726
174082.0,6358.29,6732.04,135.77699999999999,5994.9099999999999,-368.71300000000002,516.97900000000004,94.070599999999999
174083.0,6332.29,6748.3299999999999,133.13999999999999,5933.7600000000002,-344.536,483.88999999999999,34.360500000000002
174084.0,6284.3100000000004,6737.8999999999996,131.703,5854.8900000000003,-321.59399999999999,444.45699999999999,-22.397099999999998
174085.0,6210.1599999999999,6688.9399999999996,128.60400000000001,5761.6899999999996,-296.57100000000003,394.83100000000002,-81.431600000000003
174086.0,6790.3199999999997,6655.6999999999998,322.70999999999998,6792.0100000000002,-779.12099999999998,881.005,568.72900000000004
174087.0,6755.6499999999996,6706.8100000000004,304.77800000000002,6714.4399999999996,-731.83000000000004,844.38900000000001,534.86099999999999
174088.0,6737.5799999999999,6735.8299999999999,262.62599999999998,6633.2200000000003,-687.12599999999998,814.93700000000001,495.81999999999999
174089.0,6731.2799999999997,6802.1199999999999,254.61799999999999,6598.1099999999997,-644.89300000000003,790.23299999999995,452.18299999999999
174090.0,6728.8800000000001,6840.5699999999997,221.411,6539.4099999999999,-605.42399999999998,768.92100000000005,405.77800000000002
174091.0,6728.3299999999999,6902.5100000000002,213.08799999999999,6504.3199999999997,-567.85500000000002,748.55700000000002,355.339
174092.0,6726.3599999999997,6951.8999999999996,197.25299999999999,6456.2399999999998,-534.33699999999999,727.97699999999998,302.54000000000002
174093.0,6723.1599999999999,7004.71,187.36099999999999,6408.7299999999996,-501.68599999999998,705.59299999999996,247.51499999999999
174094.0,6716.46,7048.9399999999996,174.92699999999999,6350.96,-472.48200000000003,680.66300000000001,191.40600000000001
174095.0,6706.9099999999999,7098.8900000000003,172.90600000000001,6297.1499999999996,-445.99700000000001,651.56299999999999,132.96100000000001
174096.0,6691.3000000000002,7135.5100000000002,166.52199999999999,6230.0900000000001,-422.25400000000002,617.83900000000006,74.680099999999996
174097.0,6667.4300000000003,7169.8599999999997,169.696,6164.9200000000001,-399.47500000000002,576.70600000000002,15.249499999999999
174098.0,6621.6599999999999,7171.1899999999996,168.27099999999999,6077.5900000000001,-377.47000000000003,527.68200000000002,-41.457099999999997
174099.0,6550.0900000000001,7131.1499999999996,162.13399999999999,5974.79,-352.50900000000001,467.44400000000002,-99.419499999999999
174100.0,7069.4899999999998,6922.8299999999999,386.65499999999997,7128.3999999999996,-815.32100000000003,993.46699999999998,552.27200000000005
174101.0,7041.5100000000002,6936.6499999999996,313.28800000000001,6990.9099999999999,-770.13199999999995,960.36099999999999,518.14499999999998
174102.0,7030.1300000000001,7032.2799999999997,320.20100000000002,6953.6499999999996,-727.34299999999996,934.221,478.49599999999998
174103.0,7030.3100000000004,7069.9200000000001,266.113,6866.4700000000003,-686.92899999999997,911.75999999999999,434.68599999999998
174104.0,7034.3500000000004,7165.6000000000004,272.67899999999997,6840.6899999999996,-650.04700000000003,892.13400000000001,386.60000000000002
174105.0,7039.4899999999998,7219.8800000000001,239.99000000000001,6773.2399999999998,-615.22400000000005,871.94299999999998,335.28899999999999
174106.0,7042.71,7297.4399999999996,235.24700000000001,6727.1700000000001,-582.50699999999995,850.50400000000002,282.392
174107.0,7043.2600000000002,7360.4700000000003,220.846,6664.8599999999997,-553.29399999999998,825.41399999999999,226.16999999999999
174108.0,7040.0799999999999,7432.5600000000004,221.48400000000001,6609.3699999999999,-526.62199999999996,796.59799999999996,169.18100000000001
174109.0,7033.6599999999999,7487.79,210.43799999999999,6535.8599999999997,-501.55599999999998,762.04300000000001,111.22
174110.0,7020.6099999999997,7546.6099999999997,212.721,6466.5900000000001,-478.76299999999998,721.40099999999995,53.162799999999997
174111.0,6998.5500000000002,7582.1400000000003,204.96899999999999,6379.8699999999999,-457.25599999999997,671.73099999999999,-5.5113099999999999
174112.0,6954.8000000000002,7602.3199999999997,210.61799999999999,6290.3100000000004,-436.04000000000002,612.82399999999996,-61.811599999999999
174113.0,6885.4099999999999,7570.71,201.673,6177.5900000000001,-412.04300000000001,541.53800000000001,-118.468
174114.0,7341.6199999999999,7107.8500000000004,379.28500000000003,7382.2700000000004,-850.87400000000002,1107.74,532.56799999999998
174115.0,7321.3500000000004,7223.8299999999999,390.50999999999999,7326.04,-808.77599999999995,1079.05,497.87599999999998
174116.0,7317.3000000000002,7262.1000000000004,321.25900000000001,7207.5299999999997,-768.15899999999999,1055.8699999999999,457.733
174117.0,7324.3800000000001,7388.2700000000004,338.649,7185.6099999999997,-731.19500000000005,1036.49,412.33199999999999
174118.0,7334.3699999999999,7441.5100000000002,285.089,7091.75,-695.93799999999999,1017.95,364.09100000000001
174119.0,7344.6599999999999,7555.9099999999999,296.303,7058.8500000000004,-663.553,998.36300000000006,312.214
174120.0,7352.6999999999998,7625.8400000000001,267.77999999999997,6979.0799999999999,-634.37900000000002,975.54399999999998,257.803
174121.0,7357.6499999999996,7723.9899999999998,272.37799999999999,6925.0,-606.42700000000002,948.31799999999998,202.214
174122.0,7357.8900000000003,7786.4200000000001,248.07499999999999,6833.3299999999999,-580.92999999999995,915.12800000000004,145.49600000000001
174123.0,7353.6000000000004,7879.0200000000004,261.452,6771.6899999999996,-558.92600000000004,875.03499999999997,87.283199999999994
174124.0,7342.4700000000003,7933.3500000000004,246.60499999999999,6673.3699999999999,-538.48400000000004,826.84400000000005,29.321300000000001
174125.0,7321.7200000000003,8002.8800000000001,261.41000000000003,6597.2700000000004,-519.08100000000002,768.58699999999999,-28.6113
174126.0,7280.1000000000004,8019.4700000000003,251.47200000000001,6482.5600000000004,-498.95299999999997,699.21199999999999,-83.938599999999994
174127.0,7213.5299999999997,8012.4799999999996,254.79599999999999,6374.54,-475.54500000000002,616.71400000000006,-138.739
174128.0,7605.6099999999997,7362.8599999999997,456.435,7709.9700000000003,-886.45600000000002,1224.3099999999999,508.14699999999999
174129.0,7593.5100000000002,7433.3400000000001,401.94999999999999,7582.9700000000003,-848.03999999999996,1199.3900000000001,473.75400000000002
174130.0,7596.6899999999996,7545.8800000000001,389.49000000000001,7516.3900000000003,-809.38300000000004,1180.24,432.74099999999999
174131.0,7609.6899999999996,7638.4899999999998,355.99799999999999,7435.3000000000002,-775.25300000000004,1162.96,387.548
174132.0,7626.2200000000003,7751.3199999999997,344.82600000000002,7376.1599999999999,-742.86900000000003,1146.48,337.721
174133.0,7641.8900000000003,7860.4099999999999,334.05900000000003,7311.1199999999999,-714.08199999999999,1127.0899999999999,285.33499999999998
174134.0,7654.3500000000004,7951.8599999999997,310.66500000000002,7225.6899999999996,-685.75199999999995,1103.26,231.203
174135.0,7662.25,8067.8000000000002,319.11900000000003,7162.6300000000001,-662.38199999999995,1073.1300000000001,174.68000000000001
174136.0,7665.6899999999996,8155.2200000000003,305.44400000000002,7069.21,-640.17899999999997,1035.79,117.322
174137.0,7663.3900000000003,8254.2700000000004,311.77999999999997,6987.3000000000002,-619.76999999999998,989.73900000000003,60.4285
174138.0,7654.2399999999998,8324.5499999999993,299.83600000000001,6879.46,-600.48400000000004,934.13300000000004,3.4169900000000002
174139.0,7634.4200000000001,8400.5200000000004,309.637,6785.54,-582.65999999999997,866.70399999999995,-53.053199999999997
174140.0,7594.8900000000003,8430.5100000000002,301.274,6662.2600000000002,-563.93499999999995,786.81200000000001,-107.09099999999999
174141.0,7530.5299999999997,8439.1000000000004,308.67500000000001,6549.7799999999997,-541.80399999999997,692.56700000000001,-160.06100000000001
174142.0,7858.96,7539.6300000000001,468.75599999999997,7956.4300000000003,-921.904,1342.0899999999999,480.20499999999998
174143.0,7854.6800000000003,7685.3900000000003,472.75700000000001,7885.04,-886.31700000000001,1321.77,445.74400000000003
174144.0,7865.71,7771.79,414.291,7765.9200000000001,-851.30700000000002,1305.8399999999999,404.11399999999998
174145.0,7885.6400000000003,7920.1999999999998,420.13999999999999,7717.3500000000004,-820.404,1292.1600000000001,357.95999999999998
174146.0,7907.5699999999997,8026.6199999999999,385.07499999999999,7624.1400000000003,-790.90800000000002,1276.6099999999999,307.81599999999997
174147.0,7927.2200000000003,8155.1000000000004,378.94400000000002,7552.3199999999997,-764.63499999999999,1257.8699999999999,255.304
174148.0,7944.2700000000004,8283.9599999999991,377.08100000000002,7476.4700000000003,-741.19299999999998,1232.5599999999999,199.738
174149.0,7955.1700000000001,8387.25,357.95400000000001,7372.7200000000003,-718.58399999999995,1199.99,144.69800000000001
174150.0,7960.6099999999997,8506.0300000000007,361.74400000000003,7282.8699999999999,-698.23099999999999,1157.8299999999999,88.132900000000006
174151.0,7959.6400000000003,8601.8600000000006,352.863,7171.2299999999996,-681.33199999999999,1105.8699999999999,31.542200000000001
174152.0,7951.2200000000003,8711.0900000000001,368.66899999999998,7076.7600000000002,-665.57399999999996,1042.1600000000001,-24.911999999999999
174153.0,7931.9899999999998,8777.4699999999993,358.14999999999998,6948.9700000000003,-649.83500000000004,965.57100000000003,-79.699399999999997
174154.0,7893.7600000000002,8846.2099999999991,377.48500000000001,6841.8999999999996,-632.96199999999999,874.56600000000003,-132.05000000000001
174155.0,7832.3400000000001,8836.1900000000005,353.84800000000001,6690.21,-611.50599999999997,768.50099999999998,-182.17099999999999
174156.0,8097.2200000000003,7757.9099999999999,544.93600000000004,8250.1599999999999,-956.95500000000004,1460.1099999999999,447.988
174157.0,8104.3199999999997,7882.9399999999996,503.26999999999998,8129.1499999999996,-924.25,1445.48,413.12799999999999
174158.0,8121.1800000000003,8016.5,477.94999999999999,8036.8699999999999,-893.22799999999995,1433.0899999999999,371.91899999999998
174159.0,8147.5799999999999,8162.3000000000002,461.80799999999999,7956.8500000000004,-864.66300000000001,1421.96,324.81200000000001
174160.0,8174.4700000000003,8292.6000000000004,436.62400000000002,7863.4499999999998,-839.63800000000003,1408.51,274.56299999999999
174161.0,8199.6499999999996,8455.7099999999991,447.14699999999999,7796.6599999999999,-816.34500000000003,1389.8499999999999,221.03
174162.0,8218.3600000000006,8557.8500000000004,405.89600000000002,7667.0900000000001,-794.86800000000005,1363.3199999999999,167.01400000000001
174163.0,8232.3099999999995,8729.3799999999992,440.77199999999999,7603.04,-777.44200000000001,1327.55,110.467
174164.0,8239.3899999999994,8825.1000000000004,409.30500000000001,7462.75,-761.22400000000005,1281.1199999999999,54.585900000000002
174165.0,8239.3099999999995,8972.8600000000006,439.68099999999998,7375.0900000000001,-745.84000000000003,1222.48,-0.53736600000000001
174166.0,8230.8500000000004,9045.1000000000004,407.72199999999998,7217.6000000000004,-731.28200000000004,1150.98,-54.5383
174167.0,8211.6499999999996,9167.4300000000003,442.834,7120.9300000000003,-717.69600000000003,1064.48,-107.571
174168.0,8174.1999999999998,9198.0,413.64100000000002,6953.0299999999997,-702.25900000000001,962.54300000000001,-157.33799999999999
174169.0,8115.1000000000004,9255.4400000000005,446.06200000000001,6848.1899999999996,-682.83000000000004,843.95000000000005,-204.72399999999999
174170.0,8319.5599999999995,7933.3199999999997,598.28599999999994,8498.9099999999999,-989.39800000000002,1581.0599999999999,411.42099999999999
174171.0,8338.1000000000004,8082.1300000000001,556.39700000000005,8376.8500000000004,-962.00199999999995,1568.3599999999999,377.15199999999999
174172.0,8360.4599999999991,8233.1299999999992,533.74699999999996,8277.5300000000007,-934.09100000000001,1561.8699999999999,335.18200000000002
174173.0,8394.8099999999995,8396.3199999999997,516.09500000000003,8189.3000000000002,-909.86599999999999,1552.55,287.81099999999998
174174.0,8424.6700000000001,8553.25,503.76499999999999,8094.7700000000004,-887.72900000000004,1541.4200000000001,237.369
174175.0,8453.2000000000007,8703.1399999999994,486.72899999999998,7987.6599999999999,-868.29700000000003,1522.1500000000001,183.661
174176.0,8475.2700000000004,8874.6100000000006,500.71600000000001,7898.3000000000002,-851.74400000000003,1494.8900000000001,129.05799999999999
174177.0,8489.9599999999991,8998.9500000000007,475.601,7758.6400000000003,-835.26700000000005,1455.5,74.395300000000006
174178.0,8496.4799999999996,9150.1100000000006,488.71600000000001,7645.3100000000004,-821.30499999999995,1404.1300000000001,20.139600000000002
174179.0,8496.4699999999993,9270.4599999999991,481.44799999999998,7503.5900000000001,-810.12099999999998,1338.9100000000001,-34.247999999999998
174180.0,8487.4099999999999,9405.9599999999991,503.35000000000002,7382.9700000000003,-799.74900000000002,1259.0699999999999,-86.789900000000003
174181.0,8467.3999999999996,9494.5799999999999,495.89400000000001,7228.21,-788.59500000000003,1162.77,-137.405
174182.0,8430.3199999999997,9584.1299999999992,515.92499999999995,7096.3199999999997,-775.35000000000002,1049.3399999999999,-184.26599999999999
174183.0,8373.5400000000009,9600.6900000000005,495.97699999999998,6929.6099999999997,-756.81299999999999,918.43499999999995,-228.14099999999999
174184.0,8524.6499999999996,8104.2200000000003,666.67899999999997,8740.0,-1021.15,1701.01,370.25700000000001
174185.0,8552.0400000000009,8253.9200000000001,607.78200000000004,8598.5300000000007,-998.298,1692.1400000000001,336.97000000000003
174186.0,8582.1700000000001,8436.8799999999992,598.07399999999996,8503.7000000000007,-974.05499999999995,1690.3299999999999,294.59899999999999
174187.0,8620.5599999999995,8607.9200000000001,574.52099999999996,8398.9599999999991,-953.86900000000003,1683.3199999999999,247.16900000000001
174188.0,8655.25,8780.2999999999993,562.05999999999995,8291.4699999999993,-935.85799999999995,1674.24,196.30600000000001
174189.0,8686.6499999999996,8966.7700000000004,567.82100000000003,8192.9099999999999,-919.88599999999997,1654.9200000000001,142.93799999999999
174190.0,8708.4200000000001,9106.0,538.529,8042.54,-905.86800000000005,1625.77,89.420500000000004
174191.0,8724.9099999999999,9300.7700000000004,571.87599999999998,7944.8400000000001,-895.20299999999997,1583.23,34.559600000000003
174192.0,8731.5300000000007,9429.7199999999993,552.20799999999997,7780.9099999999999,-885.40899999999999,1526.99,-18.733899999999998
174193.0,8729.6399999999994,9593.0,578.63499999999999,7654.4700000000003,-875.89800000000002,1454.6500000000001,-70.425700000000006
174194.0,8718.1100000000006,9693.3199999999997,557.45899999999995,7472.71,-866.822,1366.3,-119.949
174195.0,8696.2999999999993,9828.7199999999993,588.96299999999997,7340.0699999999997,-857.94500000000005,1259.8,-167.52199999999999
174196.0,8658.3600000000006,9887.1299999999992,569.82600000000002,7154.6400000000003,-846.72500000000002,1134.8099999999999,-211.126
174197.0,8603.2099999999991,9961.5799999999999,597.63400000000001,7025.0900000000001,-830.61699999999996,991.14400000000001,-251.053
174198.0,8710.8299999999999,8230.2999999999993,710.70899999999995,8932.8600000000006,-1051.1400000000001,1818.77,326.22800000000001
174199.0,8742.2199999999993,8419.1800000000003,682.42899999999997,8814.4599999999991,-1032.6400000000001,1816.54,292.21699999999998
174200.0,8783.0300000000007,8609.9799999999996,656.07000000000005,8697.5100000000002,-1012.73,1817.3499999999999,250.27600000000001
174201.0,8823.9400000000005,8802.2099999999991,643.94000000000005,8590.9899999999998,-996.85299999999995,1814.6199999999999,202.76400000000001
174202.0,8862.5400000000009,8994.6000000000004,635.07600000000002,8473.5100000000002,-982.37699999999995,1805.8399999999999,151.81899999999999
174203.0,8893.8199999999997,9173.8400000000001,624.88499999999999,8341.2900000000009,-971.298,1787.02,98.661699999999996
174204.0,8917.9899999999998,9373.4799999999996,642.07399999999996,8220.9099999999999,-961.49599999999998,1755.8199999999999,45.352400000000003
174205.0,8930.7000000000007,9522.9200000000001,623.29700000000003,8050.3199999999997,-952.86199999999997,1709.49,-7.1478900000000003
174206.0,8934.8799999999992,9696.2800000000007,639.38800000000003,7902.2200000000003,-945.64300000000003,1647.4000000000001,-58.445099999999996
174207.0,8930.5699999999997,9841.2099999999991,640.91999999999996,7731.25,-940.91800000000001,1568.3299999999999,-108.212
174208.0,8916.7700000000004,9993.2299999999996,664.38099999999997,7575.0200000000004,-935.87,1471.1199999999999,-155.49000000000001
174209.0,8891.7299999999996,10103.299999999999,665.12,7393.3299999999999,-929.851,1354.48,-199.38399999999999
174210.0,8852.7700000000004,10206.5,683.11900000000003,7230.0900000000001,-920.60199999999998,1217.71,-239.15799999999999
174211.0,8798.7099999999991,10249.799999999999,670.25300000000004,7048.8699999999999,-905.68600000000004,1061.49,-274.19999999999999
174212.0,8869.2399999999998,8314.6599999999999,745.452,9087.7299999999996,-1078.1199999999999,1932.53,277.09199999999998
174213.0,8908.8199999999997,8577.8400000000001,777.24400000000003,9018.75,-1064.8900000000001,1941.0899999999999,243.958
174214.0,8957.7800000000007,8741.8500000000004,704.50300000000004,8852.1800000000003,-1049.3800000000001,1942.3299999999999,201.98599999999999
174215.0,9000.6299999999992,8985.8500000000004,733.553,8769.0900000000001,-1038.0599999999999,1944.9300000000001,154.541
174216.0,9042.7600000000002,9159.8700000000008,692.20500000000004,8607.2800000000007,-1027.9000000000001,1935.8099999999999,103.66500000000001
174217.0,9073.2000000000007,9390.6900000000005,724.21799999999996,8496.3099999999995,-1020.1900000000001,1917.98,51.799100000000003
174218.0,9095.3999999999996,9546.1900000000005,688.572,8304.6100000000006,-1014.03,1883.26,-0.64549400000000001
174219.0,9106.8899999999994,9768.3600000000006,734.27599999999995,8177.0299999999997,-1010.62,1834.1800000000001,-51.749200000000002
174220.0,9108.4099999999999,9916.9799999999996,718.47400000000005,7977.3699999999999,-1007.3099999999999,1765.8900000000001,-101.43899999999999
174221.0,9098.3600000000006,10093.799999999999,747.74800000000005,7811.0100000000002,-1004.52,1679.5699999999999,-147.441
174222.0,9079.1499999999996,10214.799999999999,736.40300000000002,7599.6899999999996,-1001.1799999999999,1572.9300000000001,-191.16999999999999
174223.0,9049.3700000000008,10356.5,765.14400000000001,7425.7299999999996,-997.47500000000002,1446.0999999999999,-230.71000000000001
174224.0,9007.7399999999998,10440.4,758.88300000000004,7222.29,-990.75999999999999,1297.3399999999999,-266.39100000000002
174225.0,8953.8500000000004,10525.0,779.702,7062.04,-978.471,1128.49,-296.29500000000002
174226.0,8995.7299999999996,8434.6700000000001,858.29600000000005,9283.2700000000004,-1100.6500000000001,2048.3899999999999,223.73599999999999
174227.0,9050.1700000000001,8656.6900000000005,817.64499999999998,9138.6399999999994,-1095.0,2060.46,192.33500000000001
174228.0,9101.7000000000007,8890.3500000000004,807.827,9024.1200000000008,-1083.1400000000001,2067.8400000000001,149.63200000000001
174229.0,9150.0,9102.5100000000002,786.54999999999995,8877.8500000000004,-1076.6900000000001,2071.6399999999999,103.553
174230.0,9190.2199999999993,9333.1399999999994,796.49000000000001,8748.2099999999991,-1070.5599999999999,2064.8200000000002,52.233699999999999
174231.0,9220.2299999999996,9528.0599999999995,781.78999999999996,8570.9899999999998,-1068.1099999999999,2045.1199999999999,1.3896299999999999
174232.0,9238.8999999999996,9757.9599999999991,815.32799999999997,8426.4300000000003,-1065.72,2008.8299999999999,-50.095599999999997
174233.0,9244.6200000000008,9916.3899999999994,792.32899999999995,8206.6800000000003,-1065.3499999999999,1954.22,-98.4011
174234.0,9239.6100000000006,10117.799999999999,827.10900000000004,8033.6199999999999,-1065.21,1880.24,-145.58099999999999
174235.0,9224.4500000000007,10264.299999999999,822.78399999999999,7811.3800000000001,-1066.72,1786.0899999999999,-188.274
174236.0,9199.4599999999991,10440.4,864.89099999999996,7631.1700000000001,-1067.24,1670.73,-228.637
174237.0,9164.0200000000004,10548.0,857.71799999999996,7400.71,-1066.1800000000001,1533.24,-263.26799999999997
174238.0,9118.7000000000007,10676.1,892.11400000000003,7220.4300000000003,-1061.3299999999999,1372.9400000000001,-293.88999999999999
174239.0,9064.4099999999999,10723.4,868.71000000000004,7003.6000000000004,-1050.1199999999999,1191.3800000000001,-317.75900000000001
174240.0,9092.1599999999999,8488.1000000000004,935.745,9401.5799999999999,-1121.0,2163.5700000000002,166.12799999999999
174241.0,9158.8700000000008,8740.0100000000002,902.173,9268.0499999999993,-1121.03,2176.3299999999999,136.947
174242.0,9214.1100000000006,8973.0,879.17899999999997,9123.8799999999992,-1113.6099999999999,2190.8099999999999,94.176400000000001
174243.0,9264.7399999999998,9220.8799999999992,883.09100000000001,8990.8500000000004,-1112.98,2195.3299999999999,48.3962
174244.0,9303.6599999999999,9436.6100000000006,869.346,8815.5900000000001,-1110.22,2190.6700000000001,-2.0754999999999999
174245.0,9330.6499999999996,9673.3299999999999,890.20600000000002,8653.7900000000009,-1111.9000000000001,2169.1900000000001,-51.047699999999999
174246.0,9343.3999999999996,9859.8600000000006,876.39599999999996,8436.2099999999991,-1113.0999999999999,2130.04,-101.108
174247.0,9343.5599999999995,10085.4,917.774,8257.6399999999994,-1117.28,2070.6399999999999,-146.83799999999999
174248.0,9330.9500000000007,10252.5,917.154,8023.54,-1120.3399999999999,1990.1900000000001,-191.09100000000001
174249.0,9306.5400000000009,10430.799999999999,946.12099999999998,7809.6800000000003,-1124.3699999999999,1887.8299999999999,-229.47499999999999
174250.0,9272.2800000000007,10564.0,947.25900000000001,7563.9099999999999,-1126.6300000000001,1763.03,-265.18200000000002
174251.0,9229.1000000000004,10706.0,976.13300000000004,7347.3100000000004,-1128.04,1615.1900000000001,-294.51799999999997
174252.0,9178.0599999999995,10803.700000000001,979.94899999999996,7117.1800000000003,-1125.6900000000001,1443.0599999999999,-319.72199999999998
174253.0,9122.0200000000004,10898.1,999.91300000000001,6929.7700000000004,-1117.5,1249.04,-337.44
174254.0,9155.5799999999999,8502.0,1006.45,9476.4899999999998,-1137.29,2270.9899999999998,107.65300000000001
174255.0,9231.3099999999995,8785.2199999999993,991.17600000000004,9357.0,-1142.25,2291.6100000000001,77.036600000000007
174256.0,9291.9799999999996,9033.3999999999996,966.93899999999996,9200.8799999999992,-1141.02,2308.2800000000002,36.031500000000001
174257.0,9342.3299999999999,9283.6000000000004,966.56899999999996,9045.5300000000007,-1143.6099999999999,2317.0100000000002,-9.1563800000000004
174258.0,9379.0599999999995,9524.1299999999992,969.75300000000004,8866.2900000000009,-1146.47,2311.5999999999999,-58.805199999999999
174259.0,9399.2700000000004,9749.3999999999996,978.21799999999996,8666.0200000000004,-1152.74,2289.1599999999999,-106.997
174260.0,9404.9599999999991,9978.1299999999992,1004.11,8462.8400000000001,-1157.9000000000001,2245.6300000000001,-154.51599999999999
174261.0,9394.7099999999991,10158.9,1003.41,8213.8500000000004,-1165.46,2180.9699999999998,-197.42599999999999
174262.0,9371.5599999999995,10354.9,1034.48,7984.5699999999997,-1171.76,2092.9299999999998,-237.81899999999999
174263.0,9336.2399999999998,10513.4,1048.8499999999999,7729.1300000000001,-1179.26,1982.6700000000001,-271.911
174264.0,9292.3199999999997,10679.4,1086.9400000000001,7495.4399999999996,-1184.6099999999999,1848.5799999999999,-302.50700000000001
174265.0,9239.6200000000008,10797.200000000001,1096.21,7235.1400000000003,-1188.27,1690.54,-326.00900000000001
174266.0,9182.1399999999994,10918.0,1124.3699999999999,7009.8800000000001,-1187.24,1506.95,-344.536
174267.0,9123.4200000000001,10985.0,1114.26,6777.9399999999996,-1180.0799999999999,1300.8599999999999,-355.202
174268.0,9177.7000000000007,8473.1100000000006,1084.4300000000001,9513.9500000000007,-1148.02,2373.7600000000002,43.784599999999998
174269.0,9266.9200000000001,8809.9300000000003,1097.6900000000001,9418.4300000000003,-1158.9000000000001,2401.6799999999998,14.788600000000001
174270.0,9329.8700000000008,9030.8400000000001,1039.72,9217.0,-1163.3,2422.4299999999998,-24.8108
174271.0,9380.7099999999991,9338.6100000000006,1086.0,9088.5599999999995,-1170.8399999999999,2433.48,-70.734499999999997
174272.0,9411.1900000000005,9539.8299999999999,1049.3800000000001,8845.75,-1178.0999999999999,2428.23,-117.501
174273.0,9425.3799999999992,9813.7999999999993,1101.74,8662.9200000000001,-1186.8299999999999,2403.7199999999998,-163.97999999999999
174274.0,9419.3999999999996,9987.1900000000005,1076.75,8379.7999999999993,-1196.4300000000001,2355.3800000000001,-208.38
174275.0,9396.9899999999998,10232.9,1145.1300000000001,8170.1099999999997,-1206.6700000000001,2284.27,-248.422
174276.0,9360.3700000000008,10379.0,1134.0599999999999,7869.8400000000001,-1216.3599999999999,2188.5,-283.92000000000002
174277.0,9311.3799999999992,10569.299999999999,1188.5,7625.9799999999996,-1225.71,2069.5100000000002,-313.392
174278.0,9253.6000000000004,10679.299999999999,1180.9200000000001,7319.0500000000002,-1232.96,1926.3399999999999,-337.67899999999997
174279.0,9189.4400000000005,10831.9,1232.9400000000001,7075.79,-1238.46,1758.0799999999999,-355.28199999999998
174280.0,9122.7600000000002,10911.9,1226.8199999999999,6794.4399999999996,-1240.0899999999999,1563.28,-366.64299999999997
174281.0,9059.9300000000003,11028.6,1267.5999999999999,6597.25,-1235.77,1345.3399999999999,-370.41899999999998
174282.0,9160.8899999999994,8478.5300000000007,1243.5699999999999,9581.9099999999999,-1152.28,2476.04,-21.754899999999999
174283.0,9262.6800000000003,8720.5799999999999,1134.73,9366.8400000000001,-1170.02,2504.5100000000002,-49.5122
174284.0,9326.3099999999995,9058.1900000000005,1190.1400000000001,9258.4799999999996,-1179.95,2533.5900000000001,-88.840100000000007
174285.0,9375.75,9279.6100000000006,1140.25,9017.8400000000001,-1190.8699999999999,2543.6500000000001,-132.40700000000001
174286.0,9400.1000000000004,9569.4200000000001,1193.0699999999999,8834.9500000000007,-1203.5799999999999,2541.0100000000002,-178.26499999999999
174287.0,9402.3600000000006,9780.0599999999995,1184.0599999999999,8561.5900000000001,-1217.1800000000001,2510.52,-223.42699999999999
174288.0,9382.1200000000008,10023.9,1237.46,8323.4300000000003,-1229.8199999999999,2458.0500000000002,-263.86900000000003
174289.0,9345.2999999999993,10190.6,1233.5,8011.3500000000004,-1242.9000000000001,2378.4099999999999,-300.72500000000002
174290.0,9289.6200000000008,10382.799999999999,1283.8199999999999,7738.8699999999999,-1255.6700000000001,2274.0,-330.85899999999998
174291.0,9223.1900000000005,10521.799999999999,1302.1600000000001,7429.75,-1267.52,2145.9000000000001,-355.06099999999998
174292.0,9150.5100000000002,10672.5,1349.0999999999999,7147.0699999999997,-1277.0599999999999,1994.79,-372.589
174293.0,9073.3999999999996,10779.5,1366.6099999999999,6843.3699999999999,-1283.9000000000001,1816.1199999999999,-383.38099999999997
174294.0,8996.2900000000009,10886.1,1395.9200000000001,6574.3199999999997,-1286.1600000000001,1611.1099999999999,-386.35199999999998
174295.0,8928.0699999999997,10958.1,1394.79,6319.2799999999997,-1282.1099999999999,1381.7,-382.19
174296.0,9104.4099999999999,8335.25,1288.4200000000001,9487.2099999999991,-1151.46,2568.1399999999999,-89.913499999999999
174297.0,9210.3899999999994,8685.9799999999996,1288.6800000000001,9375.4300000000003,-1174.45,2604.9099999999999,-116.864
174298.0,9281.8400000000001,8950.5799999999999,1248.46,9159.6200000000008,-1189.6500000000001,2636.8800000000001,-153.727
174299.0,9325.7700000000004,9261.5300000000007,1292.6099999999999,8988.3799999999992,-1206.5,2651.0700000000002,-197.43799999999999
174300.0,9341.0900000000001,9485.5900000000001,1275.49,8706.4699999999993,-1221.0999999999999,2645.4200000000001,-239.28299999999999
174301.0,9332.0900000000001,9752.3999999999996,1327.6099999999999,8463.5699999999997,-1236.47,2613.1500000000001,-280.28500000000003
174302.0,9295.9899999999998,9925.75,1316.8299999999999,8126.2600000000002,-1252.26,2552.5799999999999,-318.37700000000001
174303.0,9234.8600000000006,10156.4,1396.22,7859.3000000000002,-1267.96,2462.6399999999999,-351.61900000000003
174304.0,9156.5300000000007,10272.4,1389.71,7497.8100000000004,-1283.5,2346.73,-375.601
174305.0,9069.6200000000008,10438.4,1458.1300000000001,7207.1300000000001,-1296.6600000000001,2212.0999999999999,-393.62400000000002
174306.0,8979.3899999999994,10521.200000000001,1454.71,6841.3800000000001,-1306.8699999999999,2052.2800000000002,-404.27999999999997
174307.0,8885.7999999999993,10659.9,1521.8900000000001,6558.8199999999997,-1315.48,1863.8199999999999,-407.44799999999998
174308.0,8796.1900000000005,10716.0,1514.8800000000001,6228.46,-1319.51,1648.77,-402.36200000000002
174309.0,8721.6000000000004,10836.799999999999,1570.1600000000001,6011.8400000000001,-1318.3900000000001,1409.05,-389.93000000000001
174310.0,9001.5400000000009,8178.1800000000003,1376.01,9390.3999999999996,-1140.28,2650.0500000000002,-156.94800000000001
174311.0,9121.4699999999993,8560.3500000000004,1394.9400000000001,9284.2299999999996,-1171.6400000000001,2703.5599999999999,-183.65899999999999
174312.0,9192.0100000000002,8847.1900000000005,1366.24,9067.1000000000004,-1191.3900000000001,2734.4699999999998,-219.57400000000001
174313.0,9230.4500000000007,9143.8400000000001,1396.6199999999999,8854.0400000000009,-1210.4100000000001,2753.4899999999998,-259.87299999999999
174314.0,9247.7700000000004,9392.2600000000002,1395.04,8567.1499999999996,-1232.78,2747.7600000000002,-301.947
174315.0,9223.8600000000006,9650.6000000000004,1447.71,8286.1499999999996,-1255.47,2711.1500000000001,-338.38400000000001
174316.0,9166.6299999999992,9851.7399999999998,1475.52,7944.1300000000001,-1268.02,2643.3400000000001,-374.27499999999998
174317.0,9074.0900000000001,10020.9,1510.5599999999999,7591.2700000000004,-1286.6900000000001,2531.6999999999998,-405.00599999999997
174318.0,8954.0699999999997,10132.799999999999,1549.5999999999999,7241.0500000000002,-1305.0699999999999,2403.2600000000002,-418.80799999999999
174319.0,8843.2099999999991,10251.0,1603.3699999999999,6894.4300000000003,-1317.4000000000001,2266.73,-431.95100000000002
174320.0,8735.7600000000002,10352.299999999999,1637.3599999999999,6534.0200000000004,-1330.3399999999999,2096.4099999999999,-434.19299999999998
174321.0,8623.5699999999997,10443.700000000001,1680.3699999999999,6197.7799999999997,-1338.6700000000001,1899.3699999999999,-428.79500000000002
174322.0,8520.9200000000001,10508.700000000001,1698.8299999999999,5867.4499999999998,-1341.8800000000001,1675.48,-414.55000000000001
174323.0,8436.9899999999998,10581.4,1717.5799999999999,5594.5299999999997,-1340.1800000000001,1425.9200000000001,-392.404
174324.0,8850.3600000000006,7998.5799999999999,1506.71,9273.3500000000004,-1122.1900000000001,2729.4699999999998,-228.00800000000001
174325.0,8984.3799999999992,8398.1200000000008,1522.3099999999999,9163.7700000000004,-1160.0599999999999,2790.9299999999998,-249.328
174326.0,9072.2999999999993,8675.6700000000001,1465.1600000000001,8906.2199999999993,-1185.7,2836.5700000000002,-284.97300000000001
174327.0,9106.8700000000008,9019.0499999999993,1529.8399999999999,8701.3199999999997,-1208.6700000000001,2853.48,-324.41199999999998
174328.0,9103.6200000000008,9261.1599999999999,1529.6099999999999,8385.4099999999999,-1225.54,2841.8600000000001,-350.52100000000002
174329.0,9052.6399999999994,9547.8299999999999,1628.47,8094.9499999999998,-1236.1800000000001,2806.4699999999998,-372.23899999999998
174330.0,8940.3899999999994,9753.2700000000004,1683.8699999999999,7705.3900000000003,-1230.79,2713.0999999999999,-416.07900000000001
174331.0,8805.8199999999997,9888.7700000000004,1725.1600000000001,7343.54,-1263.5799999999999,2568.98,-450.589
174332.0,8680.0900000000001,9853.7000000000007,1661.53,6865.5200000000004,-1308.1199999999999,2450.8899999999999,-457.77699999999999
174333.0,8553.1700000000001,10005.700000000001,1769.4100000000001,6524.2600000000002,-1322.3499999999999,2307.6799999999998,-466.34699999999998
174334.0,8413.6399999999994,10024.700000000001,1758.6700000000001,6086.8800000000001,-1333.6500000000001,2124.4499999999998,-458.12200000000001
174335.0,8280.9099999999999,10133.4,1851.3499999999999,5765.1700000000001,-1342.0,1921.9100000000001,-444.94999999999999
174336.0,8164.4200000000001,10146.0,1839.9200000000001,5378.0799999999999,-1347.0,1689.3199999999999,-420.87
174337.0,8073.9899999999998,10256.6,1910.77,5137.2700000000004,-1347.03,1432.3599999999999,-389.47399999999999
174338.0,8663.8899999999994,7763.0100000000002,1635.49,9116.1200000000008,-1096.8099999999999,2800.7600000000002,-290.19600000000003
174339.0,8853.2000000000007,8137.6300000000001,1576.52,8965.2700000000004,-1141.4200000000001,2887.6700000000001,-311.63999999999999
174340.0,8929.2900000000009,8543.0,1649.6099999999999,8774.7299999999996,-1166.22,2952.71,-329.94400000000002
174341.0,8940.6200000000008,8854.9400000000005,1642.8299999999999,8467.6100000000006,-1163.21,2947.52,-383.315
174342.0,8871.2199999999993,9171.5300000000007,1784.1300000000001,8234.3700000000008,-1211.49,2907.1500000000001,-370.66300000000001
174343.0,8683.4599999999991,9575.6900000000005,2139.29,8028.0500000000002,-1162.8599999999999,2870.48,-383.17000000000002
174344.0,8556.7000000000007,9769.3199999999997,2166.4899999999998,7612.2799999999997,-1165.96,2729.54,-493.72699999999998
174345.0,8478.3199999999997,9571.8899999999994,1871.3900000000001,6972.8299999999999,-1276.1600000000001,2594.8299999999999,-502.70100000000002
174346.0,8343.7099999999991,9596.1299999999992,1881.1900000000001,6502.8699999999999,-1294.24,2491.8800000000001,-496.53899999999999
174347.0,8180.71,9654.6499999999996,1926.75,6063.6199999999999,-1308.6700000000001,2322.3699999999999,-497.06200000000001
174348.0,8015.75,9679.1100000000006,1974.8900000000001,5648.9799999999996,-1327.22,2139.3899999999999,-479.14100000000002
174349.0,7868.1999999999998,9705.8999999999996,2012.4400000000001,5237.71,-1334.03,1929.1800000000001,-456.88600000000002
174350.0,7734.6700000000001,9739.1100000000006,2052.3099999999999,4873.9899999999998,-1336.77,1690.3800000000001,-421.53199999999998
174351.0,7632.6999999999998,9766.9899999999998,2062.6999999999998,4547.4300000000003,-1333.97,1425.8299999999999,-380.25900000000001
174352.0,8405.5900000000001,7507.0100000000002,1804.6700000000001,8934.5499999999993,-1057.26,2842.96,-345.56099999999998
174353.0,8613.4699999999993,7963.0699999999997,1851.55,8887.9099999999999,-1093.6500000000001,2970.21,-304.99000000000001
174354.0,8719.0200000000004,8475.6800000000003,1985.95,8686.6800000000003,-1075.6199999999999,3090.1100000000001,-352.90499999999997
174355.0,8732.3299999999999,8836.9699999999993,1908.22,8318.8600000000006,-1100.22,3017.6500000000001,-453.60199999999998
174356.0,8505.75,9088.0699999999997,2157.3299999999999,8038.6300000000001,-1193.9100000000001,2933.0799999999999,-364.91300000000001
174357.0,8186.3999999999996,9699.2700000000004,2914.2199999999998,8070.8800000000001,-1111.9200000000001,2888.8299999999999,-459.05099999999999
174358.0,8148.3999999999996,9487.4799999999996,2437.75,7302.1099999999997,-1133.46,2734.3000000000002,-590.10900000000004
174359.0,8101.8699999999999,9236.2900000000009,2062.7800000000002,6581.9700000000003,-1238.3699999999999,2631.4400000000001,-517.10299999999995
174360.0,7917.5100000000002,9268.1599999999999,2129.0799999999999,6060.4300000000003,-1239.51,2507.3499999999999,-535.92600000000004
174361.0,7738.0,9207.5,2091.9899999999998,5538.6300000000001,-1281.54,2318.9200000000001,-526.654
174362.0,7547.5200000000004,9150.9500000000007,2109.8200000000002,5040.0600000000004,-1295.98,2134.5500000000002,-491.90300000000002
174363.0,7364.0900000000001,9185.0100000000002,2212.6799999999998,4656.7600000000002,-1295.1400000000001,1916.4200000000001,-459.61700000000002
174364.0,7223.8699999999999,9147.3099999999995,2216.1999999999998,4224.4099999999999,-1299.01,1678.5,-414.66199999999998
174365.0,7126.9300000000003,9214.7299999999996,2278.71,3931.29,-1300.3299999999999,1407.96,-363.553
174366.0,8114.6999999999998,7103.75,1841.4100000000001,8607.5499999999993,-1002.13,2857.1199999999999,-399.613
174367.0,8276.6700000000001,7874.2399999999998,2394.5599999999999,8924.8899999999994,-1099.75,3042.8699999999999,-264.34199999999998
174368.0,8305.9300000000003,8825.1599999999999,2970.3299999999999,9010.2900000000009,-875.95699999999999,3209.98,-354.68099999999998
174369.0,8373.1599999999999,8864.3999999999996,2288.3200000000002,8138.1499999999996,-935.71100000000001,3042.3699999999999,-489.48200000000003
174370.0,8081.8199999999997,9175.0499999999993,2757.46,7950.79,-1184.1500000000001,2932.46,-401.52600000000001
174371.0,7754.1899999999996,9481.6900000000005,3293.9099999999999,7784.0699999999997,-1076.8900000000001,2885.79,-577.02200000000005
174372.0,7672.8299999999999,9183.0100000000002,2785.02,7011.9399999999996,-1084.26,2738.6700000000001,-602.00999999999999
174373.0,7534.0799999999999,8995.1200000000008,2575.1599999999999,6312.0200000000004,-1130.4100000000001,2637.7800000000002,-537.18100000000004
174374.0,7376.9399999999996,8920.4099999999999,2513.2800000000002,5652.6199999999999,-1155.27,2493.3899999999999,-569.12800000000004
174375.0,7205.3100000000004,8706.5900000000001,2326.2399999999998,4976.8299999999999,-1201.0999999999999,2300.1300000000001,-545.88999999999999
174376.0,7012.1499999999996,8610.9599999999991,2345.4499999999998,4458.5299999999997,-1240.99,2105.8200000000002,-504.76299999999998
174377.0,6845.6400000000003,8510.6100000000006,2355.9299999999998,3945.3099999999999,-1262.3199999999999,1899.77,-458.62400000000002
174378.0,6698.1899999999996,8505.3999999999996,2423.3699999999999,3534.1999999999998,-1256.0,1650.5599999999999,-404.61900000000003
174379.0,6565.4799999999996,8478.3199999999997,2446.8899999999999,3174.4299999999998,-1241.9100000000001,1368.5,-337.02199999999999
174380.0,7894.6300000000001,6732.7799999999997,1922.21,8328.4500000000007,-1017.65,2903.2199999999998,-435.27499999999998
174381.0,7841.9499999999998,7981.1199999999999,3229.52,9051.4300000000003,-1069.76,3116.4200000000001,-198.07499999999999
174382.0,7640.0200000000004,9426.3299999999999,4504.8500000000004,9560.1000000000004,-687.08699999999999,3248.5999999999999,-363.42500000000001
174383.0,7673.4499999999998,9376.3500000000004,3531.1700000000001,8498.4400000000005,-685.03300000000002,2989.02,-537.26300000000003
174384.0,7561.6700000000001,9055.9200000000001,3223.4000000000001,7697.6800000000003,-1057.9000000000001,2898.21,-476.61099999999999
174385.0,7311.7799999999997,9080.2700000000004,3472.9499999999998,7324.21,-1017.49,2853.8200000000002,-644.04499999999996
174386.0,7113.3199999999997,8751.7700000000004,3156.52,6598.0900000000001,-1068.8399999999999,2717.1700000000001,-613.24699999999996
174387.0,6915.3999999999996,8648.6399999999994,3141.6799999999998,5968.6000000000004,-1073.4100000000001,2618.3000000000002,-591.399
174388.0,6734.0100000000002,8459.6900000000005,2977.4200000000001,5196.6199999999999,-1061.3,2458.27,-584.423
174389.0,6560.7399999999998,8186.3500000000004,2743.5300000000002,4454.9700000000003,-1094.73,2251.0700000000002,-579.596
174390.0,6397.46,7835.1199999999999,2497.1300000000001,3712.0900000000001,-1151.1700000000001,2058.02,-503.553
174391.0,6227.25,7823.3100000000004,2650.02,3251.9099999999999,-1127.6300000000001,1864.49,-417.762
174392.0,6066.8100000000004,7747.3599999999997,2698.04,2786.5700000000002,-1108.8399999999999,1592.77,-387.411
174393.0,5975.21,7646.1999999999998,2665.1900000000001,2399.77,-1150.48,1322.6600000000001,-306.07799999999997
174394.0,7875.4099999999999,6432.6099999999997,1963.54,8019.96,-1048.1099999999999,3098.3099999999999,-337.47199999999998
174395.0,7378.9700000000003,8417.7099999999991,4367.0100000000002,9257.6200000000008,-996.18100000000004,3205.1399999999999,-214.096
174396.0,6890.3999999999996,10014.6,6071.4799999999996,10003.700000000001,-611.60599999999999,3171.8099999999999,-472.25700000000001
174397.0,6872.6300000000001,9664.7199999999993,4929.4899999999998,8868.0300000000007,-583.04399999999998,2922.1399999999999,-661.29899999999998
174398.0,6956.8000000000002,8911.0400000000009,3863.5100000000002,7559.4200000000001,-888.09199999999998,2854.46,-606.88599999999997
174399.0,6848.4499999999998,8566.7600000000002,3568.4299999999998,6734.1199999999999,-974.38800000000003,2793.8899999999999,-696.14400000000001
174400.0,6607.5699999999997,8233.5300000000007,3411.29,6037.9499999999998,-1035.5,2693.8800000000001,-628.56700000000001
174401.0,6341.96,8141.6800000000003,3532.3899999999999,5416.54,-986.45100000000002,2586.4899999999998,-611.13
174402.0,6118.6599999999999,7952.5500000000002,3483.6100000000001,4708.75,-985.29999999999995,2408.1799999999998,-613.81899999999996
174403.0,5964.4399999999996,7460.5699999999997,3039.77,3768.2199999999998,-1007.24,2203.54,-608.39999999999998
174404.0,5776.0699999999997,7087.6999999999998,2809.02,3005.1999999999998,-1043.0699999999999,1991.4100000000001,-481.53100000000001
174405.0,5589.8999999999996,7089.8500000000004,3135.5999999999999,2593.5,-1027.49,1784.23,-389.755
174406.0,5468.8900000000003,6907.4799999999996,3114.0100000000002,2058.7800000000002,-1010.8,1516.1099999999999,-383.38400000000001
174407.0,5407.1099999999997,6603.5900000000001,2824.6799999999998,1502.8299999999999,-1029.0999999999999,1269.0,-262.012
174408.0,7168.5900000000001,7255.1599999999999,3557.3699999999999,8391.1800000000003,-675.15200000000004,3207.0799999999999,-5.9589400000000001
174409.0,6806.6599999999999,9179.6900000000005,5758.4799999999996,9530.7000000000007,-736.85299999999995,3235.9099999999999,-294.17599999999999
174410.0,6445.1899999999996,9919.3199999999997,6603.9200000000001,9755.7299999999996,-640.14700000000005,3081.75,-669.14400000000001
174411.0,6373.0,9517.4300000000003,5774.3800000000001,8845.0599999999995,-627.04899999999998,2937.5100000000002,-730.95500000000004
174412.0,6368.3299999999999,8727.6100000000006,4579.5900000000001,7400.1899999999996,-674.63800000000003,2838.29,-721.23500000000001
174413.0,6261.4700000000003,8032.6400000000003,3767.96,6146.3000000000002,-817.65499999999997,2708.0999999999999,-706.59299999999996
174414.0,5973.9300000000003,7663.8900000000003,3749.4699999999998,5420.6300000000001,-892.35699999999997,2621.4499999999998,-608.02700000000004
174415.0,5706.7299999999996,7620.6400000000003,4068.1100000000001,4882.2399999999998,-845.83299999999997,2507.8499999999999,-622.20699999999999
174416.0,5512.6599999999999,7184.6499999999996,3815.7800000000002,3989.1100000000001,-835.72900000000004,2332.2199999999998,-627.423
174417.0,5318.6800000000003,6707.8699999999999,3484.8000000000002,3106.6700000000001,-817.94399999999996,2127.0300000000002,-565.28399999999999
174418.0,5139.9899999999998,6326.0500000000002,3350.79,2310.5500000000002,-827.928,1890.6800000000001,-450.86700000000002
174419.0,5038.4300000000003,6109.7399999999998,3475.6399999999999,1751.95,-853.65800000000002,1664.3900000000001,-382.53699999999998
174420.0,5003.4899999999998,5823.9200000000001,3388.54,1161.1700000000001,-832.69600000000003,1453.51,-316.15199999999999
174421.0,4969.5699999999997,5545.7700000000004,3098.5100000000002,655.68299999999999,-847.697,1218.1400000000001,-226.893
174422.0,6028.6199999999999,9064.2000000000007,6762.21,9756.9899999999998,-307.779,3085.5100000000002,-204.07400000000001
174423.0,6131.7299999999996,9682.8999999999996,7031.7299999999996,9712.3099999999995,-474.947,3108.1799999999998,-526.46799999999996
174424.0,6086.6300000000001,9504.4599999999991,6614.4200000000001,9171.5300000000007,-530.26900000000001,3012.6700000000001,-700.93799999999999
174425.0,5859.5500000000002,9227.6900000000005,6400.7299999999996,8538.8899999999994,-535.93399999999997,2919.8200000000002,-677.64300000000003
174426.0,5672.7799999999997,8614.3199999999997,5605.6199999999999,7323.0799999999999,-419.28899999999999,2768.8000000000002,-778.81100000000004
174427.0,5463.3100000000004,7640.9099999999999,4499.21,5827.4799999999996,-589.46900000000005,2572.9499999999998,-703.21199999999999
174428.0,5280.3199999999997,7163.8999999999996,4403.8699999999999,4937.9899999999998,-714.404,2499.6500000000001,-626.36000000000001
174429.0,5134.3199999999997,6868.0100000000002,4509.4899999999998,4179.8599999999997,-707.87900000000002,2392.8899999999999,-640.69799999999998
174430.0,4959.9399999999996,6407.79,4350.1400000000003,3332.0900000000001,-673.68799999999999,2216.5,-615.25300000000004
174431.0,4798.0200000000004,5870.0500000000002,4120.75,2418.75,-668.97900000000004,1990.8299999999999,-533.56799999999998
174432.0,4748.6700000000001,5503.9200000000001,4117.4099999999999,1667.25,-667.36199999999997,1762.1700000000001,-437.858
174433.0,4714.3199999999997,4946.5900000000001,3862.5100000000002,834.63999999999999,-657.83600000000001,1513.26,-379.05200000000002
174434.0,4741.2700000000004,4636.8999999999996,3840.8499999999999,357.00799999999998,-662.88699999999994,1349.6800000000001,-225.33500000000001
174435.0,4760.8500000000004,4522.5299999999997,3756.8699999999999,-24.841100000000001,-533.22799999999995,1155.77,-86.158600000000007
174436.0,5736.79,9864.0,8761.0599999999995,10638.200000000001,-12.039400000000001,3130.8400000000001,-527.22000000000003
174437.0,5822.7600000000002,9685.2700000000004,7524.3699999999999,9536.4699999999993,-270.70400000000001,3035.75,-745.49699999999996
174438.0,5513.3900000000003,9324.8400000000001,7149.4200000000001,8833.5499999999993,-474.19299999999998,2854.8800000000001,-674.98099999999999
174439.0,5295.7700000000004,8933.1499999999996,7211.0699999999997,8220.6900000000005,-383.63799999999998,2815.8000000000002,-723.68600000000004
174440.0,5102.2399999999998,8221.2700000000004,6413.0600000000004,6939.7299999999996,-341.46600000000001,2635.27,-866.85900000000004
174441.0,4785.8699999999999,7134.6199999999999,5366.21,5464.4099999999999,-477.46699999999998,2422.9499999999998,-740.56600000000003
174442.0,4715.04,6495.5600000000004,5094.2399999999998,4373.1599999999999,-504.56400000000002,2357.27,-659.19399999999996
174443.0,4704.9200000000001,6018.5699999999997,5018.1700000000001,3457.8899999999999,-505.89299999999997,2247.1700000000001,-638.49599999999998
174444.0,4693.0,5398.79,4779.0200000000004,2447.5599999999999,-507.06299999999999,2074.5,-599.28300000000002
174445.0,4705.8699999999999,4832.9200000000001,4583.4099999999999,1497.1600000000001,-513.37400000000002,1842.01,-522.26800000000003
174446.0,4817.1400000000003,4166.6700000000001,4362.4499999999998,522.88499999999999,-515.96500000000003,1617.1600000000001,-421.00099999999998
174447.0,4897.5299999999997,3577.5500000000002,4118.4799999999996,-283.73899999999998,-498.71600000000001,1362.99,-353.81599999999997
174448.0,4890.8900000000003,2959.2199999999998,3863.0799999999999,-885.04200000000003,-471.26400000000001,1173.4300000000001,-133.84399999999999
174449.0,5264.29,3653.9099999999999,5115.6899999999996,-385.25799999999998,-260.399,999.048,230.22499999999999
174450.0,5709.4399999999996,11247.799999999999,11775.4,12038.0,538.37099999999998,3211.73,-314.49799999999999
174451.0,5274.3800000000001,10193.200000000001,8648.5599999999995,9642.1299999999992,458.75999999999999,2796.8000000000002,-792.28700000000003
174452.0,4910.4799999999996,8843.7700000000004,7586.4300000000003,8325.4500000000007,-470.12799999999999,2658.4000000000001,-591.79999999999995
174453.0,5030.8599999999997,8615.1100000000006,7952.6199999999999,7802.6199999999999,-136.114,2743.8899999999999,-837.94600000000003
174454.0,4725.6800000000003,7522.1000000000004,6677.3800000000001,6139.54,-225.29900000000001,2473.0700000000002,-889.649
174455.0,4460.8999999999996,6355.3500000000004,5859.1700000000001,4738.3100000000004,-343.65600000000001,2291.2600000000002,-760.94200000000001
174456.0,4491.8199999999997,5619.1800000000003,5657.5200000000004,3643.7600000000002,-351.63099999999997,2190.98,-689.16899999999998
174457.0,4673.9300000000003,4974.8299999999999,5537.9700000000003,2600.9400000000001,-312.50700000000001,2089.1500000000001,-624.42399999999998
174458.0,4857.96,4321.2799999999997,5288.3400000000001,1518.9100000000001,-261.07999999999998,1904.7,-581.12099999999998
174459.0,5072.71,3547.5999999999999,4956.0,396.02300000000002,-261.79599999999999,1680.48,-483.06400000000002
174460.0,5345.8400000000001,2756.1900000000001,4626.3500000000004,-674.03200000000004,-246.07300000000001,1444.3699999999999,-391.06400000000002
174461.0,5550.04,1950.9000000000001,4272.8900000000003,-1613.21,-198.78100000000001,1171.6199999999999,-255.55199999999999
174462.0,5675.1499999999996,1436.3,4358.5,-1949.3099999999999,-125.35299999999999,868.93799999999999,-0.076725000000000002
174463.0,6600.8900000000003,2323.21,6305.8599999999997,-1110.27,-99.581500000000005,716.77999999999997,474.74000000000001
174464.0,5942.9700000000003,13039.700000000001,15630.1,13554.9,948.24699999999996,2936.23,-609.98699999999997
174465.0,4676.6199999999999,10528.799999999999,10518.6,10103.6,809.29499999999996,2323.4299999999998,-1085.4100000000001
174466.0,4350.9899999999998,8545.6800000000003,8597.4500000000007,8166.8100000000004,-181.495,2455.54,-438.71300000000002
174467.0,4939.3100000000004,8539.75,9090.1399999999994,7545.5100000000002,302.37700000000001,2579.9899999999998,-878.38900000000001
174468.0,4422.1599999999999,6801.7799999999997,7258.8400000000001,5466.5100000000002,100.14400000000001,2217.9899999999998,-849.47299999999996
174469.0,4416.9300000000003,5545.1099999999997,6502.7600000000002,4035.0,-41.449399999999997,2088.04,-770.40899999999999
174470.0,4690.3199999999997,4387.9099999999999,5964.3400000000001,2591.98,-113.504,2004.23,-675.26099999999997
174471.0,5188.8100000000004,3813.3800000000001,6075.0799999999999,1625.1700000000001,-83.227599999999995,1912.5599999999999,-599.08500000000004
174472.0,5572.1099999999997,2907.96,5689.2700000000004,357.15699999999998,-30.686299999999999,1708.5599999999999,-563.09500000000003
174473.0,6004.5,2062.71,5377.9200000000001,-809.34000000000003,-13.2004,1499.28,-427.83800000000002
174474.0,6450.46,1079.55,4941.6199999999999,-2050.1399999999999,72.898799999999994,1220.3900000000001,-330.06099999999998
174475.0,6865.8500000000004,234.47,4779.8599999999997,-2904.04,121.584,868.18299999999999,-138.76400000000001
174476.0,7267.5500000000002,-517.83500000000004,4799.3100000000004,-3418.27,78.750100000000003,476.59500000000003,59.629199999999997
174477.0,8271.9599999999991,-132.03100000000001,6314.6800000000003,-2901.1300000000001,-17.101299999999998,375.45800000000003,554.41499999999996
174478.0,6372.8299999999999,12719.200000000001,16360.5,13095.4,1193.01,2549.4299999999998,-1266.6700000000001
174479.0,4471.8599999999997,9897.4200000000001,11474.1,9908.6000000000004,659.44299999999998,2069.7199999999998,-1060.4100000000001
174480.0,4422.6000000000004,8887.5100000000002,10905.1,8692.2900000000009,286.28500000000003,2173.3499999999999,-462.01499999999999
174481.0,5197.9099999999999,8255.5,10755.200000000001,7410.7799999999997,699.827,2154.5799999999999,-921.673
174482.0,4803.0200000000004,6087.3699999999999,8587.0599999999995,5190.5299999999997,447.87900000000002,1887.5899999999999,-909.86800000000005
174483.0,5001.4899999999998,4280.8900000000003,7165.5500000000002,3174.0500000000002,238.28299999999999,1846.53,-790.84900000000005
174484.0,5555.8100000000004,3133.0900000000001,6597.5500000000002,1612.47,179.798,1814.8,-659.98400000000004
174485.0,6217.1700000000001,2242.6199999999999,6372.7399999999998,286.22399999999999,187.49199999999999,1683.8599999999999,-598.89300000000003
174486.0,6778.5200000000004,1226.2,5994.25,-1016.14,236.06200000000001,1480.7,-499.89499999999998
174487.0,7506.3800000000001,322.67200000000003,5851.6499999999996,-2204.0100000000002,348.846,1257.7,-322.26499999999999
174488.0,8245.3199999999997,-643.72900000000004,5689.5200000000004,-3361.4699999999998,480.41300000000001,895.09000000000003,-245.78800000000001
174489.0,8868.8400000000001,-1940.1600000000001,5254.4899999999998,-4551.3800000000001,453.16500000000002,464.08600000000001,-93.151300000000006
174490.0,9383.0699999999997,-3274.8099999999999,4730.6199999999999,-5558.3699999999999,375.64999999999998,77.805199999999999,78.007499999999993
174491.0,10310.0,-3813.4000000000001,5345.3100000000004,-5737.5,215.06200000000001,-13.661799999999999,563.01800000000003
174492.0,6713.3100000000004,11917.799999999999,16492.700000000001,12387.4,1502.8699999999999,2226.4699999999998,-1213.73
174493.0,4987.0600000000004,9651.5,12952.799999999999,9749.8600000000006,898.39300000000003,1789.5799999999999,-867.64300000000003
174494.0,5418.9499999999998,8643.1599999999999,12759.1,8587.5400000000009,551.52099999999996,1786.26,-754.43100000000004
174495.0,6107.2700000000004,7037.75,11693.9,6757.1000000000004,664.91700000000003,1730.9300000000001,-1142.97
174496.0,5933.3199999999997,4438.5100000000002,9108.1499999999996,4172.6599999999999,489.49900000000002,1641.78,-1045.8599999999999
174497.0,6275.8999999999996,2616.8099999999999,7651.5,2001.24,420.43799999999999,1649.3499999999999,-789.37199999999996
174498.0,7061.3000000000002,1522.04,7201.4099999999999,361.084,476.25700000000001,1602.6099999999999,-653.16399999999999
174499.0,7778.8900000000003,350.411,6667.8599999999997,-1237.3699999999999,534.93299999999999,1431.5,-589.62900000000002
174500.0,8535.3600000000006,-868.31600000000003,6229.6199999999999,-2738.52,558.96500000000003,1190.21,-413.21499999999997
174501.0,9640.7999999999993,-1799.6199999999999,6412.1300000000001,-3903.8000000000002,647.90800000000002,889.40499999999997,-240.197
174502.0,10657.700000000001,-3197.3899999999999,6096.2799999999997,-5361.0100000000002,735.96900000000005,457.81900000000002,-238.56100000000001
174503.0,11347.9,-5332.1300000000001,4899.2600000000002,-7214.5299999999997,638.91700000000003,33.3491,-143.90100000000001
174504.0,11911.1,-7699.3900000000003,3391.7399999999998,-9141.8899999999994,399.52699999999999,-317.03100000000001,17.324100000000001
174505.0,12592.299999999999,-9355.2299999999996,2705.1199999999999,-10288.9,20.432400000000001,-399.36099999999999,408.74700000000001
174506.0,7749.6199999999999,11631.9,17960.799999999999,12148.700000000001,1660.1500000000001,1852.6500000000001,-1216.6500000000001
174507.0,6591.0900000000001,9257.7900000000009,14778.9,9591.8999999999996,1148.76,1419.9300000000001,-1249.73
174508.0,6635.8999999999996,6916.7299999999996,12777.700000000001,7205.3000000000002,657.46400000000006,1422.6400000000001,-1143.6300000000001
174509.0,7068.0799999999999,4396.3000000000002,10626.299999999999,4674.1899999999996,602.952,1498.55,-1287.24
174510.0,7224.8299999999999,1917.1600000000001,8434.1900000000005,2110.9400000000001,546.77599999999995,1510.53,-1034.3499999999999
174511.0,7931.8500000000004,335.79700000000003,7502.1899999999996,49.100299999999997,578.04200000000003,1469.8900000000001,-803.35900000000004
174512.0,8883.9200000000001,-890.78200000000004,7116.8900000000003,-1666.05,641.08000000000004,1345.8800000000001,-664.59500000000003
174513.0,9788.5400000000009,-2228.1999999999998,6597.2200000000003,-3365.6700000000001,750.29200000000003,1144.96,-569.61900000000003
174514.0,10786.9,-3568.9099999999999,6171.5200000000004,-5076.7200000000003,790.14400000000001,860.04899999999998,-377.83300000000003
174515.0,12041.6,-5078.71,5818.3900000000003,-6925.3400000000001,766.90499999999997,465.54899999999998,-319.11900000000003
174516.0,13027.4,-7538.4799999999996,4474.7399999999998,-9264.8299999999999,638.78700000000003,-33.012799999999999,-386.78800000000001
174517.0,13705.299999999999,-10947.0,2067.2800000000002,-12157.6,403.75700000000001,-407.37200000000001,-292.10300000000001
174518.0,14103.700000000001,-14442.200000000001,-772.64499999999998,-15189.6,112.755,-622.91099999999994,-162.035
174519.0,14276.0,-17664.5,-3585.3600000000001,-17948.099999999999,-261.98700000000002,-619.57299999999998,224.51300000000001
174520.0,2319.48,2814.5799999999999,645.81100000000004,2138.1799999999998,-651.09000000000003,362.86700000000002,79.801400000000001
174521.0,2323.3299999999999,2838.21,623.42999999999995,2060.54,-639.447,340.35199999999998,109.551
174522.0,2324.0,2854.0900000000001,591.23699999999997,1970.0999999999999,-624.57399999999996,305.80599999999998,127.205
174523.0,2320.1799999999998,2874.3600000000001,568.07299999999998,1876.6800000000001,-609.10799999999995,256.50700000000001,140.755
174524.0,2309.3600000000001,2874.3800000000001,536.28599999999994,1769.5999999999999,-590.91800000000001,193.374,151.95599999999999
174525.0,2292.9200000000001,2879.4499999999998,524.02300000000002,1680.8800000000001,-570.70000000000005,116.708,161.286
174526.0,2269.1999999999998,2840.2800000000002,487.66699999999997,1568.27,-547.26300000000003,28.991199999999999,171.285
174527.0,2238.9699999999998,2798.7199999999998,471.20299999999997,1480.03,-521.197,-67.909099999999995,180.02600000000001
174528.0,2203.1399999999999,2716.5599999999999,437.16399999999999,1381.02,-491.65699999999998,-170.55500000000001,188.24199999999999
174529.0,2161.4400000000001,2617.9499999999998,412.43599999999998,1298.79,-459.39299999999997,-275.78899999999999,196.17099999999999
174530.0,2117.71,2490.1700000000001,379.09899999999999,1220.22,-424.65899999999999,-380.19200000000001,201.34399999999999
174531.0,2067.54,2358.98,369.779,1175.8299999999999,-390.416,-480.75200000000001,200.69999999999999
174532.0,2023.1199999999999,2193.5100000000002,336.14699999999999,1122.5599999999999,-349.26799999999997,-578.30100000000004,196.792
174533.0,1994.01,1966.8,246.97999999999999,1030.6099999999999,-315.74400000000003,-667.27300000000002,197.548
174534.0,2570.5,2597.9299999999998,370.27499999999998,2085.4699999999998,-752.38499999999999,404.68799999999999,333.89100000000002
174535.0,2573.9699999999998,2687.4299999999998,392.14400000000001,2065.3499999999999,-724.21000000000004,385.09399999999999,355.67200000000003
174536.0,2576.52,2736.1300000000001,371.565,1996.5599999999999,-697.46699999999998,357.31799999999998,368.17500000000001
174537.0,2567.9499999999998,2775.21,349.70400000000001,1911.8699999999999,-668.89800000000002,313.41699999999997,375.50200000000001
174538.0,2551.9299999999998,2800.6599999999999,325.93200000000002,1816.6800000000001,-638.75599999999997,255.58500000000001,380.77499999999998
174539.0,2527.29,2802.27,294.91000000000003,1709.6400000000001,-606.17700000000002,182.892,384.46600000000001
174540.0,2495.3400000000001,2796.02,275.86000000000001,1615.4200000000001,-571.82399999999996,97.734999999999999,386.19200000000001
174541.0,2455.1999999999998,2761.9400000000001,252.57300000000001,1520.4400000000001,-534.774,1.9893400000000001,386.08800000000002
174542.0,2408.6999999999998,2707.9899999999998,233.98500000000001,1436.4400000000001,-495.96800000000002,-100.34999999999999,383.834
174543.0,2356.0900000000001,2637.7399999999998,224.66900000000001,1371.3599999999999,-455.07600000000002,-206.482,379.12200000000001
174544.0,2299.6900000000001,2537.1199999999999,209.524,1309.23,-413.24799999999999,-311.96899999999999,372.79700000000003
174545.0,2236.7199999999998,2410.5300000000002,194.99299999999999,1256.28,-369.63200000000001,-414.10899999999998,362.84899999999999
174546.0,2181.6700000000001,2229.1100000000001,133.27699999999999,1178.5,-323.85000000000002,-512.24900000000002,348.06
174547.0,2137.4000000000001,2037.99,76.936700000000002,1118.7,-286.09699999999998,-603.66700000000003,337.47000000000003
174548.0,2652.3899999999999,2774.2199999999998,476.69299999999998,2329.5100000000002,-771.89200000000005,394.89299999999997,329.26900000000001
174549.0,2664.4899999999998,2899.29,521.64099999999996,2357.1100000000001,-744.30399999999997,374.327,345.988
174550.0,2679.9699999999998,2947.79,487.54500000000002,2292.79,-719.44000000000005,353.22399999999999,358.13900000000001
174551.0,2680.98,3004.6500000000001,474.017,2229.5500000000002,-693.11199999999997,316.536,366.27999999999997
174552.0,2671.1100000000001,3021.6700000000001,432.95299999999997,2123.8899999999999,-664.73099999999999,264.673,372.26400000000001
174553.0,2650.7600000000002,3057.27,427.54500000000002,2047.21,-633.654,197.56800000000001,376.55799999999999
174554.0,2620.4000000000001,3030.3699999999999,381.18200000000002,1925.8800000000001,-600.27099999999996,116.81399999999999,379.69400000000002
174555.0,2580.3699999999999,3016.7199999999998,371.92399999999998,1843.3199999999999,-563.63,24.888999999999999,380.803
174556.0,2531.5999999999999,2940.98,327.45499999999998,1729.0699999999999,-524.86500000000001,-74.806799999999996,380.30000000000001
174557.0,2475.77,2867.6199999999999,311.15100000000001,1650.47,-483.15899999999999,-179.36099999999999,377.36000000000001
174558.0,2414.4000000000001,2741.8400000000001,269.14999999999998,1554.6600000000001,-441.02300000000002,-283.83199999999999,372.411
174559.0,2348.1700000000001,2631.7199999999998,265.33600000000001,1511.0999999999999,-395.38200000000001,-385.29599999999999,363.24799999999999
174560.0,2292.2199999999998,2443.0300000000002,190.899,1418.3800000000001,-348.69099999999997,-483.303,353.274
174561.0,2240.4099999999999,2236.6599999999999,120.16500000000001,1335.6700000000001,-309.286,-574.548,345.33600000000001
174562.0,2859.7600000000002,2861.5999999999999,434.416,2568.6700000000001,-822.23099999999999,380.34199999999998,387.30500000000001
174563.0,2871.25,2988.8099999999999,485.20400000000001,2605.71,-793.46600000000001,369.36599999999999,404.27800000000002
174564.0,2883.1700000000001,3067.6100000000001,478.12599999999998,2565.0799999999999,-763.88199999999995,356.654,417.85599999999999
174565.0,2885.27,3115.3400000000001,447.81599999999997,2486.71,-734.72000000000003,330.67000000000002,425.56200000000001
174566.0,2873.4499999999998,3152.0100000000002,418.99000000000001,2393.1100000000001,-703.14800000000002,287.096,430.10399999999998
174567.0,2850.0,3161.4899999999998,379.95800000000003,2278.98,-669.37800000000004,227.381,432.88900000000001
174568.0,2814.77,3165.1900000000001,356.80900000000003,2176.75,-632.61099999999999,152.36500000000001,433.80799999999999
174569.0,2769.48,3135.3000000000002,324.16899999999998,2064.8099999999999,-593.40200000000004,64.965800000000002,432.767
174570.0,2713.52,3089.7399999999998,303.84800000000001,1968.54,-551.46100000000001,-31.5307,429.392
174571.0,2651.21,3017.5599999999999,282.01400000000001,1878.29,-507.315,-133.80099999999999,423.65600000000001
174572.0,2580.75,2924.73,269.14600000000002,1803.72,-462.55799999999999,-236.613,415.76600000000002
174573.0,2506.5700000000002,2791.0700000000002,236.93100000000001,1724.2,-413.41800000000001,-338.00299999999999,404.35300000000001
174574.0,2444.3299999999999,2607.6199999999999,162.69999999999999,1625.9300000000001,-365.79500000000002,-436.47199999999998,391.83499999999998
174575.0,2381.8800000000001,2416.1300000000001,105.48999999999999,1548.5899999999999,-324.40899999999999,-526.96699999999998,381.84300000000002
174576.0,3031.1900000000001,3003.4400000000001,474.91000000000003,2838.8200000000002,-860.36000000000001,366.39699999999999,432.18700000000001
174577.0,3049.27,3099.3899999999999,488.29399999999998,2853.1300000000001,-831.601,364.32499999999999,443.35500000000002
174578.0,3058.71,3225.79,525.98699999999997,2861.4000000000001,-799.91200000000003,357.52999999999997,452.66300000000001
174579.0,3063.4200000000001,3263.1500000000001,476.44299999999998,2766.77,-768.27800000000002,340.63900000000001,460.726
174580.0,3054.5999999999999,3329.1799999999998,467.69600000000003,2697.4099999999999,-736.04600000000005,305.62799999999999,463.90899999999999
174581.0,3031.0900000000001,3339.4699999999998,421.12099999999998,2575.8400000000001,-700.93700000000001,252.72300000000001,465.70100000000002
174582.0,2994.71,3362.4299999999998,408.76600000000002,2482.5300000000002,-662.82299999999998,183.61500000000001,465.37599999999998
174583.0,2946.54,3321.8899999999999,358.29899999999998,2348.5700000000002,-622.09000000000003,100.911,463.62900000000002
174584.0,2886.04,3293.54,348.96499999999997,2257.27,-578.30200000000002,7.8251799999999996,459.25
174585.0,2818.4400000000001,3191.7600000000002,292.07499999999999,2124.4899999999998,-532.16800000000001,-91.976799999999997,453.18200000000002
174586.0,2740.1999999999998,3111.6300000000001,288.678,2050.5799999999999,-485.31900000000002,-193.40100000000001,443.57799999999997
174587.0,2660.6100000000001,2964.6300000000001,237.51300000000001,1946.3,-433.75200000000001,-295.18700000000001,430.495
174588.0,2594.6300000000001,2808.0700000000002,185.137,1866.28,-385.89100000000002,-393.43799999999999,418.12400000000002
174589.0,2524.23,2583.4400000000001,92.121899999999997,1747.3099999999999,-342.33999999999997,-482.43599999999998,407.928
174590.0,3229.73,3150.9000000000001,507.78300000000002,3140.3000000000002,-901.45100000000002,344.49599999999998,475.77800000000002
174591.0,3255.4699999999998,3223.3099999999999,491.267,3135.1700000000001,-872.03200000000004,355.62,485.245
174592.0,3264.04,3360.5799999999999,539.75800000000004,3157.7399999999998,-840.19899999999996,357.59199999999998,492.11599999999999
174593.0,3267.23,3406.8299999999999,492.21699999999998,3065.5799999999999,-804.82100000000003,349.59500000000003,499.38
174594.0,3260.2600000000002,3481.8400000000001,483.49799999999999,2996.6900000000001,-771.45899999999995,324.90499999999997,502.12599999999998
174595.0,3235.5799999999999,3477.8699999999999,414.86700000000002,2851.3299999999999,-734.54100000000005,280.19099999999997,503.10399999999998
174596.0,3197.0900000000001,3519.8600000000001,412.93799999999999,2764.5999999999999,-694.80100000000004,217.673,501.36799999999999
174597.0,3145.0100000000002,3473.0300000000002,349.06999999999999,2611.7199999999998,-652.24900000000002,140.44300000000001,498.44799999999998
174598.0,3079.7600000000002,3462.6599999999999,350.40600000000001,2524.71,-606.47900000000004,51.197099999999999,492.238
174599.0,3005.9400000000001,3368.77,295.88,2386.1900000000001,-558.60599999999999,-45.720500000000001,484.60399999999998
174600.0,2920.5599999999999,3304.5799999999999,302.73700000000002,2316.0500000000002,-509.35300000000001,-145.154,471.62799999999999
174601.0,2838.3499999999999,3138.2199999999998,223.233,2181.3600000000001,-456.93599999999998,-246.72,455.97899999999998
174602.0,2766.4499999999998,2979.8400000000001,166.232,2089.5700000000002,-409.13400000000001,-343.88799999999998,444.29199999999997
174603.0,2685.7399999999998,2784.1900000000001,100.748,1986.4300000000001,-361.55399999999997,-431.76299999999998,434.05700000000002
174604.0,3425.96,3276.4899999999998,527.35400000000004,3423.0799999999999,-939.69600000000003,320.33999999999997,515.76499999999999
174605.0,3460.6199999999999,3328.3400000000001,481.84300000000002,3402.2600000000002,-909.08699999999999,344.70999999999998,523.34500000000003
174606.0,3469.2399999999998,3484.3299999999999,548.03099999999995,3443.9499999999998,-877.89400000000001,358.05599999999998,527.26499999999999
174607.0,3468.8400000000001,3543.1300000000001,510.19099999999997,3359.2199999999998,-839.60900000000004,358.76999999999998,534.52300000000002
174608.0,3464.7399999999998,3640.1100000000001,512.18100000000004,3303.0999999999999,-804.48800000000006,344.11200000000002,536.726
174609.0,3440.9299999999998,3647.6500000000001,445.80700000000002,3160.0100000000002,-766.83100000000002,307.96899999999999,536.38099999999997
174610.0,3401.6300000000001,3698.7800000000002,443.56,3070.4899999999998,-725.64300000000003,252.416,533.63199999999995
174611.0,3347.1100000000001,3655.5100000000002,374.94400000000002,2908.1300000000001,-681.82799999999997,180.81800000000001,529.62400000000002
174612.0,3278.25,3651.8200000000002,374.923,2814.02,-634.26300000000003,95.759799999999998,522.15599999999995
174613.0,3197.6100000000001,3546.23,303.50200000000001,2648.6999999999998,-584.82600000000002,2.1362399999999999,512.59199999999998
174614.0,3106.5,3484.6999999999998,306.64299999999997,2568.1700000000001,-532.50599999999997,-96.316400000000002,498.17500000000001
174615.0,3026.1799999999998,3299.3400000000001,197.24299999999999,2404.8099999999999,-479.55099999999999,-197.17599999999999,484.06200000000001
174616.0,2948.04,3166.3800000000001,162.66499999999999,2327.8499999999999,-431.58499999999998,-291.27699999999999,472.89400000000001
174617.0,2856.9499999999998,2965.5599999999999,89.536600000000007,2205.5700000000002,-380.61900000000003,-379.17899999999997,459.30399999999997
174618.0,3633.98,3414.52,562.90300000000002,3729.5599999999999,-979.48199999999997,293.964,559.48000000000002
174619.0,3674.4499999999998,3468.8200000000002,513.00300000000004,3715.9699999999998,-944.94799999999998,332.56999999999999,566.42100000000005
174620.0,3689.9099999999999,3598.3200000000002,543.23699999999997,3732.6599999999999,-915.42999999999995,358.18000000000001,564.08100000000002
174621.0,3684.0,3696.23,543.85500000000002,3683.8299999999999,-875.74400000000003,367.68099999999998,567.73500000000001
174622.0,3680.8800000000001,3789.6599999999999,531.62800000000004,3613.71,-837.53399999999999,363.06200000000001,570.54100000000005
174623.0,3660.7199999999998,3804.9299999999998,461.35199999999998,3468.75,-799.96400000000006,336.75799999999998,569.31299999999999
174624.0,3619.9499999999998,3856.98,450.94600000000003,3367.6500000000001,-757.226,289.12299999999999,565.46900000000005
174625.0,3563.5999999999999,3828.3899999999999,387.07499999999999,3205.52,-712.21000000000004,223.38,559.97900000000004
174626.0,3489.9299999999998,3823.27,378.78800000000001,3094.5799999999999,-663.16700000000003,143.358,551.69000000000005
174627.0,3403.3200000000002,3741.1900000000001,323.11599999999999,2937.9699999999998,-611.23000000000002,53.171199999999999,538.62599999999998
174628.0,3312.3099999999999,3660.0599999999999,295.06099999999998,2827.3899999999999,-558.73699999999997,-44.735999999999997,520.96199999999999
174629.0,3229.2399999999998,3482.5999999999999,188.53999999999999,2659.6599999999999,-505.80399999999997,-143.779,510.30599999999998
174630.0,3140.5500000000002,3350.48,153.52099999999999,2566.25,-454.142,-234.69399999999999,500.221
174631.0,3042.77,3188.1399999999999,112.592,2468.7399999999998,-400.67399999999998,-323.00799999999998,483.00299999999999
174632.0,3839.1399999999999,3526.8600000000001,578.48099999999999,4015.6399999999999,-1015.75,264.29500000000002,594.75800000000004
174633.0,3884.7800000000002,3600.77,542.61500000000001,4027.2600000000002,-977.84299999999996,315.87299999999999,601.428
174634.0,3913.8299999999999,3695.48,525.05399999999997,4011.71,-949.64200000000005,356.786,599.02700000000004
174635.0,3908.6999999999998,3824.1900000000001,552.32399999999996,3993.0500000000002,-911.69399999999996,377.01900000000001,597.72199999999998
174636.0,3901.4499999999998,3927.8200000000002,544.31799999999998,3922.5799999999999,-870.36000000000001,381.57400000000001,600.42600000000004
174637.0,3884.0999999999999,3982.3299999999999,500.80099999999999,3803.3600000000001,-831.73599999999999,366.05399999999997,599.68299999999999
174638.0,3843.7600000000002,4019.27,465.09800000000001,3675.1199999999999,-788.46900000000005,327.15800000000002,594.68100000000004
174639.0,3786.2600000000002,4020.8400000000001,420.50799999999998,3527.7800000000002,-742.24099999999999,267.46899999999999,588.23900000000003
174640.0,3708.1999999999998,3999.4699999999998,388.09100000000001,3385.3600000000001,-692.245,193.238,577.27099999999996
174641.0,3621.9000000000001,3927.1700000000001,329.07499999999999,3227.46,-638.15200000000004,105.625,561.15499999999997
174642.0,3536.8299999999999,3801.6399999999999,242.91900000000001,3061.04,-586.54100000000005,10.3751,547.51700000000005
174643.0,3443.4099999999999,3665.25,177.64400000000001,2917.1900000000001,-532.66800000000001,-85.137200000000007,538.53300000000002
174644.0,3341.8099999999999,3548.4499999999998,156.096,2820.4000000000001,-477.03500000000003,-175.49600000000001,524.18399999999997
174645.0,3240.2800000000002,3395.4499999999998,116.96899999999999,2719.8200000000002,-422.22199999999998,-264.31200000000001,505.01499999999999
174646.0,4051.4400000000001,3648.3299999999999,607.28800000000001,4320.7799999999997,-1050.7,232.66,631.08299999999997
174647.0,4097.9200000000001,3750.8099999999999,599.23900000000003,4365.21,-1010.37,297.80599999999998,637.20699999999999
174648.0,4135.0200000000004,3811.8899999999999,537.10799999999995,4315.0600000000004,-980.65099999999995,354.49900000000002,635.38900000000001
174649.0,4139.6499999999996,3964.1700000000001,576.13999999999999,4319.4499999999998,-945.82100000000003,387.661,630.73099999999999
174650.0,4130.6499999999996,4061.6199999999999,556.45500000000004,4238.2399999999998,-903.80899999999997,401.48500000000001,630.25
174651.0,4114.5900000000001,4150.5699999999997,533.197,4139.1400000000003,-862.63499999999999,395.76799999999997,628.05899999999997
174652.0,4077.4299999999998,4173.3299999999999,470.666,3983.8299999999999,-820.02499999999998,366.50400000000002,622.13999999999999
174653.0,4016.5700000000002,4205.2299999999996,446.92099999999999,3850.3099999999999,-772.35000000000002,314.14699999999999,613.80499999999995
174654.0,3937.4499999999998,4170.8699999999999,389.66800000000001,3679.3400000000001,-720.928,244.97800000000001,601.04200000000003
174655.0,3856.54,4104.7299999999996,322.48399999999998,3517.6799999999998,-666.38800000000003,159.876,587.18799999999999
174656.0,3768.6799999999998,3970.3400000000001,220.726,3323.73,-614.32500000000005,69.368600000000001,578.26300000000003
174657.0,3662.4200000000001,3877.4400000000001,197.071,3203.0799999999999,-558.08900000000006,-23.035299999999999,565.49199999999996
174658.0,3555.1700000000001,3747.6900000000001,155.304,3080.1300000000001,-500.79399999999998,-113.301,546.37900000000002
174659.0,3450.9499999999998,3625.8499999999999,139.16200000000001,2998.1900000000001,-445.24900000000002,-201.62100000000001,525.94899999999996
174660.0,4263.2600000000002,3750.6799999999998,623.39200000000005,4613.71,-1082.3499999999999,198.37899999999999,663.11500000000001
174661.0,4310.4700000000003,3874.8499999999999,636.15999999999997,4685.6800000000003,-1040.3099999999999,276.77300000000002,666.08500000000004
174662.0,4353.1000000000004,3927.8699999999999,556.10900000000004,4626.6499999999996,-1008.66,348.49599999999998,663.26999999999998
174663.0,4368.1199999999999,4087.3200000000002,588.64800000000002,4633.54,-976.51599999999996,396.56700000000001,657.71799999999996
174664.0,4361.75,4191.7399999999998,570.12599999999998,4556.7799999999997,-936.11500000000001,421.80700000000002,655.95399999999995
174665.0,4348.7700000000004,4319.7399999999998,571.11599999999999,4484.9200000000001,-892.48699999999997,425.84300000000002,653.07299999999998
174666.0,4314.3900000000003,4334.3699999999999,487.79899999999998,4305.5100000000002,-851.03999999999996,407.12299999999999,647.53700000000003
174667.0,4252.6000000000004,4392.1199999999999,476.99799999999999,4183.25,-801.13699999999994,362.83499999999998,635.12
174668.0,4180.0600000000004,4331.9300000000003,376.06299999999999,3973.4400000000001,-751.16600000000005,297.00299999999999,620.822
174669.0,4097.9899999999998,4277.5600000000004,314.178,3808.27,-697.18499999999995,216.512,612.64800000000002
174670.0,4000.4200000000001,4154.8100000000004,219.30799999999999,3603.6199999999999,-642.0,131.24600000000001,603.43799999999999
174671.0,3889.75,4084.6399999999999,208.566,3488.9099999999999,-584.76099999999997,41.047400000000003,585.798
174672.0,3779.98,3956.48,160.43700000000001,3354.4400000000001,-526.29300000000001,-47.731499999999997,566.70399999999995
174673.0,3672.5799999999999,3843.8299999999999,145.142,3267.04,-469.00599999999997,-135.36099999999999,545.69200000000001
174674.0,4471.29,3873.3400000000001,670.24800000000005,4931.7299999999996,-1110.0899999999999,162.126,694.39700000000005
174675.0,4523.46,3995.3000000000002,677.95100000000002,5010.0299999999997,-1067.8499999999999,254.595,694.16700000000003
174676.0,4574.54,4051.1199999999999,589.58100000000002,4956.1899999999996,-1035.3599999999999,340.16399999999999,690.18899999999996
174677.0,4602.2700000000004,4206.6700000000001,601.11699999999996,4956.1899999999996,-1005.28,403.82600000000002,682.07100000000003
174678.0,4599.4099999999999,4326.0799999999999,590.09299999999996,4889.1700000000001,-967.69399999999996,441.94499999999999,678.45799999999997
174679.0,4587.25,4465.5299999999997,591.15300000000002,4816.8199999999997,-922.04700000000003,456.887,675.98500000000001
174680.0,4555.6499999999996,4501.4399999999996,513.96699999999998,4643.0500000000002,-880.73299999999995,448.88,667.75
174681.0,4502.3199999999997,4551.4300000000003,475.10199999999998,4501.04,-830.21500000000003,411.71600000000001,653.44799999999998
174682.0,4439.8299999999999,4479.1300000000001,345.18200000000002,4266.04,-783.67600000000004,351.71300000000002,644.07899999999995
174683.0,4347.5500000000002,4455.0900000000001,311.077,4109.7700000000004,-729.07399999999996,278.31799999999998,635.90899999999999
174684.0,4239.1999999999998,4363.6000000000004,241.40700000000001,3913.8400000000001,-670.14099999999996,196.09299999999999,623.80600000000004
174685.0,4128.1099999999997,4295.4799999999996,220.63499999999999,3783.9200000000001,-611.57399999999996,108.22499999999999,606.23900000000003
174686.0,4015.2600000000002,4174.21,171.50899999999999,3641.7600000000002,-552.82799999999997,21.542400000000001,585.98800000000006
174687.0,3904.8000000000002,4074.0999999999999,159.696,3551.8000000000002,-493.97399999999999,-65.581800000000001,563.22500000000002
174688.0,4673.79,3970.1700000000001,701.48199999999997,5230.8800000000001,-1133.3299999999999,121.395,719.30899999999997
174689.0,4733.0299999999997,4100.0100000000002,712.26800000000003,5324.3500000000004,-1091.73,229.71100000000001,717.428
174690.0,4791.6999999999998,4157.1199999999999,618.221,5274.6199999999999,-1060.23,330.33699999999999,714.94100000000003
174691.0,4831.1800000000003,4317.6000000000004,618.83100000000002,5276.1599999999999,-1030.3,411.048,707.97500000000002
174692.0,4838.8500000000004,4438.7299999999996,593.33100000000002,5205.1599999999999,-996.93100000000004,462.61799999999999,699.779
174693.0,4825.8999999999996,4620.8599999999997,629.28499999999997,5166.9099999999999,-951.36400000000003,488.74200000000002,694.49900000000002
174694.0,4803.6499999999996,4650.0900000000001,522.76700000000005,4972.9200000000001,-907.76199999999994,490.76999999999998,685.31899999999996
174695.0,4764.6599999999999,4700.2799999999997,462.20800000000003,4817.7299999999996,-861.71799999999996,461.291,674.077
174696.0,4699.4499999999998,4633.4200000000001,331.14999999999998,4569.0200000000004,-815.51700000000005,410.44200000000001,670.21799999999996
174697.0,4600.8800000000001,4649.79,326.69099999999997,4429.9300000000003,-758.61800000000005,344.125,658.08900000000006
174698.0,4488.0699999999997,4553.7700000000004,243.041,4212.5600000000004,-699.69500000000005,264.06200000000001,642.11900000000003
174699.0,4373.9200000000001,4517.0200000000004,242.946,4095.3299999999999,-639.36400000000003,178.297,623.48699999999997
174700.0,4259.2799999999997,4386.0699999999997,174.535,3926.8499999999999,-580.28599999999994,93.967799999999997,603.01900000000001
174701.0,4146.8900000000003,4308.3400000000001,175.29599999999999,3843.9400000000001,-520.00999999999999,8.0373999999999999,579.34500000000003
174702.0,4869.9799999999996,4058.29,738.78800000000001,5527.21,-1152.8499999999999,78.549300000000002,743.423
174703.0,4936.8199999999997,4209.21,763.06200000000001,5647.9899999999998,-1111.6300000000001,202.78700000000001,738.78399999999999
174704.0,5002.2700000000004,4258.1400000000003,653.66200000000003,5593.8100000000004,-1082.25,318.50700000000001,733.45500000000004
174705.0,5054.3500000000004,4449.5699999999997,667.41499999999996,5626.04,-1051.4300000000001,414.07499999999999,725.07100000000003
174706.0,5079.1700000000001,4540.8199999999997,591.24900000000002,5518.8999999999996,-1023.25,482.57100000000003,716.36400000000003
174707.0,5069.3000000000002,4757.2200000000003,652.77099999999996,5509.3100000000004,-979.68100000000004,521.37699999999995,708.01800000000003
174708.0,5058.1099999999997,4783.2200000000003,518.84100000000001,5296.8699999999999,-934.63499999999999,531.53800000000001,701.68600000000004
174709.0,5028.4799999999996,4847.0799999999999,455.92000000000002,5137.3599999999997,-894.28599999999994,513.44799999999998,696.24199999999996
174710.0,4954.4799999999996,4808.29,346.25599999999997,4895.5900000000001,-845.55799999999999,472.11700000000002,689.53899999999999
174711.0,4855.4300000000003,4850.8699999999999,351.96600000000001,4760.3299999999999,-787.822,410.82900000000001,674.76400000000001
174712.0,4743.6899999999996,4757.3800000000001,258.21600000000001,4529.3400000000001,-729.173,335.13299999999998,658.82299999999998
174713.0,4628.0600000000004,4739.4499999999998,265.255,4413.2200000000003,-668.22000000000003,251.97,638.65899999999999
174714.0,4511.71,4606.3400000000001,184.29599999999999,4225.0699999999997,-608.47400000000005,169.60900000000001,617.697
174715.0,4397.7799999999997,4548.6899999999996,194.82599999999999,4145.5,-547.57399999999996,85.343299999999999,593.25800000000004
174716.0,5054.6199999999999,4142.3400000000001,785.27599999999995,5822.2200000000003,-1166.0599999999999,32.269599999999997,760.62199999999996
174717.0,5130.9399999999996,4286.2399999999998,795.904,5944.3599999999997,-1126.97,173.08500000000001,754.38800000000003
174718.0,5207.1899999999996,4356.1899999999996,697.72199999999998,5915.8100000000004,-1100.54,304.63499999999999,748.39099999999996
174719.0,5273.7700000000004,4538.8699999999999,686.98800000000006,5939.9499999999998,-1071.1300000000001,415.57499999999999,742.93200000000002
174720.0,5318.6400000000003,4644.9399999999996,601.96299999999997,5845.1099999999997,-1046.1099999999999,501.49099999999999,733.05200000000002
174721.0,5324.3100000000004,4862.5900000000001,643.63800000000003,5832.8900000000003,-1006.48,553.66200000000003,719.93499999999995
174722.0,5318.46,4906.1800000000003,511.20499999999998,5621.0500000000002,-964.31799999999998,573.71100000000001,716.524
174723.0,5284.9700000000003,5005.5299999999997,473.91399999999999,5472.8699999999999,-924.55600000000004,568.22299999999996,713.23400000000004
174724.0,5211.0500000000002,4994.0299999999997,375.34399999999999,5237.6499999999996,-874.21900000000005,535.80200000000002,703.37300000000005
174725.0,5116.0799999999999,5043.5,370.74099999999999,5090.8199999999997,-817.94600000000003,479.57100000000003,687.79300000000001
174726.0,5004.3400000000001,4966.2799999999997,280.04399999999998,4857.0299999999997,-758.96900000000005,408.63999999999999,671.69799999999998
174727.0,4888.6000000000004,4950.6899999999996,276.69400000000002,4724.4499999999998,-697.77800000000002,328.76299999999998,651.52999999999997
174728.0,4771.1800000000003,4837.4499999999998,204.56100000000001,4538.5100000000002,-637.43299999999999,248.74199999999999,630.21699999999998
174729.0,4656.8999999999996,4776.3800000000001,199.86799999999999,4437.6099999999997,-576.05499999999995,166.256,605.38300000000004
174730.0,5228.3900000000003,4231.3299999999999,853.63099999999997,6124.8299999999999,-1174.52,-16.393699999999999,776.06700000000001
174731.0,5314.8699999999999,4334.9899999999998,817.05899999999997,6216.8199999999997,-1137.8599999999999,141.279,767.36199999999997
174732.0,5403.9200000000001,4463.7399999999998,764.38199999999995,6251.79,-1114.5599999999999,288.05099999999999,759.31500000000005
174733.0,5483.3400000000001,4621.79,714.93100000000004,6252.4899999999998,-1088.1500000000001,414.697,753.93700000000001
174734.0,5546.9200000000001,4774.8800000000001,655.38599999999997,6202.8599999999997,-1064.3800000000001,517.971,746.73099999999999
174735.0,5577.1599999999999,4929.3000000000002,606.05999999999995,6119.6199999999999,-1030.7,586.73199999999997,737.46000000000004
174736.0,5576.1999999999998,5054.0299999999997,541.13800000000003,5975.1899999999996,-993.505,620.33600000000001,731.81399999999996
174737.0,5539.7799999999997,5145.3999999999996,481.01100000000002,5797.5,-952.13800000000003,625.00300000000004,724.38300000000004
174738.0,5471.1700000000001,5195.8400000000001,423.80900000000003,5602.8299999999999,-902.98699999999997,600.58600000000001,713.05200000000002
174739.0,5380.2299999999996,5217.9499999999998,375.202,5409.5799999999999,-847.625,550.91700000000003,698.56600000000003
174740.0,5269.9399999999996,5192.5500000000002,321.35300000000001,5207.7399999999998,-789.19600000000003,484.91899999999998,682.03300000000002
174741.0,5154.4799999999996,5153.8400000000001,281.24299999999999,5032.4300000000003,-727.65899999999999,408.56400000000002,661.822
174742.0,5036.6999999999998,5080.0900000000001,236.78999999999999,4867.6700000000001,-667.63099999999997,331.23899999999998,639.82000000000005
174743.0,4922.6000000000004,5005.2600000000002,205.70400000000001,4734.54,-605.49099999999999,250.566,614.83799999999997
174744.0,5381.5299999999997,4273.1700000000001,894.47699999999998,6379.0,-1175.0699999999999,-67.910300000000007,783.08600000000001
174745.0,5480.2299999999996,4404.6999999999998,878.33600000000001,6509.8400000000001,-1142.5799999999999,106.02,772.95500000000004
174746.0,5586.3500000000004,4517.3800000000001,794.55399999999997,6535.3999999999996,-1123.6400000000001,268.80500000000001,765.54700000000003
174747.0,5683.3199999999997,4708.8000000000002,762.83199999999999,6574.6000000000004,-1101.5999999999999,411.71800000000002,760.88099999999997
174748.0,5764.6199999999999,4857.2299999999996,677.63699999999994,6518.6199999999999,-1079.75,531.73099999999999,755.41200000000003
174749.0,5812.21,5057.5500000000002,649.32899999999995,6467.5600000000004,-1051.25,619.03300000000002,748.47799999999995
174750.0,5821.0100000000002,5171.25,555.30600000000004,6299.1999999999998,-1018.13,668.63599999999997,741.03300000000002
174751.0,5793.1499999999996,5318.6499999999996,528.92200000000003,6161.3999999999996,-977.976,683.07299999999998,731.03099999999995
174752.0,5733.0900000000001,5358.0500000000002,438.65800000000002,5935.8699999999999,-931.36599999999999,667.01099999999997,719.84500000000003
174753.0,5646.5600000000004,5422.5299999999997,414.43599999999998,5764.6800000000003,-877.14499999999998,624.53800000000001,705.62400000000002
174754.0,5538.5699999999997,5385.5500000000002,332.88200000000001,5530.5900000000001,-819.505,563.72199999999998,689.02999999999997
174755.0,5424.3900000000003,5379.96,311.27300000000002,5368.1800000000003,-758.16800000000001,491.34500000000003,669.13199999999995
174756.0,5307.2200000000003,5299.8400000000001,247.221,5177.5299999999997,-698.17100000000005,417.08300000000003,647.149
174757.0,5194.1700000000001,5249.9799999999996,227.63200000000001,5050.4899999999998,-635.90599999999995,338.60899999999998,621.95299999999997
174758.0,5521.8400000000001,4312.4499999999998,952.197,6632.3199999999997,-1170.3499999999999,-122.261,789.154
174759.0,5633.6400000000003,4418.3199999999997,901.75300000000004,6749.4200000000001,-1142.6600000000001,68.290099999999995,776.57100000000003
174760.0,5755.8999999999996,4590.1300000000001,861.73199999999997,6840.9899999999998,-1128.4200000000001,246.005,767.98800000000006
174761.0,5874.04,4764.5799999999999,795.16099999999994,6872.0299999999997,-1110.55,405.18000000000001,763.51300000000003
174762.0,5973.1000000000004,4969.3699999999999,745.36199999999997,6870.8000000000002,-1092.0799999999999,543.95299999999997,757.85400000000004
174763.0,6036.4899999999998,5139.6199999999999,662.71000000000004,6777.3199999999997,-1068.3499999999999,650.46100000000001,750.38999999999999
174764.0,6060.2700000000004,5327.8800000000001,618.69600000000003,6669.3199999999997,-1039.74,715.94799999999998,742.28700000000003
174765.0,6044.9399999999996,5444.5900000000001,537.96199999999999,6484.4700000000003,-1002.63,742.12099999999998,733.625
174766.0,5993.5500000000002,5552.2799999999997,493.69900000000001,6307.0299999999997,-958.66999999999996,735.09900000000005,722.86300000000006
174767.0,5912.8199999999997,5587.8699999999999,420.94799999999998,6085.9799999999996,-906.178,700.11699999999996,709.11199999999997
174768.0,5808.8100000000004,5609.21,380.012,5889.0600000000004,-849.673,645.14400000000001,693.21199999999999
174769.0,5696.9399999999996,5577.6300000000001,316.392,5679.8699999999999,-788.88400000000001,576.94899999999996,673.423
174770.0,5581.3500000000004,5546.8100000000004,287.44,5518.8299999999999,-729.58799999999997,506.01100000000002,651.12199999999996
174771.0,5470.0500000000002,5476.1300000000001,232.68799999999999,5351.4499999999998,-667.33900000000006,429.83499999999998,626.00599999999997
174772.0,5623.0799999999999,4332.0200000000004,1019.33,6854.3900000000003,-1153.9000000000001,-178.52500000000001,782.47000000000003
174773.0,5752.0500000000002,4455.5900000000001,975.79899999999998,7001.9099999999999,-1133.99,27.121500000000001,768.69600000000003
174774.0,5900.3000000000002,4614.0100000000002,904.06500000000005,7093.9300000000003,-1126.8299999999999,218.5,763.10900000000004
174775.0,6046.8000000000002,4819.6499999999996,848.72699999999998,7170.6700000000001,-1114.1400000000001,394.57499999999999,761.93600000000004
174776.0,6172.8500000000004,5022.1300000000001,771.71699999999998,7172.0600000000004,-1100.55,555.24699999999996,757.00999999999999
174777.0,6255.6000000000004,5255.8199999999997,724.64800000000002,7130.6999999999998,-1082.1700000000001,682.03399999999999,748.69600000000003
174778.0,6294.3299999999999,5427.4099999999999,637.56100000000004,6989.1800000000003,-1058.8399999999999,763.279,740.48299999999995
174779.0,6291.6499999999996,5606.7700000000004,594.26300000000003,6848.96,-1025.49,801.83600000000001,731.75400000000002
174780.0,6251.0299999999997,5698.0200000000004,509.86900000000003,6635.6000000000004,-984.81899999999996,804.62599999999998,721.87199999999996
174781.0,6177.8800000000001,5786.96,468.75999999999999,6446.2600000000002,-934.41099999999994,777.71500000000003,709.01099999999997
174782.0,6078.9499999999998,5792.1700000000001,392.83300000000003,6211.9899999999998,-879.85199999999998,728.76400000000001,693.32399999999996
174783.0,5970.71,5805.4099999999999,356.375,6025.9499999999998,-819.68399999999997,665.26400000000001,674.21199999999999
174784.0,5857.71,5758.4799999999996,296.10599999999999,5828.2299999999996,-761.39200000000005,598.07899999999995,652.47299999999996
174785.0,5749.2700000000004,5728.4499999999998,266.08699999999999,5681.1099999999997,-699.26400000000001,524.64200000000005,627.25800000000004
174786.0,5717.6899999999996,4299.29,1052.3299999999999,7027.2399999999998,-1134.25,-238.25,778.92600000000004
174787.0,5862.21,4418.9399999999996,994.06600000000003,7183.1199999999999,-1122.76,-17.032900000000001,762.76900000000001
174788.0,6030.1000000000004,4637.6700000000001,966.84400000000005,7347.6300000000001,-1121.3900000000001,184.88999999999999,757.26199999999994
174789.0,6207.8900000000003,4837.4700000000003,885.928,7440.3000000000002,-1112.51,378.67399999999998,757.21799999999996
174790.0,6359.5200000000004,5102.8800000000001,846.63900000000001,7508.9300000000003,-1103.4400000000001,564.78099999999995,750.21900000000005
174791.0,6463.2299999999996,5309.9200000000001,742.60599999999999,7427.9499999999998,-1092.1199999999999,713.42899999999997,741.19000000000005
174792.0,6519.1999999999998,5562.7200000000003,707.10799999999995,7349.96,-1074.8699999999999,810.51099999999997,733.42700000000002
174793.0,6531.7600000000002,5712.71,607.33500000000004,7162.5900000000001,-1046.22,862.13499999999999,726.0
174794.0,6503.0500000000002,5876.7600000000002,570.30700000000002,7001.7299999999996,-1009.35,875.43399999999997,716.61800000000005
174795.0,6439.2600000000002,5940.54,480.88099999999997,6766.0900000000001,-961.79399999999998,856.81899999999996,704.72199999999998
174796.0,6347.3900000000003,6004.9899999999998,443.15300000000002,6568.7799999999997,-909.298,814.73599999999999,690.38199999999995
174797.0,6243.96,5996.9399999999996,366.60500000000002,6339.8199999999997,-850.50199999999995,756.07000000000005,671.63300000000004
174798.0,6134.8999999999996,6001.3400000000001,340.89100000000002,6172.6199999999999,-793.62800000000004,692.90899999999999,650.02999999999997
174799.0,6030.1199999999999,5952.7399999999998,275.79899999999998,5986.4300000000003,-732.20399999999995,622.31299999999999,625.06500000000005
174800.0,5732.1400000000003,4300.8900000000003,1163.73,7197.1199999999999,-1094.3699999999999,-295.85399999999998,749.69399999999996
174801.0,5900.3400000000001,4434.2700000000004,1106.8,7382.0,-1098.04,-66.308999999999997,733.49800000000005
174802.0,6114.79,4618.2700000000004,1020.38,7542.3199999999997,-1107.1099999999999,141.827,738.90099999999995
174803.0,6343.1800000000003,4862.9300000000003,961.56299999999999,7720.4799999999996,-1103.03,355.16899999999998,746.76400000000001
174804.0,6535.1300000000001,5103.2600000000002,864.26199999999994,7775.8299999999999,-1100.5699999999999,573.95399999999995,740.53399999999999
174805.0,6658.8800000000001,5406.2399999999998,821.50400000000002,7771.79,-1098.03,745.30700000000002,729.42399999999998
174806.0,6732.75,5624.5799999999999,720.41800000000001,7641.96,-1087.3599999999999,857.51300000000003,721.74300000000005
174807.0,6761.9300000000003,5864.4399999999996,681.30999999999995,7526.0200000000004,-1064.51,922.66899999999998,714.67700000000002
174808.0,6747.8599999999997,5993.3999999999996,581.81500000000005,7310.6099999999997,-1031.97,947.01800000000003,707.06100000000004
174809.0,6695.5200000000004,6132.5299999999997,542.41399999999999,7128.4300000000003,-987.97699999999998,937.68600000000004,696.51800000000003
174810.0,6612.0699999999997,6169.8999999999996,455.02600000000001,6882.29,-938.15700000000004,902.30799999999999,682.67200000000003
174811.0,6515.4300000000003,6222.3999999999996,418.34100000000001,6691.3800000000001,-881.27200000000005,849.36699999999996,665.22299999999996
174812.0,6411.1800000000003,6200.8599999999997,348.73700000000002,6476.6400000000003,-825.68600000000004,790.49199999999996,644.48400000000004
174813.0,6311.3500000000004,6205.8699999999999,319.18200000000002,6322.3900000000003,-765.49199999999996,723.39700000000005,619.86599999999999
174814.0,5758.6700000000001,4162.04,1143.45,7229.6000000000004,-1058.49,-357.68900000000002,738.40300000000002
174815.0,5949.1300000000001,4303.7200000000003,1083.9300000000001,7440.1599999999999,-1079.8199999999999,-119.57299999999999,718.38199999999995
174816.0,6189.9799999999996,4581.8199999999997,1079.98,7721.8900000000003,-1092.6300000000001,83.754499999999993,729.005
174817.0,6473.54,4806.8599999999997,983.65800000000002,7940.4700000000003,-1085.8699999999999,324.03399999999999,738.82000000000005
174818.0,6694.1599999999999,5162.4399999999996,966.18700000000001,8108.8500000000004,-1090.0599999999999,584.13999999999999,723.34000000000003
174819.0,6838.3299999999999,5408.1400000000003,827.09900000000005,8023.6899999999996,-1099.5,776.86699999999996,710.98199999999997
174820.0,6931.5200000000004,5748.3000000000002,814.79899999999998,7998.1800000000003,-1095.75,904.13,704.85199999999998
174821.0,6980.6499999999996,5924.3699999999999,681.05899999999997,7801.75,-1079.98,983.35299999999995,699.75999999999999
174822.0,6982.6499999999996,6167.25,665.47000000000003,7679.8299999999999,-1052.2,1019.4,692.60699999999997
174823.0,6943.8900000000003,6252.3000000000002,545.25199999999995,7422.79,-1012.78,1019.4,683.71299999999997
174824.0,6871.21,6380.9899999999998,524.02700000000004,7244.9399999999996,-965.70799999999997,991.94000000000005,671.65200000000004
174825.0,6782.5299999999997,6388.6499999999996,420.77300000000002,6987.1499999999996,-911.58500000000004,944.56500000000005,655.13999999999999
174826.0,6684.9499999999998,6447.6300000000001,411.80799999999999,6831.2200000000003,-857.91899999999998,890.44200000000001,634.61099999999999
174827.0,6591.04,6411.1999999999998,322.20999999999998,6614.29,-799.49199999999996,826.774,610.99099999999999
174828.0,5563.4799999999996,4240.3299999999999,1439.8699999999999,7349.0,-981.053,-398.80099999999999,677.17700000000002
174829.0,5817.8299999999999,4319.3599999999997,1291.7,7530.9099999999999,-1039.25,-181.49100000000001,659.28700000000003
174830.0,6181.6199999999999,4514.0,1166.6500000000001,7836.2399999999998,-1064.5999999999999,-2.70947,695.12
174831.0,6574.8100000000004,4797.3699999999999,1098.6300000000001,8224.4500000000007,-1052.54,281.60700000000003,722.31600000000003
174832.0,6847.0699999999997,5090.7600000000002,960.87900000000002,8323.3199999999997,-1074.0699999999999,600.98400000000004,702.96799999999996
174833.0,6996.7399999999998,5487.7799999999997,932.68200000000002,8349.2800000000007,-1095.95,807.851,688.39599999999996
174834.0,7114.0699999999997,5754.6099999999997,814.20299999999997,8241.1100000000006,-1099.6800000000001,949.99300000000005,683.14200000000005
174835.0,7184.0699999999997,6065.9499999999998,781.26700000000005,8160.54,-1092.1900000000001,1043.6500000000001,678.26700000000005
174836.0,7205.1000000000004,6240.54,666.55899999999997,7952.4799999999996,-1069.74,1091.8499999999999,673.73099999999999
174837.0,7182.7200000000003,6435.3500000000004,625.82500000000005,7782.8199999999997,-1035.71,1102.3900000000001,666.61099999999999
174838.0,7122.3199999999997,6517.6300000000001,532.053,7537.3100000000004,-992.22400000000005,1082.46,655.36699999999996
174839.0,7044.3000000000002,6608.2600000000002,487.16800000000001,7339.1400000000003,-941.26199999999994,1041.8699999999999,640.86599999999999
174840.0,6953.9899999999998,6627.7700000000004,418.10300000000001,7121.4399999999996,-889.59199999999998,992.65599999999995,621.447
174841.0,6867.6300000000001,6660.4899999999998,376.99900000000002,6951.0900000000001,-833.37199999999996,933.31200000000001,598.58699999999999
174842.0,5544.3599999999997,3764.46,1016.9299999999999,6972.5,-910.67899999999997,-515.42499999999995,516.51499999999999
174843.0,5809.54,3967.8299999999999,1045.8299999999999,7305.1999999999998,-1037.1700000000001,-288.29899999999998,531.18100000000004
174844.0,6206.1599999999999,4333.1499999999996,1167.9300000000001,7873.8699999999999,-1047.3499999999999,-149.93799999999999,682.06899999999996
174845.0,6719.5500000000002,4632.4300000000003,1095.3,8435.0,-998.553,243.05699999999999,721.76900000000001
174846.0,6976.29,5140.8800000000001,1096.77,8644.4500000000007,-1055.25,629.51999999999998,668.41700000000003
174847.0,7130.3699999999999,5421.6700000000001,919.99400000000003,8530.3999999999996,-1084.54,833.28499999999997,659.96299999999997
174848.0,7278.0299999999997,5866.71,941.50099999999998,8588.5,-1100.04,996.72699999999998,655.19399999999996
174849.0,7368.9899999999998,6064.6199999999999,762.35299999999995,8379.5699999999997,-1099.73,1102.3299999999999,653.44100000000003
174850.0,7413.6000000000004,6405.4399999999996,777.46600000000001,8317.6100000000006,-1084.8,1165.3099999999999,649.38
174851.0,7408.0500000000002,6513.3299999999999,619.63999999999999,8041.4099999999999,-1056.0599999999999,1184.8,644.351
174852.0,7363.9499999999998,6718.4399999999996,618.73500000000001,7895.2200000000003,-1017.22,1175.05,635.65099999999995
174853.0,7296.8699999999999,6746.9099999999999,486.58699999999999,7612.9499999999998,-969.65200000000004,1139.99,622.24300000000005
174854.0,7217.1400000000003,6866.7200000000003,494.55700000000002,7473.1999999999998,-921.32799999999997,1096.95,603.81899999999996
174855.0,7138.6800000000003,6848.0600000000004,381.238,7229.8999999999996,-867.34299999999996,1041.2,582.16600000000005
174856.0,4098.8199999999997,4341.5299999999997,2378.0100000000002,6753.1800000000003,-707.70100000000002,-242.577,488.005
174857.0,4706.9799999999996,4147.2799999999997,1956.51,6820.1000000000004,-1020.53,-368.065,524.68600000000004
174858.0,6002.3699999999999,4186.29,1478.1199999999999,7887.6499999999996,-979.08399999999995,-401.32499999999999,732.875
174859.0,6881.1800000000003,4658.3599999999997,1342.1800000000001,8901.5599999999995,-911.02099999999996,252.34200000000001,729.55799999999999
174860.0,7090.6800000000003,4945.1800000000003,987.58500000000004,8692.1599999999999,-1039.8699999999999,663.65300000000002,627.428
174861.0,7233.25,5530.2700000000004,1117.0999999999999,8885.1299999999992,-1064.02,856.43700000000001,628.846
174862.0,7420.9200000000001,5761.0600000000004,876.11400000000003,8718.0799999999999,-1096.0699999999999,1040.95,622.83399999999995
174863.0,7533.3299999999999,6227.8299999999999,932.44899999999996,8763.7600000000002,-1102.73,1161.46,620.55899999999997
174864.0,7603.4899999999998,6392.8100000000004,732.87099999999998,8506.1900000000005,-1096.3199999999999,1236.54,621.10900000000004
174865.0,7619.2799999999997,6709.3400000000001,751.05700000000002,8419.9500000000007,-1073.76,1269.0899999999999,617.25
174866.0,7592.7399999999998,6793.1400000000003,596.20399999999995,8129.4700000000003,-1040.4400000000001,1266.79,610.70500000000004
174867.0,7540.0100000000002,6977.4399999999996,592.86400000000003,7981.0900000000001,-996.87599999999998,1240.4300000000001,599.03399999999999
174868.0,7470.96,6998.8800000000001,477.541,7718.9399999999996,-951.774,1202.3499999999999,582.69200000000001
174869.0,7402.75,7107.8400000000001,469.202,7581.0500000000002,-900.90499999999997,1152.3099999999999,561.40800000000002
174870.0,5336.0900000000001,1708.6500000000001,-1948.47,3431.27,-368.166,-515.66899999999998,-1242.01
174871.0,5860.6899999999996,1963.7,-482.49299999999999,4755.1800000000003,-1496.01,-1373.49,-675.649
174872.0,6852.0,3357.3200000000002,930.76599999999996,8192.5400000000009,-798.91899999999998,-956.09100000000001,656.34100000000001
174873.0,7450.3599999999997,4406.5600000000004,1061.95,9292.0599999999995,-865.84299999999996,431.70600000000002,659.58600000000001
174874.0,7058.8000000000002,5062.9399999999996,1251.6199999999999,8941.9899999999998,-1008.78,671.30399999999997,595.61500000000001
174875.0,7330.3699999999999,5342.9899999999998,1046.6099999999999,8968.4599999999991,-1036.0999999999999,874.61000000000001,588.69799999999998
174876.0,7536.7399999999998,5876.2700000000004,1061.04,9062.2299999999996,-1088.1800000000001,1088.5699999999999,582.25599999999997
174877.0,7671.3500000000004,6141.1700000000001,879.11400000000003,8894.6299999999992,-1099.3800000000001,1215.55,586.34900000000005
174878.0,7774.96,6549.3500000000004,883.14499999999998,8867.4099999999999,-1104.6099999999999,1309.6900000000001,585.89599999999996
174879.0,7810.9399999999996,6730.6700000000001,728.56399999999996,8622.2900000000009,-1088.25,1350.6600000000001,585.31899999999996
174880.0,7806.4799999999996,6980.2200000000003,707.18700000000001,8478.6900000000005,-1060.95,1360.6500000000001,581.36000000000001
174881.0,7769.6099999999997,7078.3000000000002,586.01599999999996,8219.2999999999993,-1022.78,1340.3099999999999,571.57000000000005
174882.0,7714.4099999999999,7224.9499999999998,571.03499999999997,8062.6499999999996,-981.101,1309.5699999999999,556.57399999999996
174883.0,7657.21,7268.5699999999997,472.43900000000002,7835.1899999999996,-934.36199999999997,1263.47,537.07899999999995
174884.0,9743.8299999999999,-7776.8800000000001,-15896.200000000001,-5971.4300000000003,-1036.8499999999999,-785.89800000000002,-1416.8399999999999
174885.0,9304.8600000000006,-3943.9699999999998,-5801.9099999999999,791.08399999999995,-3409.8200000000002,-2327.0599999999999,-511.161
174886.0,7279.4899999999998,4715.1999999999998,4216.79,10852.700000000001,-252.52199999999999,-935.24000000000001,1751.1199999999999
174887.0,7455.1499999999996,4932.1499999999996,1515.0,9572.2700000000004,-743.98400000000004,881.96600000000001,916.79600000000005
174888.0,7069.8100000000004,4691.8599999999997,1094.9100000000001,8848.2800000000007,-1019.28,564.76199999999994,498.05700000000002
174889.0,7413.9200000000001,5433.8699999999999,1280.6600000000001,9323.9699999999993,-978.26900000000001,934.10900000000004,559.50400000000002
174890.0,7609.3999999999996,5696.2399999999998,978.33399999999995,9086.8299999999999,-1086.1300000000001,1119.03,534.17100000000005
174891.0,7789.3699999999999,6269.4899999999998,1076.1500000000001,9255.9200000000001,-1083.1199999999999,1273.4300000000001,544.971
174892.0,7919.3299999999999,6486.5799999999999,836.072,8996.0400000000009,-1113.3199999999999,1378.23,545.70699999999999
174893.0,7982.8999999999996,6886.9200000000001,870.14099999999996,8967.9799999999996,-1095.6800000000001,1433.72,549.154
174894.0,8003.04,7026.04,694.72799999999995,8682.0699999999997,-1081.3800000000001,1452.8,546.48099999999999
174895.0,7983.4300000000003,7271.0100000000002,693.60500000000002,8554.6200000000008,-1044.8099999999999,1441.52,539.625
174896.0,7944.2399999999998,7340.9700000000003,570.09100000000001,8292.6499999999996,-1010.08,1417.1400000000001,526.34199999999998
174897.0,7899.5500000000002,7493.3800000000001,557.15499999999997,8155.29,-965.827,1377.0899999999999,508.17000000000002
174898.0,14737.4,-19047.299999999999,-31862.700000000001,-17140.900000000001,-2555.71,-1173.9300000000001,-621.96500000000003
174899.0,12182.6,-8060.8800000000001,-6942.79,-301.86599999999999,-5171.3699999999999,-2266.1799999999998,-28.9908
174900.0,6688.7700000000004,10020.4,11839.9,16304.299999999999,1287.3800000000001,-522.41600000000005,1590.0899999999999
174901.0,6651.5600000000004,5359.4200000000001,1685.6400000000001,8986.1599999999999,-648.27099999999996,824.322,568.673
174902.0,7153.9899999999998,4650.3699999999999,1449.5599999999999,9294.9899999999998,-937.84199999999998,555.11400000000003,557.43700000000001
174903.0,7469.6999999999998,5228.9499999999998,1177.05,9286.7399999999998,-961.10000000000002,1002.8200000000001,477.18599999999998
174904.0,7622.75,5737.4799999999996,1195.8800000000001,9366.5400000000009,-1049.4000000000001,1123.72,495.45299999999997
174905.0,7897.3199999999997,6138.0900000000001,1018.75,9328.7800000000007,-1076.3800000000001,1346.4100000000001,493.65800000000002
174906.0,8023.21,6583.71,997.59100000000001,9300.3099999999995,-1108.25,1433.6800000000001,503.69
174907.0,8140.1599999999999,6875.2799999999997,857.64300000000003,9132.3700000000008,-1104.04,1522.25,504.96300000000002
174908.0,8171.3699999999999,7164.2399999999998,809.57299999999998,8986.2700000000004,-1095.6099999999999,1539.96,508.49299999999999
174909.0,8183.5100000000002,7347.6199999999999,699.86699999999996,8766.7800000000007,-1066.01,1545.29,502.05599999999998
174910.0,8155.54,7526.3999999999996,664.51999999999998,8599.7199999999993,-1036.6700000000001,1523.1600000000001,492.04399999999998
174911.0,8129.3400000000001,7636.9799999999996,575.69500000000005,8391.1800000000003,-996.31899999999996,1491.77,474.673
174912.0,15933.6,-24072.299999999999,-36190.099999999999,-21803.799999999999,-4495.3500000000004,-860.25400000000002,1962.8599999999999
174913.0,12496.9,-6072.9799999999996,-1646.8199999999999,4045.6500000000001,-4915.8299999999999,-1244.8299999999999,782.43600000000004
174914.0,7401.7799999999997,10239.9,11474.299999999999,16933.900000000001,2279.1599999999999,-446.85899999999998,421.73000000000002
174915.0,6779.6300000000001,5017.54,1267.3900000000001,8801.4699999999993,-1004.6799999999999,249.14099999999999,242.77500000000001
174916.0,7051.7399999999998,4933.4799999999996,2099.3899999999999,9860.3799999999992,-599.29399999999998,679.72900000000004,575.56200000000001
174917.0,7497.1700000000001,4881.5699999999997,932.44500000000005,9038.2199999999993,-1050.46,1022.84,395.822
174918.0,7606.9099999999999,5731.3999999999996,1446.1900000000001,9656.8400000000001,-947.89400000000001,1150.4200000000001,449.392
174919.0,7969.9799999999996,6042.3299999999999,1000.42,9388.7099999999991,-1094.0799999999999,1397.9300000000001,438.09399999999999
174920.0,8096.7299999999996,6587.9700000000003,1120.01,9534.6700000000001,-1079.6300000000001,1499.95,453.37099999999998
174921.0,8270.1900000000005,6889.25,888.39499999999998,9304.7800000000007,-1118.1199999999999,1599.1700000000001,459.36000000000001
174922.0,8316.5200000000004,7238.1599999999999,894.51700000000005,9234.0400000000009,-1100.1600000000001,1633.3499999999999,463.11000000000001
174923.0,8362.0799999999999,7444.4700000000003,746.99199999999996,8994.4899999999998,-1087.8299999999999,1642.6700000000001,461.62900000000002
174924.0,8347.0900000000001,7652.6999999999998,725.28599999999994,8847.75,-1058.6600000000001,1633.25,452.09100000000001
174925.0,8342.0799999999999,7793.3299999999999,626.96400000000006,8639.4200000000001,-1026.5799999999999,1603.8900000000001,437.89499999999998
174926.0,9989.5100000000002,-11514.5,-13935.5,-12499.700000000001,-4318.5600000000004,-242.94399999999999,3615.5599999999999
174927.0,9450.5100000000002,-24.288499999999999,6225.8000000000002,9063.1900000000005,-2271.6700000000001,-416.59300000000002,1679.46
174928.0,7548.0799999999999,7532.3999999999996,7684.2200000000003,14574.1,1572.01,26.692399999999999,582.50099999999998
174929.0,6817.6000000000004,4779.75,1994.1500000000001,9406.9200000000001,-1049.04,-99.285600000000002,602.46600000000001
174930.0,6997.9300000000003,5126.1499999999996,2395.5100000000002,10116.700000000001,-363.02100000000002,817.74599999999998,439.87
174931.0,7402.6499999999996,4584.4300000000003,877.92899999999997,8880.7999999999993,-1081.6099999999999,962.78399999999999,359.28899999999999
174932.0,7613.2700000000004,5674.4799999999996,1624.8900000000001,9849.8899999999994,-866.04999999999995,1231.49,374.22800000000001
174933.0,7965.3900000000003,5880.8000000000002,998.63300000000004,9406.6700000000001,-1087.4200000000001,1409.6199999999999,390.59300000000002
174934.0,8161.4499999999998,6588.8299999999999,1244.78,9735.5699999999997,-1055.3,1584.0999999999999,392.87599999999998
174935.0,8355.3199999999997,6857.0799999999999,926.85500000000002,9448.6000000000004,-1120.48,1662.1400000000001,410.24599999999998
174936.0,8442.9799999999996,7298.1199999999999,980.90099999999995,9449.8299999999999,-1104.5,1730.5799999999999,412.08800000000002
174937.0,8510.8700000000008,7503.0699999999997,794.30499999999995,9194.3600000000006,-1103.8099999999999,1736.3699999999999,416.49799999999999
174938.0,8521.2299999999996,7776.3999999999996,800.66600000000005,9084.8799999999992,-1079.5799999999999,1743.1099999999999,407.83800000000002
174939.0,8532.0900000000001,7917.0299999999997,675.60199999999998,8860.5499999999993,-1054.0599999999999,1715.74,396.31
174940.0,10446.4,-4159.5900000000001,113.014,-3266.5,-3654.98,-3566.4699999999998,-2284.4200000000001
174941.0,7229.9899999999998,8137.1800000000003,13913.4,14737.6,1302.49,-751.13400000000001,1492.8900000000001
174942.0,6667.9499999999998,5771.1899999999996,5503.3599999999997,12215.1,198.20699999999999,426.79899999999998,398.01400000000001
174943.0,6673.04,5598.4300000000003,4028.8000000000002,11223.0,-214.67500000000001,-234.29300000000001,658.06500000000005
174944.0,7079.8299999999999,4504.1800000000003,1637.1099999999999,9412.4799999999996,-525.59500000000003,947.53499999999997,269.50999999999999
174945.0,7167.3000000000002,4678.2700000000004,1456.0999999999999,9271.5200000000004,-899.56899999999996,878.125,340.92099999999999
174946.0,7610.5799999999999,5282.5600000000004,1375.0699999999999,9550.8099999999995,-882.95299999999997,1311.8399999999999,291.44799999999998
174947.0,7897.3400000000001,5906.4300000000003,1316.5599999999999,9701.4500000000007,-1014.22,1421.0699999999999,334.714
174948.0,8207.0599999999995,6405.7600000000002,1164.25,9687.0799999999999,-1056.24,1657.45,330.58699999999999
174949.0,8392.0799999999999,6889.1800000000003,1105.77,9687.25,-1099.03,1729.05,353.60700000000003
174950.0,8550.1399999999994,7265.8999999999996,981.62699999999995,9550.0100000000002,-1113.9100000000001,1819.53,359.30099999999999
174951.0,8624.0599999999995,7583.8199999999997,911.84799999999996,9425.9099999999999,-1110.3399999999999,1832.8199999999999,364.815
174952.0,8675.2199999999993,7837.3199999999997,830.44200000000001,9250.3099999999995,-1100.23,1847.95,360.392
174953.0,8694.6900000000005,8044.4200000000001,762.76099999999997,9088.1299999999992,-1077.3900000000001,1829.04,349.899
174954.0,19598.299999999999,-14960.4,-8391.1299999999992,-1787.1800000000001,-6889.6800000000003,-5333.7700000000004,-2954.77
174955.0,8810.75,12382.299999999999,16475.400000000001,18332.799999999999,3566.8299999999999,-1661.5999999999999,1060.51
174956.0,5877.2700000000004,5413.54,5492.2200000000003,10973.4,-1042.5599999999999,289.387,428.06299999999999
174957.0,6790.2299999999996,7136.1999999999998,6843.3000000000002,13424.1,827.32600000000002,69.314300000000003,926.31399999999996
174958.0,7010.2600000000002,3651.1399999999999,662.36400000000003,8301.6599999999999,-790.37400000000002,933.423,255.822
174959.0,6995.0600000000004,4888.4499999999998,2236.48,9863.5499999999993,-658.04899999999998,907.02499999999998,248.57400000000001
174960.0,7501.6899999999996,4762.7700000000004,1025.7,9070.4500000000007,-909.84900000000005,1291.04,239.17699999999999
174961.0,7826.0600000000004,5938.3500000000004,1689.74,10000.4,-925.17499999999995,1491.5899999999999,255.40000000000001
174962.0,8187.4399999999996,6134.8599999999997,1042.0,9547.6200000000008,-1050.8299999999999,1686.1300000000001,275.39100000000002
174963.0,8409.2800000000007,6941.6800000000003,1337.55,9932.4400000000005,-1072.2,1817.54,285.97300000000001
174964.0,8611.8799999999992,7152.2799999999997,943.81100000000004,9573.8500000000004,-1116.02,1889.1199999999999,304.53100000000001
174965.0,8714.7099999999991,7676.0299999999997,1068.1900000000001,9657.5100000000002,-1114.4400000000001,1936.8199999999999,307.24799999999999
174966.0,8796.7199999999993,7840.1099999999997,837.96799999999996,9363.5100000000002,-1115.3299999999999,1944.71,309.23500000000001
174967.0,8835.0200000000004,8175.2299999999996,878.36199999999997,9310.8299999999999,-1098.6900000000001,1944.98,298.37799999999999
174968.0,19469.700000000001,-15280.4,-4028.0300000000002,969.85699999999997,-6957.1999999999998,-989.67899999999997,2774.3099999999999
174969.0,9290.9500000000007,10654.799999999999,14789.0,18010.400000000001,3313.21,-1720.3800000000001,1114.0699999999999
174970.0,4924.3299999999999,8073.8699999999999,9419.3899999999994,13136.1,-943.42100000000005,-195.16999999999999,528.995
174971.0,6204.1899999999996,8484.1200000000008,9169.7199999999993,14326.799999999999,1423.97,467.88499999999999,619.40300000000002
174972.0,6418.0699999999997,4015.0700000000002,1369.1199999999999,8425.9799999999996,-613.82799999999997,738.58500000000004,314.36599999999999
174973.0,6912.5600000000004,4183.9899999999998,1897.9300000000001,9327.8500000000004,-625.90200000000004,1019.91,119.678
174974.0,7289.6300000000001,4753.6300000000001,1422.8699999999999,9274.2600000000002,-805.06399999999996,1224.04,193.517
174975.0,7744.7299999999996,5552.5200000000004,1562.27,9734.8899999999994,-895.34500000000003,1568.8900000000001,172.01400000000001
174976.0,8102.2700000000004,6112.96,1301.75,9740.2399999999998,-997.73400000000004,1709.6700000000001,212.02699999999999
174977.0,8402.6499999999996,6725.1199999999999,1282.46,9841.6299999999992,-1060.71,1896.4000000000001,218.267
174978.0,8624.3700000000008,7186.7200000000003,1134.8900000000001,9779.0300000000007,-1099.0999999999999,1961.8499999999999,242.27000000000001
174979.0,8780.1200000000008,7594.5200000000004,1058.4200000000001,9686.3400000000001,-1120.52,2030.5799999999999,248.476
174980.0,8879.4400000000005,7923.3199999999997,981.38300000000004,9570.4200000000001,-1122.4100000000001,2044.3599999999999,251.22499999999999
174981.0,8950.1000000000004,8189.2700000000004,896.85199999999998,9406.0,-1118.05,2052.6900000000001,245.50800000000001
174982.0,12206.5,2664.9299999999998,15305.4,8762.25,-1303.29,1341.6500000000001,2491.0799999999999
174983.0,8404.4099999999999,9521.8999999999996,15572.200000000001,17410.0,2188.3000000000002,-705.96100000000001,1106.0799999999999
174984.0,5081.3500000000004,9949.8199999999997,12322.700000000001,15556.200000000001,317.68599999999998,-719.61199999999997,261.36700000000002
174985.0,5754.7299999999996,7754.0799999999999,8195.5400000000009,13220.0,1299.4000000000001,344.50900000000001,-111.946
174986.0,6009.6099999999997,4400.8199999999997,2355.75,9042.2700000000004,-229.16399999999999,490.005,81.806399999999996
174987.0,6664.9300000000003,3495.6599999999999,1482.1199999999999,8554.0400000000009,-658.02499999999998,1043.5999999999999,96.956800000000001
174988.0,7100.4899999999998,4658.0500000000002,1861.8,9473.7700000000004,-652.94000000000005,1242.74,97.783199999999994
174989.0,7579.3400000000001,5149.3000000000002,1433.78,9406.0100000000002,-869.78999999999996,1570.48,111.047
174990.0,7991.0100000000002,5999.8000000000002,1534.0999999999999,9833.7000000000007,-931.14099999999996,1774.0899999999999,130.06299999999999
174991.0,8341.7299999999996,6530.7200000000003,1289.98,9773.1599999999999,-1040.8599999999999,1939.96,155.43899999999999
174992.0,8604.8299999999999,7121.3100000000004,1267.5799999999999,9866.6499999999996,-1077.9000000000001,2049.1100000000001,170.72399999999999
174993.0,8803.2700000000004,7537.4099999999999,1115.8499999999999,9747.1299999999992,-1117.96,2108.1399999999999,187.935
174994.0,8931.1399999999994,7920.8800000000001,1071.8900000000001,9675.6599999999999,-1126.8800000000001,2148.0100000000002,189.22300000000001
174995.0,9030.8999999999996,8221.1299999999992,972.92999999999995,9525.6399999999994,-1131.97,2153.5799999999999,187.89599999999999
174996.0,11394.6,14479.5,24421.900000000001,14565.299999999999,2595.5799999999999,-1962.04,-154.37100000000001
174997.0,7299.5299999999997,10940.700000000001,17624.099999999999,17540.099999999999,1722.52,-225.483,196.97399999999999
174998.0,6047.5600000000004,10180.200000000001,13787.200000000001,16282.6,1363.96,-868.22900000000004,404.98099999999999
174999.0,5677.8699999999999,6332.0699999999997,6549.29,11813.5,1033.4400000000001,182.185,104.009
175000.0,5841.5,3656.9200000000001,2323.5700000000002,8662.2999999999993,-134.59100000000001,433.30200000000002,-0.73872599999999999
175001.0,6277.6599999999999,3402.3000000000002,1839.21,8469.6100000000006,-502.67500000000001,931.76700000000005,39.606099999999998
175002.0,6875.8299999999999,4111.9499999999998,1781.3199999999999,9040.1399999999994,-584.21199999999999,1297.23,2.5872600000000001
175003.0,7370.54,4970.3599999999997,1677.1300000000001,9415.0799999999999,-777.25800000000004,1556.5,45.020400000000002
175004.0,7839.8699999999999,5666.3199999999997,1527.05,9614.5699999999997,-888.84100000000001,1827.6300000000001,50.490000000000002
175005.0,8230.6800000000003,6399.8299999999999,1456.5599999999999,9810.9400000000005,-992.072,1986.3699999999999,83.384200000000007
175006.0,8546.8199999999997,6948.04,1305.6300000000001,9806.3400000000001,-1060.96,2121.8000000000002,101.401
175007.0,8782.4899999999998,7482.1599999999999,1239.75,9823.2900000000009,-1102.3,2189.48,119.265
175008.0,8947.1700000000001,7863.3599999999997,1134.05,9710.8500000000004,-1129.51,2239.6300000000001,125.79900000000001
175009.0,9072.3999999999996,8226.0699999999997,1071.5699999999999,9620.3799999999992,-1138.6800000000001,2255.75,125.122
175010.0,15239.700000000001,14326.700000000001,24695.0,16688.400000000001,4648.3100000000004,-5105.4499999999998,460.38
175011.0,6090.5100000000002,10451.5,16292.4,15683.700000000001,976.63099999999997,-673.96000000000004,-804.03999999999996
175012.0,7188.1099999999997,10430.200000000001,15542.200000000001,16566.5,2256.04,-1136.5799999999999,187.90700000000001
175013.0,5185.3000000000002,6075.9099999999999,6641.5100000000002,11136.9,1112.76,176.06999999999999,52.9818
175014.0,5414.8100000000004,2837.54,2354.04,7954.9899999999998,-15.7369,372.62599999999998,-46.662199999999999
175015.0,6043.3000000000002,3059.6500000000001,2031.5599999999999,8295.5,-336.85599999999999,877.81899999999996,-71.506100000000004
175016.0,6544.6099999999997,3643.3499999999999,1829.6600000000001,8637.3999999999996,-502.459,1261.8499999999999,-57.5914
175017.0,7148.8500000000004,4652.6400000000003,1825.02,9248.5,-675.577,1593.54,-44.887
175018.0,7614.7600000000002,5342.9200000000001,1607.54,9419.4899999999998,-829.654,1836.5899999999999,-20.564
175019.0,8089.7700000000004,6191.7600000000002,1576.1300000000001,9733.6599999999999,-940.22000000000003,2048.9899999999998,3.43262
175020.0,8432.7600000000002,6752.2399999999998,1387.0899999999999,9739.1499999999996,-1030.3299999999999,2175.02,30.363900000000001
175021.0,8726.7700000000004,7378.5699999999997,1345.9100000000001,9824.7199999999993,-1083.8199999999999,2272.46,47.603299999999997
175022.0,8918.4699999999993,7761.5299999999997,1207.0999999999999,9712.8600000000006,-1122.3900000000001,2323.1500000000001,59.611499999999999
175023.0,9080.2099999999991,8203.6900000000005,1174.3399999999999,9672.5400000000009,-1141.5,2354.8800000000001,59.070500000000003
175024.0,19347.400000000001,11633.799999999999,23665.200000000001,17887.700000000001,6967.1999999999998,-6326.21,60.482300000000002
175025.0,6407.3599999999997,4947.3199999999997,9759.0100000000002,10170.0,-22.035900000000002,-1955.48,-1194.78
175026.0,8804.7299999999996,9776.8899999999994,15416.0,17242.900000000001,2919.96,-1438.7,-313.90899999999999
175027.0,5039.4099999999999,3791.1599999999999,4285.9700000000003,8646.4699999999993,1071.6099999999999,-151.142,-393.95499999999998
175028.0,5330.4799999999996,2763.5300000000002,3136.2399999999998,8224.1200000000008,195.72999999999999,301.09199999999998,-187.44900000000001
175029.0,5682.21,1959.1900000000001,1487.0699999999999,7185.1300000000001,-230.78999999999999,831.05799999999999,-135.47900000000001
175030.0,6265.0100000000002,3612.8200000000002,2456.27,8800.4699999999993,-356.99599999999998,1233.27,-136.68799999999999
175031.0,6854.1899999999996,3916.0700000000002,1542.4200000000001,8564.2900000000009,-595.63099999999997,1591.52,-120.13500000000001
175032.0,7382.0900000000001,5237.0,1997.78,9489.8999999999996,-740.68600000000004,1867.5799999999999,-99.912000000000006
175033.0,7886.3500000000004,5721.5600000000004,1460.21,9352.2000000000007,-888.96699999999998,2081.3400000000001,-72.477800000000002
175034.0,8281.6100000000006,6676.6499999999996,1656.52,9798.1100000000006,-985.00699999999995,2239.9699999999998,-46.765500000000003
175035.0,8619.6200000000008,7095.1999999999998,1310.95,9631.8700000000008,-1059.9200000000001,2335.29,-23.843699999999998
175036.0,8846.8299999999999,7739.3500000000004,1414.0899999999999,9788.9699999999993,-1107.7,2409.0500000000002,-12.756600000000001
175037.0,9040.7099999999991,8041.3900000000003,1183.4100000000001,9583.9099999999999,-1138.22,2439.79,-7.0699399999999999
175038.0,18873.099999999999,-266.62400000000002,12480.4,10282.1,5298.0100000000002,-6558.0699999999997,-1105.4200000000001
175039.0,8701.5400000000009,4234.8800000000001,10890.200000000001,10905.799999999999,268.91500000000002,-3198.1500000000001,373.39299999999997
175040.0,8923.0699999999997,6151.0200000000004,12077.6,14483.299999999999,2706.8600000000001,-879.98299999999995,222.22800000000001
175041.0,5278.0600000000004,2869.96,4054.6500000000001,8185.21,1150.5599999999999,-419.15100000000001,-18.601400000000002
175042.0,5172.7299999999996,1356.73,2401.0100000000002,6893.3900000000003,197.03100000000001,413.76600000000002,-233.66399999999999
175043.0,5333.6899999999996,1790.01,2139.8299999999999,7153.6099999999997,-5.1162000000000001,669.02499999999998,-174.26300000000001
175044.0,6012.9899999999998,2750.8600000000001,2159.5500000000002,7998.1999999999998,-255.58500000000001,1268.75,-219.05000000000001
175045.0,6485.8199999999997,3727.4000000000001,1996.75,8510.4300000000003,-463.57499999999999,1544.47,-195.57400000000001
175046.0,7113.1499999999996,4655.9799999999996,1890.6900000000001,8978.8899999999994,-660.33000000000004,1906.0699999999999,-183.54599999999999
175047.0,7625.6000000000004,5537.1000000000004,1749.3199999999999,9308.7099999999991,-812.92399999999998,2100.9000000000001,-149.93299999999999
175048.0,8096.0,6293.0600000000004,1622.5699999999999,9494.3700000000008,-939.351,2297.6900000000001,-124.282
175049.0,8456.3199999999997,6977.0799999999999,1527.9200000000001,9627.3099999999995,-1021.54,2393.77,-99.444000000000003
175050.0,8740.0499999999993,7491.1700000000001,1415.3599999999999,9610.6599999999999,-1088.6099999999999,2485.1199999999999,-82.502399999999994
175051.0,8956.2000000000007,7976.9300000000003,1354.8299999999999,9603.6800000000003,-1126.45,2524.3800000000001,-78.088399999999993
175052.0,17886.200000000001,-12234.299999999999,3969.1300000000001,2011.26,908.66700000000003,-5244.0699999999997,-304.79500000000002
175053.0,12318.299999999999,8588.8899999999994,19668.900000000001,16971.599999999999,2233.1900000000001,-3238.9099999999999,1310.6400000000001
175054.0,8408.1599999999999,5848.4899999999998,12986.799999999999,12854.0,2485.1300000000001,-411.88400000000001,738.40999999999997
175055.0,5866.8900000000003,3451.3200000000002,5932.4799999999996,9002.5900000000001,1907.1900000000001,-207.108,245.28100000000001
175056.0,4755.4399999999996,-244.68799999999999,1287.77,5003.6300000000001,53.470700000000001,372.30200000000002,-336.31799999999998
175057.0,5266.5299999999997,1711.1800000000001,3127.0100000000002,7380.0799999999999,339.10700000000003,603.76999999999998,-246.93600000000001
175058.0,5659.4200000000001,1856.4000000000001,1793.6199999999999,7048.2700000000004,-188.31800000000001,1210.8499999999999,-282.08100000000002
175059.0,6212.8100000000004,3382.54,2385.8099999999999,8377.3500000000004,-306.62299999999999,1547.3399999999999,-267.10500000000002
175060.0,6811.1599999999999,4042.9499999999998,1763.05,8426.4500000000007,-576.495,1897.6500000000001,-248.15000000000001
175061.0,7342.0500000000002,5261.7600000000002,2019.3,9161.5599999999995,-723.90700000000004,2144.9299999999998,-234.22499999999999
175062.0,7852.2600000000002,5902.1700000000001,1630.51,9178.2299999999996,-881.32000000000005,2326.4499999999998,-197.35599999999999
175063.0,8253.8500000000004,6762.2799999999997,1701.77,9505.6599999999999,-976.91399999999999,2459.6100000000001,-178.881
175064.0,8572.9500000000007,7261.4700000000003,1495.0,9453.1399999999994,-1057.77,2541.0700000000002,-156.95500000000001
175065.0,8820.8199999999997,7820.9700000000003,1488.3800000000001,9515.6100000000006,-1108.28,2604.4000000000001,-151.04599999999999
175066.0,19803.599999999999,-10471.1,11065.9,4912.6999999999998,-163.15899999999999,-2718.6300000000001,498.87
175067.0,14732.5,9960.2000000000007,24522.200000000001,18566.099999999999,3691.2800000000002,-2116.96,802.495
175068.0,9778.0200000000004,9612.7000000000007,18778.599999999999,15465.299999999999,3052.4499999999998,-861.49900000000002,518.94600000000003
175069.0,6241.7600000000002,3371.7199999999998,6492.5100000000002,8060.3800000000001,2693.5100000000002,37.131,182.524
175070.0,4564.0500000000002,-795.54700000000003,1551.7,4423.71,-26.128,176.14500000000001,-280.57100000000003
175071.0,5344.1700000000001,691.72400000000005,2978.1700000000001,6541.4899999999998,619.40200000000004,608.64200000000005,-274.12900000000002
175072.0,5387.5299999999997,1413.0799999999999,2079.0100000000002,6704.6000000000004,-62.297600000000003,1117.8399999999999,-339.23500000000001
175073.0,5892.1300000000001,2745.5900000000001,2471.1199999999999,7800.6400000000003,-147.88999999999999,1554.95,-356.67200000000003
175074.0,6457.7799999999997,3698.1399999999999,2062.4899999999998,8182.2299999999996,-457.363,1882.25,-331.62700000000001
175075.0,7037.5299999999997,4721.5,2019.5,8696.75,-635.74099999999999,2174.3699999999999,-308.85199999999998
175076.0,7567.8800000000001,5614.3599999999997,1833.8900000000001,8985.4400000000005,-805.41300000000001,2358.98,-278.137
175077.0,8007.1899999999996,6402.6000000000004,1756.7,9209.1100000000006,-926.43100000000004,2506.75,-251.124
175078.0,8369.5799999999999,7013.4899999999998,1621.1099999999999,9287.5499999999993,-1016.4,2600.1599999999999,-228.31399999999999
175079.0,8651.5499999999993,7576.2700000000004,1564.8900000000001,9334.6200000000008,-1081.53,2670.7600000000002,-218.05099999999999
175080.0,20767.700000000001,-3963.8499999999999,19701.900000000001,9121.6000000000004,1794.3399999999999,-60.776200000000003,-45.744799999999998
175081.0,15198.799999999999,9735.9500000000007,25147.0,17089.299999999999,3890.4000000000001,-1530.22,-328.49200000000002
175082.0,11438.6,10686.4,20959.299999999999,16586.099999999999,3737.1399999999999,-1751.76,34.329500000000003
175083.0,6481.29,2494.3000000000002,5435.6499999999996,6873.8500000000004,2950.46,-558.90899999999999,-36.884399999999999
175084.0,4956.54,-1497.4000000000001,1614.9400000000001,4182.6599999999999,131.102,55.613399999999999,-279.87799999999999
175085.0,5400.6999999999998,234.37799999999999,3330.1700000000001,6100.4300000000003,794.34699999999998,648.04899999999998,-245.17500000000001
175086.0,5179.0699999999997,849.16800000000001,2405.0599999999999,6266.5699999999997,104.322,1035.4000000000001,-279.20299999999997
175087.0,5734.7399999999998,1976.76,2360.04,7205.8400000000001,-12.560499999999999,1530.54,-352.67500000000001
175088.0,6205.3199999999997,3091.0799999999999,2126.3000000000002,7730.6099999999997,-326.75999999999999,1897.6600000000001,-387.34500000000003
175089.0,6711.1700000000001,4284.3299999999999,2163.8800000000001,8321.8099999999995,-531.15899999999999,2190.6799999999998,-381.82799999999997
175090.0,7245.1400000000003,5178.2299999999996,1950.1700000000001,8621.7999999999993,-721.39300000000003,2391.6999999999998,-353.81099999999998
175091.0,7717.9700000000003,6049.29,1869.78,8913.6200000000008,-861.96199999999999,2540.9400000000001,-329.03500000000003
175092.0,8091.5299999999997,6735.8999999999996,1791.0,9064.0599999999995,-967.35900000000004,2645.1300000000001,-311.16300000000001
175093.0,8413.6599999999999,7301.5299999999997,1682.22,9116.5100000000002,-1046.28,2718.77,-294.86099999999999
175094.0,20002.5,-71.984999999999999,21522.799999999999,7643.79,3211.79,1290.8900000000001,-1278.8599999999999
175095.0,15337.5,8687.1200000000008,24356.799999999999,14417.5,3610.1700000000001,-1435.3399999999999,-676.57899999999995
175096.0,12368.799999999999,10404.5,22192.099999999999,15675.700000000001,3458.6199999999999,-1972.76,525.23900000000003
175097.0,7511.5500000000002,4033.3899999999999,9607.8400000000001,8348.5799999999999,2757.02,-806.73000000000002,1417.3699999999999
175098.0,5096.3999999999996,-585.08299999999997,3286.9299999999998,4893.46,661.899,67.787099999999995,532.68200000000002
175099.0,5689.3299999999999,-1027.51,2244.6799999999998,5265.71,775.28800000000001,408.42099999999999,-339.39800000000002
175100.0,5623.3900000000003,138.11699999999999,2406.8600000000001,6218.8599999999997,306.87200000000001,927.57399999999996,-379.38400000000001
175101.0,5644.9300000000003,1667.6900000000001,2822.6599999999999,7024.3800000000001,133.97,1596.8099999999999,-326.99099999999999
175102.0,5876.6999999999998,2785.8699999999999,2598.1700000000001,7482.1899999999996,-161.14699999999999,1925.99,-345.13499999999999
175103.0,6411.4099999999999,3677.02,2179.02,7795.3999999999996,-409.19499999999999,2214.9499999999998,-412.91000000000003
175104.0,6917.4399999999996,4807.6400000000003,2161.4499999999998,8305.1599999999999,-627.98900000000003,2426.0599999999999,-416.54700000000003
175105.0,7382.7700000000004,5601.3699999999999,1946.5899999999999,8506.6900000000005,-783.649,2567.3899999999999,-396.60199999999998
175106.0,7814.0699999999997,6345.1899999999996,1870.0699999999999,8749.9300000000003,-910.27200000000005,2682.4299999999998,-372.65800000000002
175107.0,8162.5100000000002,6927.1300000000001,1739.1800000000001,8804.3600000000006,-1000.38,2772.6799999999998,-357.43000000000001
175108.0,18506.900000000001,-966.69399999999996,17253.400000000001,1471.73,3024.6700000000001,671.97500000000002,-2595.8000000000002
175109.0,16325.6,7448.6000000000004,23616.0,11131.200000000001,3660.9200000000001,-1504.3599999999999,-1172.02
175110.0,14168.4,10772.6,24845.0,14437.700000000001,3247.5700000000002,-1752.6199999999999,2.2093699999999998
175111.0,11050.799999999999,10084.0,20239.5,13170.299999999999,3428.1799999999998,-801.64300000000003,1098.1500000000001
175112.0,6462.2600000000002,3871.5300000000002,10004.0,7261.3800000000001,1663.73,223.56399999999999,1290.53
175113.0,5730.2299999999996,964.04700000000003,5941.6700000000001,6373.7600000000002,531.07100000000003,528.21100000000001,1160.2
175114.0,5998.1700000000001,525.30799999999999,3816.1500000000001,7064.0600000000004,567.15599999999995,828.31600000000003,544.02700000000004
175115.0,6364.5,541.06700000000001,1724.9200000000001,6840.2200000000003,302.15699999999998,1431.4100000000001,-392.66899999999998
175116.0,6485.46,1783.8199999999999,1900.54,7236.3100000000004,-77.314999999999998,1992.98,-583.20399999999995
175117.0,6335.9899999999998,3378.8099999999999,2398.3899999999999,7626.2700000000004,-265.84300000000002,2312.29,-492.03500000000003
175118.0,6601.5200000000004,4241.3800000000001,2166.7800000000002,7780.5,-530.69399999999996,2441.9400000000001,-474.08499999999998
175119.0,7041.5,5213.1999999999998,2155.1399999999999,8159.5699999999997,-691.22699999999998,2612.29,-459.74900000000002
175120.0,7367.8199999999997,6019.4499999999998,2115.4699999999998,8372.9599999999991,-827.05100000000004,2691.6100000000001,-420.42700000000002
175121.0,7737.3699999999999,6686.8500000000004,2089.48,8591.7800000000007,-924.96000000000004,2788.1599999999999,-390.053
175122.0,18626.400000000001,-5971.1400000000003,10652.0,-6982.8599999999997,2479.27,-140.322,-3380.0300000000002
175123.0,18261.700000000001,4972.1800000000003,22256.099999999999,6119.9899999999998,3447.48,-1652.29,-1773.0999999999999
175124.0,16111.9,9918.8600000000006,25369.099999999999,12383.9,3530.7199999999998,-2085.9299999999998,-902.46299999999997
175125.0,13180.200000000001,10839.1,22840.5,13657.1,4006.3099999999999,-1496.3399999999999,-480.834
175126.0,8878.1000000000004,7866.5100000000002,16333.700000000001,10065.1,2631.4499999999998,-204.84999999999999,55.1233
175127.0,7223.3599999999997,6667.8500000000004,14332.200000000001,9472.9899999999998,1178.29,705.29899999999998,685.07899999999995
175128.0,7014.3999999999996,6336.6499999999996,13146.1,10680.9,810.69000000000005,1054.1500000000001,1657.0599999999999
175129.0,6800.3999999999996,4174.04,8316.1399999999994,9597.2399999999998,703.53999999999996,1797.97,1911.1800000000001
175130.0,6439.1800000000003,3142.8699999999999,4395.6599999999999,8333.1900000000005,348.70600000000002,2427.2600000000002,687.26800000000003
175131.0,6295.8999999999996,3135.9499999999998,2701.0300000000002,7406.71,-91.509,2521.5,-290.57900000000001
175132.0,6294.9300000000003,4021.5900000000001,2449.04,7481.4899999999998,-376.78300000000002,2494.2600000000002,-466.05099999999999
175133.0,6722.3699999999999,4700.29,2192.9299999999998,7753.5500000000002,-625.40700000000004,2576.4299999999998,-528.56500000000005
175134.0,7362.8699999999999,5127.7299999999996,1635.0,7824.6400000000003,-766.53700000000003,2723.7600000000002,-658.36599999999999
175135.0,7782.1700000000001,5970.1300000000001,1703.0,8093.2700000000004,-985.89400000000001,2870.0900000000001,-621.34199999999998
175136.0,19491.799999999999,-15554.799999999999,-607.01199999999994,-18814.599999999999,2511.54,-515.36199999999997,-5080.0200000000004
175137.0,20440.799999999999,-1503.73,16224.299999999999,-2940.1500000000001,2931.8899999999999,-2363.5900000000001,-3340.0300000000002
175138.0,18634.400000000001,7548.5900000000001,25018.900000000001,9023.5900000000001,3535.1799999999998,-2856.7800000000002,-1102.45
175139.0,14519.200000000001,9159.0300000000007,22723.299999999999,11913.0,3893.1900000000001,-1924.6700000000001,-48.172199999999997
175140.0,10224.299999999999,7746.1300000000001,17532.400000000001,10730.799999999999,2953.8200000000002,-907.40099999999995,-374.334
175141.0,7727.04,6775.3800000000001,14309.9,9474.8999999999996,2035.9400000000001,3.00895,-1088.5699999999999
175142.0,8314.2800000000007,9705.75,18685.200000000001,12679.799999999999,1022.96,785.03899999999999,-675.62300000000005
175143.0,8814.8400000000001,13031.5,21637.900000000001,15868.9,1822.9200000000001,1721.0899999999999,617.78899999999999
175144.0,6507.3400000000001,9168.3500000000004,13428.0,11653.0,1538.9100000000001,2500.4099999999999,957.44799999999998
175145.0,5595.25,5641.3999999999996,6999.7600000000002,8557.5100000000002,476.59399999999999,2807.73,442.58800000000002
175146.0,5469.04,4524.4300000000003,3455.1199999999999,7130.9499999999998,45.573399999999999,2502.9000000000001,-358.73500000000001
175147.0,6069.2200000000003,4111.6499999999996,2351.8299999999999,7179.2299999999996,-720.13300000000004,2384.8600000000001,-322.25999999999999
175148.0,6984.4899999999998,4910.1199999999999,2269.27,7946.3800000000001,-452.11900000000003,2817.7800000000002,-215.15199999999999
175149.0,7780.8299999999999,5294.25,1193.75,7520.6499999999996,-771.04899999999998,3026.29,-356.92399999999998
175150.0,18765.200000000001,-32868.599999999999,-22047.5,-38051.800000000003,2018.73,-743.70000000000005,-6787.1599999999999
175151.0,21570.799999999999,-14147.4,2984.2800000000002,-16820.700000000001,1448.6800000000001,-3640.2800000000002,-4926.4700000000003
175152.0,21858.099999999999,2668.2399999999998,22764.200000000001,3571.4000000000001,3276.1799999999998,-3999.8000000000002,-1920.79
175153.0,17672.900000000001,9023.3500000000004,25407.299999999999,11075.799999999999,4344.6400000000003,-2337.9400000000001,-308.14699999999999
175154.0,12334.299999999999,7870.0,19768.599999999999,10393.200000000001,3149.52,-1194.8800000000001,240.607
175155.0,8613.7800000000007,5857.7200000000003,14859.700000000001,9380.4500000000007,2002.03,-205.47900000000001,322.495
175156.0,8265.4099999999999,7167.8699999999999,16072.200000000001,11523.799999999999,1285.0999999999999,705.26300000000003,-893.63900000000001
175157.0,9361.4799999999996,11911.0,20755.400000000001,15375.5,2098.29,1141.79,-1909.01
175158.0,7747.9799999999996,12449.700000000001,18806.799999999999,14050.799999999999,2192.71,1703.5999999999999,-1169.47
175159.0,5383.8199999999997,9037.1599999999999,11769.299999999999,10203.799999999999,1520.0,2199.25,-797.13699999999994
175160.0,4426.6400000000003,4432.9399999999996,3697.6700000000001,6148.1700000000001,326.67899999999997,2033.55,-841.66300000000001
175161.0,5310.75,3850.54,3108.6199999999999,6808.1700000000001,-836.06700000000001,2194.3400000000001,-237.52600000000001
175162.0,5827.4200000000001,6132.4499999999998,5115.21,8994.2000000000007,-269.13600000000002,2680.2800000000002,-134.47399999999999
175163.0,6618.6000000000004,6281.7799999999997,3422.6599999999999,8313.0799999999999,-338.25700000000001,2907.0100000000002,-25.1175
175164.0,17762.900000000001,-54430.300000000003,-48703.0,-62945.300000000003,570.79700000000003,-861.428,-7262.7700000000004
175165.0,22866.0,-31205.599999999999,-13683.0,-33781.900000000001,-1049.45,-4700.5200000000004,-5610.8500000000004
175166.0,24737.599999999999,-5093.7600000000002,17857.799999999999,-3487.5900000000001,3026.0799999999999,-4997.8999999999996,-2383.9899999999998
175167.0,20789.599999999999,6455.5200000000004,25752.5,8460.7099999999991,4646.9200000000001,-2985.3099999999999,-998.22799999999995
175168.0,15648.0,8463.4899999999998,23026.0,9734.6800000000003,3774.7800000000002,-1486.3399999999999,-323.40300000000002
175169.0,12788.700000000001,9084.1499999999996,22112.299999999999,11368.799999999999,2453.8099999999999,-198.184,245.81999999999999
175170.0,10561.799999999999,8750.9599999999991,19660.799999999999,12512.0,2409.77,781.45799999999997,232.42099999999999
175171.0,8402.0900000000001,7202.4399999999996,15446.1,11593.6,2005.6800000000001,1217.3,-1006.64
175172.0,7517.9300000000003,8130.0100000000002,13804.799999999999,11756.200000000001,2113.4200000000001,997.99599999999998,-2262.5100000000002
175173.0,5426.2600000000002,5540.3299999999999,7047.5299999999997,7786.5,1618.76,847.303,-2272.8800000000001
175174.0,4010.8000000000002,2397.8499999999999,2082.1599999999999,4908.3999999999996,-82.701499999999996,1412.8599999999999,-980.20100000000002
175175.0,5000.1199999999999,3786.21,3628.1300000000001,6824.7200000000003,-615.76999999999998,2123.4699999999998,-446.62799999999999
175176.0,5517.8599999999997,5751.96,5668.9899999999998,8845.1700000000001,-537.08199999999999,2526.4499999999998,-447.62099999999998
175177.0,5791.9099999999999,7657.3999999999996,6580.7200000000003,9880.2399999999998,-237.636,2875.48,-161.292
175178.0,21351.200000000001,-74788.199999999997,-70754.899999999994,-89162.100000000006,-1031.8399999999999,-278.83300000000003,-7562.9099999999999
175179.0,27970.099999999999,-46032.0,-23833.700000000001,-49867.800000000003,-3559.48,-4723.9200000000001,-5314.8199999999997
175180.0,28886.099999999999,-12894.6,14492.5,-11206.200000000001,3311.3899999999999,-5247.7600000000002,-2019.1099999999999
175181.0,23713.200000000001,1647.01,23861.099999999999,3550.5100000000002,4642.3599999999997,-3531.46,-1347.02
175182.0,18487.700000000001,6357.8900000000003,23265.799999999999,7735.8999999999996,4496.5600000000004,-2090.4099999999999,-1088.0
175183.0,15241.5,8140.1400000000003,22749.700000000001,9920.6200000000008,3333.7600000000002,-894.54999999999995,-1409.8900000000001
175184.0,12917.9,9626.6499999999996,22046.200000000001,12107.9,3316.1500000000001,-246.80600000000001,-1170.78
175185.0,9188.9400000000005,6681.2700000000004,15645.799999999999,10507.6,2652.4099999999999,493.541,-795.41499999999996
175186.0,6279.8100000000004,2636.0700000000002,7143.3400000000001,7293.46,2101.6500000000001,648.12199999999996,-1141.6900000000001
175187.0,4097.2399999999998,145.86699999999999,1519.71,4223.2700000000004,583.37400000000002,617.44399999999996,-755.36300000000006
175188.0,3994.1799999999998,1598.4200000000001,2715.23,5210.2700000000004,-284.30099999999999,1336.23,-178.404
175189.0,4683.3599999999997,3377.75,3875.5,6513.6199999999999,-328.39699999999999,2076.0100000000002,-231.20599999999999
175190.0,5438.9799999999996,5862.7299999999996,6734.71,8922.9500000000007,-613.22299999999996,2642.79,121.688
175191.0,5633.8100000000004,9202.5699999999997,9679.2399999999998,11355.1,-27.155999999999999,3048.2399999999998,-96.421300000000002
175192.0,28920.200000000001,-105854.0,-107379.0,-123319.0,-2236.0599999999999,-2399.0999999999999,-13208.4
175193.0,34668.599999999999,-63638.900000000001,-37917.199999999997,-68057.399999999994,-4217.3999999999996,-6044.2399999999998,-9021.6599999999999
175194.0,34024.199999999997,-21456.299999999999,9686.2600000000002,-20946.0,4603.0699999999997,-5657.6700000000001,-3822.1100000000001
175195.0,27304.799999999999,-4882.8699999999999,20293.900000000001,-3975.9499999999998,4637.1300000000001,-4298.46,-2141.1599999999999
175196.0,21555.900000000001,2187.48,22077.799999999999,4062.48,4955.1000000000004,-2901.54,-1139.6400000000001
175197.0,16227.4,3823.3099999999999,19190.900000000001,5997.5799999999999,3840.96,-1525.21,-1239.99
175198.0,13332.4,5414.3599999999997,18489.799999999999,7960.0200000000004,2972.4099999999999,-945.15899999999999,-1211.6700000000001
175199.0,10839.0,6464.3199999999997,17506.700000000001,9644.0900000000001,2559.6100000000001,-431.30000000000001,-335.83300000000003
175200.0,6769.71,3372.7399999999998,9780.9699999999993,6611.8199999999997,2168.75,314.66199999999998,455.06200000000001
175201.0,4288.6000000000004,851.40200000000004,4603.5100000000002,4533.3699999999999,452.19400000000002,1019.36,529.55499999999995
175202.0,4263.0299999999997,2170.6199999999999,4999.71,5852.8100000000004,112.27200000000001,1519.52,145.83600000000001
175203.0,4646.7399999999998,4157.7600000000002,6322.1499999999996,7217.6300000000001,-267.46899999999999,2137.0500000000002,289.84399999999999
175204.0,5347.6800000000003,7807.5799999999999,10049.1,10381.1,-220.48099999999999,2739.8699999999999,132.21700000000001
175205.0,5583.3100000000004,10025.1,11759.200000000001,11946.299999999999,86.197900000000004,3035.4200000000001,-218.404
175206.0,30073.5,-150828.0,-155542.0,-164436.0,-8124.21,-3662.98,-13202.4
175207.0,36891.199999999997,-91704.100000000006,-64552.400000000001,-93007.300000000003,-5876.4399999999996,-7631.96,-10137.799999999999
175208.0,36023.099999999999,-40415.199999999997,-8854.3899999999994,-39563.5,4589.5299999999997,-7108.96,-6135.5500000000002
175209.0,30555.5,-15851.700000000001,11772.5,-15123.5,4259.1700000000001,-5632.0200000000004,-3676.2199999999998
175210.0,25411.0,-3062.5999999999999,20160.299999999999,-1457.1300000000001,5369.6400000000003,-3912.25,-1703.49
175211.0,18953.099999999999,-208.934,17479.700000000001,1798.9200000000001,4397.1199999999999,-2294.1999999999998,-1158.01
175212.0,14692.1,1924.3299999999999,16264.4,4274.6199999999999,3185.2800000000002,-1124.48,-1178.76
175213.0,12811.1,4836.8000000000002,17809.200000000001,7211.4200000000001,2385.0700000000002,-729.14400000000001,-884.51300000000003
175214.0,10193.700000000001,6604.5100000000002,16770.400000000001,8457.8400000000001,2303.7399999999998,-62.296399999999998,113.863
175215.0,7157.46,5138.6700000000001,12352.299999999999,7208.3400000000001,1249.5899999999999,1007.78,838.09299999999996
175216.0,5996.6000000000004,4999.8900000000003,10435.4,7353.6300000000001,565.71600000000001,1871.3399999999999,856.81299999999999
175217.0,5855.8699999999999,7507.96,12182.6,9600.5100000000002,179.16499999999999,2352.98,615.44299999999998
175218.0,5620.6000000000004,9818.7000000000007,13558.0,11514.1,390.02800000000002,2615.6399999999999,175.86799999999999
175219.0,5900.4899999999998,11436.700000000001,14855.4,12809.0,303.84500000000003,2922.5599999999999,109.43899999999999
175220.0,31966.299999999999,-185419.0,-185527.0,-198119.0,-10738.5,-1287.5,-13051.1
175221.0,39569.599999999999,-119723.0,-89263.300000000003,-120788.0,-6601.1499999999996,-6773.1000000000004,-10583.799999999999
175222.0,38006.400000000001,-64665.599999999999,-30803.700000000001,-63161.099999999999,3040.5,-8041.1800000000003,-6450.3400000000001
175223.0,32643.700000000001,-32532.400000000001,-3546.3499999999999,-30940.299999999999,3829.6500000000001,-7128.8699999999999,-4918.5100000000002
175224.0,28135.700000000001,-14021.200000000001,11416.799999999999,-11779.0,4975.1300000000001,-5543.7799999999997,-3166.6199999999999
175225.0,22434.700000000001,-5306.25,15691.5,-2612.0799999999999,4841.4099999999999,-3374.3099999999999,-1554.22
175226.0,16772.400000000001,-2030.1099999999999,13947.299999999999,259.35000000000002,3882.5999999999999,-1480.45,-1362.97
175227.0,13876.4,1082.28,14987.4,3263.2199999999998,2394.7600000000002,-742.31700000000001,-1404.05
175228.0,12815.0,5917.8599999999997,18865.799999999999,7709.3999999999996,2179.1399999999999,-208.61500000000001,-853.69000000000005
175229.0,10919.5,8913.5100000000002,19672.099999999999,9827.7399999999998,1920.3900000000001,688.72799999999995,-14.871600000000001
175230.0,9044.1599999999999,9619.8899999999994,18125.099999999999,10308.200000000001,1369.55,1739.24,213.05699999999999
175231.0,7367.3299999999999,10309.0,16759.200000000001,11083.700000000001,991.53200000000004,2161.5900000000001,-185.10400000000001
175232.0,6536.5,11525.4,16977.700000000001,12292.1,537.58000000000004,2276.75,-240.31299999999999
175233.0,6949.0799999999999,13487.6,18916.799999999999,14325.200000000001,654.63499999999999,2639.77,-395.22000000000003
175234.0,39648.099999999999,-232034.0,-245254.0,-243682.0,-8944.9400000000005,-5910.1400000000003,-18891.700000000001
175235.0,42305.800000000003,-165389.0,-146540.0,-163572.0,-7312.04,-11137.5,-17634.200000000001
175236.0,39055.099999999999,-97547.100000000006,-67957.5,-92044.300000000003,1741.0999999999999,-11856.0,-10824.5
175237.0,32808.300000000003,-57935.0,-29994.599999999999,-52482.5,2743.5,-9481.7199999999993,-6481.8000000000002
175238.0,29381.200000000001,-30351.099999999999,-2503.3499999999999,-24317.5,3546.1199999999999,-6868.3199999999997,-3657.2199999999998
175239.0,25467.5,-13140.700000000001,11475.9,-8381.6299999999992,5006.9200000000001,-4088.52,-1980.3599999999999
175240.0,19352.799999999999,-6612.9200000000001,11777.200000000001,-4076.73,4453.8299999999999,-1895.6500000000001,-1443.54
175241.0,15394.299999999999,-3101.9200000000001,12296.9,-947.06399999999996,2615.8400000000001,-715.66600000000005,-1453.05
175242.0,14216.9,2504.3600000000001,16869.599999999999,4623.4300000000003,2235.6399999999999,-146.61799999999999,-1488.8399999999999
175243.0,12796.299999999999,7571.8100000000004,20148.200000000001,8875.9200000000001,2180.75,361.45600000000002,-1368.8399999999999
175244.0,10841.5,10321.5,20620.900000000001,10970.4,1929.52,1065.4300000000001,-1024.52
175245.0,8487.1000000000004,10797.700000000001,18317.400000000001,11015.5,1485.8,1682.1500000000001,-808.92899999999997
175246.0,7406.5299999999997,11537.299999999999,18036.099999999999,12020.4,640.279,2001.3599999999999,-872.26099999999997
175247.0,7636.9499999999998,12624.799999999999,19227.200000000001,13766.9,835.39300000000003,2298.9499999999998,-1003.0
175248.0,41957.699999999997,-280109.0,-299277.0,-286398.0,-17052.299999999999,-11219.5,-8642.6499999999996
175249.0,42681.800000000003,-215128.0,-201288.0,-200859.0,-16246.6,-14018.4,-8993.7999999999993
175250.0,35704.199999999997,-137494.0,-109629.0,-120709.0,-4417.7299999999996,-12946.9,-6399.71
175251.0,33304.5,-82104.800000000003,-50529.699999999997,-68954.199999999997,-1056.51,-9949.6000000000004,-4249.0699999999997
175252.0,31236.099999999999,-45091.699999999997,-13155.9,-34130.800000000003,2987.4299999999998,-6809.9899999999998,-2569.1500000000001
175253.0,27013.0,-23965.700000000001,2978.5,-16445.400000000001,5100.6000000000004,-4237.6099999999997,-2440.54
175254.0,21346.900000000001,-13835.6,6718.1800000000003,-9925.8299999999999,4782.4099999999999,-2329.7199999999998,-2114.25
175255.0,17337.799999999999,-8170.1400000000003,9012.6399999999994,-5621.8199999999997,3112.48,-883.54100000000005,-1935.79
175256.0,15528.200000000001,-2198.0599999999999,13350.9,83.745599999999996,2555.2399999999998,-56.099400000000003,-1828.29
175257.0,13717.700000000001,3223.48,16864.099999999999,4938.46,2150.4400000000001,345.00700000000001,-1666.49
175258.0,11938.1,7363.3299999999999,19021.299999999999,8474.7999999999993,1930.6600000000001,690.50699999999995,-1380.6900000000001
175259.0,9604.3600000000006,9617.8099999999995,18425.799999999999,9899.8400000000001,1691.3599999999999,1222.6500000000001,-1154.75
175260.0,8101.3800000000001,10244.1,17638.5,10638.0,898.30100000000004,1652.48,-1016.41
175261.0,8090.5100000000002,11335.1,18934.299999999999,12500.700000000001,849.76400000000001,1929.78,-789.32899999999995
175262.0,15313.0,-27807.700000000001,-12687.6,-27978.400000000001,-703.178,-748.10000000000002,181.99600000000001
175263.0,15394.1,-38853.599999999999,-23964.900000000001,-39640.800000000003,-659.43499999999995,-731.69299999999998,131.78200000000001
175264.0,16232.299999999999,-47938.699999999997,-32214.0,-48781.400000000001,655.66800000000001,-548.274,152.71700000000001
175265.0,19461.700000000001,-54965.5,-35536.0,-54280.0,2089.1700000000001,-358.18099999999998,456.27100000000002
175266.0,23012.5,-62436.199999999997,-38633.599999999999,-59725.400000000001,2393.73,-504.07799999999997,863.447
175267.0,24342.0,-72403.5,-46975.699999999997,-69139.5,1955.75,-876.20000000000005,1228.01
175268.0,25730.0,-81255.0,-54926.0,-78184.199999999997,2960.0999999999999,-1336.4000000000001,1692.03
175269.0,28302.200000000001,-89750.899999999994,-60861.099999999999,-86191.800000000003,3481.1999999999998,-1864.46,1804.4100000000001
175270.0,30440.299999999999,-99243.300000000003,-68001.800000000003,-94421.5,3926.4899999999998,-2608.04,1942.0
175271.0,33549.900000000001,-111566.0,-76691.5,-103287.0,4964.0,-3350.3499999999999,2706.25
175272.0,37201.099999999999,-128893.0,-88633.899999999994,-116669.0,2797.96,-4057.3699999999999,3315.04
175273.0,34166.699999999997,-150093.0,-113139.0,-139746.0,904.46299999999997,-3533.29,3520.6100000000001
175274.0,41240.099999999999,-168987.0,-124607.0,-155011.0,4232.1800000000003,-4415.1099999999997,3826.27
175275.0,51239.599999999999,-218606.0,-160343.0,-190238.0,-4174.8299999999999,-2959.48,371.08100000000002
175276.0,15105.299999999999,-24289.900000000001,-9612.8899999999994,-24916.0,-523.88400000000001,-807.23299999999995,-363.46300000000002
175277.0,15107.6,-34807.199999999997,-20324.599999999999,-35822.800000000003,-196.85300000000001,-786.58100000000002,-510.108
175278.0,16538.099999999999,-43957.599999999999,-27799.900000000001,-44437.0,950.06700000000001,-594.85199999999998,-480.38299999999998
175279.0,19902.200000000001,-51861.800000000003,-31777.700000000001,-50767.0,2078.5500000000002,-402.01999999999998,-155.173
175280.0,23237.299999999999,-60497.0,-36471.699999999997,-58096.5,2133.1500000000001,-531.88699999999994,236.53
175281.0,24372.400000000001,-70954.100000000006,-45801.900000000001,-68783.0,1717.9100000000001,-757.86400000000003,483.11000000000001
175282.0,25457.200000000001,-80877.100000000006,-55182.599999999999,-79073.600000000006,2844.1700000000001,-1109.1600000000001,998.33900000000006
175283.0,28316.900000000001,-89818.300000000003,-61227.300000000003,-87082.300000000003,3606.5300000000002,-1710.2,1564.3499999999999
175284.0,30121.099999999999,-99261.699999999997,-69023.100000000006,-96455.800000000003,3589.23,-2700.8299999999999,1765.1300000000001
175285.0,34856.199999999997,-107509.0,-73812.100000000006,-103250.0,7024.7200000000003,-4187.8299999999999,1183.3499999999999
175286.0,39841.199999999997,-123973.0,-82313.0,-114597.0,4079.6599999999999,-5833.9200000000001,-900.10900000000004
175287.0,32428.099999999999,-152555.0,-118056.0,-143962.0,684.54600000000005,-5206.8800000000001,-658.34500000000003
175288.0,38670.0,-173130.0,-132772.0,-159958.0,4871.5900000000001,-6811.0799999999999,2187.3299999999999
175289.0,54013.0,-219668.0,-161348.0,-192050.0,-1539.3800000000001,-10902.9,-329.06400000000002
175290.0,14984.299999999999,-19265.200000000001,-5033.4300000000003,-20508.799999999999,-59.860799999999998,-701.48000000000002,-646.50400000000002
175291.0,15751.5,-28465.400000000001,-13679.299999999999,-29952.5,479.05799999999999,-681.55499999999995,-1032.51
175292.0,17914.400000000001,-37130.599999999999,-19888.0,-37833.300000000003,1432.9200000000001,-491.29399999999998,-1172.29
175293.0,21201.5,-45836.300000000003,-24611.700000000001,-44942.5,2174.3000000000002,-316.87599999999998,-950.19000000000005
175294.0,23583.700000000001,-56478.199999999997,-32179.799999999999,-54508.900000000001,1710.98,-365.613,-436.60599999999999
175295.0,23738.0,-68664.199999999997,-44376.099999999999,-67220.699999999997,1313.8199999999999,-657.274,164.387
175296.0,24230.400000000001,-79721.0,-55493.199999999997,-78702.5,2412.8400000000001,-1239.46,751.01099999999997
175297.0,26474.700000000001,-89167.300000000003,-62765.900000000001,-87144.699999999997,3410.4400000000001,-2226.8099999999999,1066.95
175298.0,28030.099999999999,-98910.0,-71075.699999999997,-96672.399999999994,3663.3299999999999,-2912.8899999999999,912.10799999999995
175299.0,34467.800000000003,-102755.0,-70592.699999999997,-100137.0,7759.4200000000001,-3621.5900000000001,1914.1400000000001
175300.0,41972.0,-112934.0,-70345.5,-106874.0,4903.3500000000004,-5659.6000000000004,578.56600000000003
175301.0,35153.699999999997,-140015.0,-105416.0,-136725.0,1940.8299999999999,-6116.54,-2459.8400000000001
175302.0,40163.699999999997,-160618.0,-122582.0,-153343.0,6927.5699999999997,-8613.2800000000007,-2808.5300000000002
175303.0,54593.199999999997,-202752.0,-150065.0,-186828.0,1974.52,-15182.299999999999,-5374.0900000000001
175304.0,14775.299999999999,-14136.799999999999,-388.77100000000002,-15859.799999999999,511.83100000000002,-362.858,-699.05600000000004
175305.0,16491.799999999999,-21578.900000000001,-6169.29,-23236.900000000001,1000.6,-359.66199999999998,-971.81399999999996
175306.0,19081.900000000001,-29792.400000000001,-11379.4,-30547.299999999999,1584.6800000000001,-192.68799999999999,-994.03599999999994
175307.0,21887.599999999999,-39290.0,-17331.200000000001,-38580.099999999999,1842.3099999999999,-233.39699999999999,-733.49800000000005
175308.0,23114.200000000001,-52080.599999999999,-28294.5,-50432.800000000003,1049.98,-542.82299999999998,-507.875
175309.0,22074.0,-66127.199999999997,-43726.800000000003,-65201.099999999999,913.70000000000005,-909.98500000000001,-357.60300000000001
175310.0,22539.900000000001,-76783.699999999997,-54702.800000000003,-76521.0,2545.6799999999998,-1483.27,-239.24000000000001
175311.0,25586.799999999999,-84472.399999999994,-60133.0,-84216.0,4137.1099999999997,-2337.73,-486.30000000000001
175312.0,28802.599999999999,-90566.100000000006,-63407.699999999997,-89773.0,5332.5,-2848.77,-1044.1800000000001
175313.0,33250.800000000003,-96979.800000000003,-65777.600000000006,-94691.5,7259.5699999999997,-3644.3299999999999,-293.267
175314.0,38298.400000000001,-106278.0,-69069.5,-102721.0,5956.4899999999998,-5634.96,-319.70600000000002
175315.0,37346.800000000003,-122294.0,-87652.5,-122196.0,5011.1000000000004,-5960.1499999999996,-2326.4499999999998
175316.0,44113.0,-135267.0,-96003.199999999997,-135355.0,8071.8500000000004,-7550.4499999999998,-3384.6399999999999
175317.0,56811.300000000003,-166993.0,-116448.0,-166196.0,5704.75,-12496.9,-6981.4399999999996
175318.0,14267.5,-9828.1200000000008,3336.8699999999999,-11631.6,872.09799999999996,129.697,-553.322
175319.0,16426.200000000001,-16068.1,-638.37099999999998,-17563.200000000001,1255.72,-71.054000000000002,-751.39999999999998
175320.0,18888.599999999999,-24009.5,-5581.5900000000001,-24422.5,1552.3099999999999,-222.88200000000001,-823.17200000000003
175321.0,21055.0,-34269.900000000001,-13095.4,-33538.300000000003,1520.5599999999999,-516.49599999999998,-850.69500000000005
175322.0,22045.5,-46694.099999999999,-24435.900000000001,-45762.5,1137.01,-916.572,-1161.1600000000001
175323.0,21766.5,-59797.199999999997,-38456.699999999997,-59872.699999999997,1408.8699999999999,-1061.3299999999999,-1572.1099999999999
175324.0,22980.400000000001,-69415.699999999997,-47833.599999999999,-70402.399999999994,3158.48,-1093.0599999999999,-1475.53
175325.0,26682.200000000001,-75090.0,-50618.599999999999,-76269.800000000003,4940.0699999999997,-1327.8,-1200.6199999999999
175326.0,31209.0,-78816.100000000006,-50445.0,-79756.800000000003,6526.7299999999996,-1813.5699999999999,-1132.1900000000001
175327.0,35246.800000000003,-83315.100000000006,-51395.0,-83948.199999999997,7518.8299999999999,-2940.5300000000002,-1559.51
175328.0,39041.199999999997,-90850.399999999994,-55788.400000000001,-91559.0,8126.5100000000002,-4160.25,-2548.52
175329.0,41536.699999999997,-100255.0,-63259.599999999999,-101717.0,8178.2700000000004,-4570.6099999999997,-3515.9000000000001
175330.0,46442.0,-113419.0,-72577.399999999994,-116735.0,8685.6499999999996,-4889.6099999999997,-3844.8299999999999
175331.0,55207.5,-131614.0,-83628.300000000003,-138386.0,7256.75,-7146.0799999999999,-4592.1300000000001
175332.0,13119.700000000001,-7454.9899999999998,4775.3599999999997,-8822.5400000000009,913.43499999999995,560.41499999999996,-409.72300000000001
175333.0,15545.0,-12296.299999999999,2351.2600000000002,-13563.4,1394.02,228.166,-560.74300000000005
175334.0,18611.0,-18720.400000000001,-743.86800000000005,-19243.799999999999,1891.5999999999999,-161.07400000000001,-951.92399999999998
175335.0,21190.5,-27699.799999999999,-6847.8000000000002,-27610.5,1781.8800000000001,-454.92700000000002,-1407.0599999999999
175336.0,22430.400000000001,-38907.099999999999,-17035.400000000001,-39238.800000000003,1630.23,-585.97299999999996,-1671.8499999999999
175337.0,23059.400000000001,-50310.099999999999,-28404.900000000001,-51530.900000000001,2080.0700000000002,-547.98099999999999,-1806.27
175338.0,24389.0,-59978.0,-37295.699999999997,-61530.099999999999,3379.1100000000001,-388.5,-1634.3800000000001
175339.0,27123.200000000001,-66226.600000000006,-41348.800000000003,-67585.300000000003,5047.8599999999997,-412.05000000000001,-1178.6800000000001
175340.0,31446.700000000001,-69238.300000000003,-40677.0,-70320.300000000003,6756.4499999999998,-823.303,-833.98699999999997
175341.0,36521.300000000003,-70868.0,-38393.699999999997,-72748.399999999994,8304.6399999999994,-1174.21,-1093.5699999999999
175342.0,43091.599999999999,-71331.600000000006,-33509.300000000003,-73966.5,10017.700000000001,-1409.5,-2060.4899999999998
175343.0,47792.599999999999,-77686.699999999997,-35730.0,-81584.300000000003,10064.299999999999,-1453.29,-3407.5100000000002
175344.0,51468.0,-88005.600000000006,-42657.400000000001,-93000.699999999997,9693.25,-1630.2,-4130.3699999999999
175345.0,57031.900000000001,-108770.0,-59480.900000000001,-117278.0,8935.8199999999997,-1541.24,-5318.0
175346.0,11846.9,-5799.1400000000003,5340.0799999999999,-6693.8500000000004,887.82100000000003,850.98199999999997,-566.61900000000003
175347.0,14279.9,-10013.200000000001,3560.6599999999999,-10826.5,1430.3900000000001,577.59100000000001,-525.26900000000001
175348.0,17818.299999999999,-14685.1,2617.1599999999999,-14974.1,2002.9100000000001,241.12799999999999,-525.99099999999999
175349.0,20898.900000000001,-22418.700000000001,-1668.4300000000001,-22199.200000000001,1735.49,1.18187,-744.529
175350.0,21988.900000000001,-32912.199999999997,-11294.9,-33243.400000000001,1432.21,-25.573799999999999,-962.31700000000001
175351.0,22736.5,-43544.099999999999,-21801.299999999999,-44691.599999999999,2195.9899999999998,-31.688800000000001,-1074.3199999999999
175352.0,24494.400000000001,-52012.199999999997,-29048.200000000001,-53303.800000000003,3484.0599999999999,-110.143,-1271.0799999999999
175353.0,27080.799999999999,-58400.800000000003,-33374.900000000001,-59352.199999999997,5080.4499999999998,-29.5745,-1281.1600000000001
175354.0,31403.299999999999,-60640.800000000003,-32185.599999999999,-61241.0,7188.25,-17.910699999999999,-1156.4200000000001
175355.0,38321.900000000001,-60931.199999999997,-26089.700000000001,-60642.199999999997,9304.3899999999994,584.35900000000004,-1137.21
175356.0,46021.699999999997,-60102.300000000003,-17901.099999999999,-60241.400000000001,10330.0,1682.78,-921.18499999999995
175357.0,52478.800000000003,-62751.5,-15215.4,-65654.699999999997,10339.9,2854.98,-950.67999999999995
175358.0,55890.599999999999,-71184.899999999994,-21682.299999999999,-78454.899999999994,8922.1700000000001,2129.2800000000002,-1642.3599999999999
175359.0,65485.0,-87174.399999999994,-30242.900000000001,-94885.899999999994,12686.299999999999,4165.3000000000002,-2138.4499999999998
175360.0,10796.9,-4210.6199999999999,5967.2700000000004,-4735.1199999999999,884.36199999999997,1094.01,-691.02499999999998
175361.0,13118.5,-8029.1899999999996,4660.5200000000004,-8182.9099999999999,1368.71,848.93899999999996,-660.80200000000002
175362.0,16192.4,-12985.0,3119.3299999999999,-12431.1,1807.6199999999999,500.53500000000003,-548.98199999999997
175363.0,18952.0,-20033.200000000001,-802.67499999999995,-18970.200000000001,1579.4100000000001,67.969300000000004,-627.11900000000003
175364.0,19865.099999999999,-30169.0,-10232.5,-29650.0,1274.8099999999999,-103.093,-880.755
175365.0,20723.900000000001,-39544.099999999999,-19324.5,-39736.199999999997,2170.75,-77.193799999999996,-926.11900000000003
175366.0,23152.400000000001,-46762.800000000003,-24731.099999999999,-47099.599999999999,3665.2199999999998,-37.998399999999997,-965.70500000000004
175367.0,26848.400000000001,-50995.800000000003,-25716.200000000001,-50805.599999999999,5254.2600000000002,139.08600000000001,-1106.1199999999999
175368.0,32031.299999999999,-53582.0,-23959.200000000001,-52461.300000000003,7651.7399999999998,783.29300000000001,-992.58299999999997
175369.0,40308.800000000003,-53251.300000000003,-14418.1,-49038.400000000001,9205.7099999999991,1615.4100000000001,-437.60500000000002
175370.0,45339.199999999997,-60884.800000000003,-15548.1,-55057.199999999997,8164.8599999999997,3120.5999999999999,648.94100000000003
175371.0,51027.0,-67930.5,-17235.799999999999,-62680.400000000001,7541.5799999999999,5279.54,2459.1300000000001
175372.0,54613.800000000003,-78045.800000000003,-27599.299999999999,-81149.699999999997,5795.0699999999997,7113.29,2520.0799999999999
175373.0,78185.399999999994,-78105.699999999997,-8616.7600000000002,-77596.199999999997,18664.099999999999,9002.8299999999999,3224.8800000000001
175374.0,9825.2999999999993,-2597.5900000000001,6733.6000000000004,-2635.5999999999999,877.51099999999997,1266.1300000000001,-814.43899999999996
175375.0,12165.799999999999,-6236.8900000000003,5689.1999999999998,-5849.96,1320.8599999999999,1005.96,-810.17399999999998
175376.0,14871.700000000001,-11018.4,3966.4400000000001,-9999.0699999999997,1608.28,608.05999999999995,-813.81700000000001
175377.0,17190.700000000001,-18092.200000000001,-556.09199999999998,-16752.200000000001,1532.1800000000001,141.66,-931.60500000000002
175378.0,18463.900000000001,-26590.599999999999,-8063.0100000000002,-25714.299999999999,1656.4300000000001,-85.831000000000003,-1272.8800000000001
175379.0,19933.099999999999,-35031.800000000003,-15542.0,-34590.400000000001,2510.75,-49.689,-1523.97
175380.0,22462.700000000001,-41090.800000000003,-19675.900000000001,-40616.699999999997,4073.3400000000001,96.531199999999998,-1425.6800000000001
175381.0,27319.599999999999,-44666.300000000003,-18709.700000000001,-43024.199999999997,5961.9799999999996,345.03100000000001,-1360.3900000000001
175382.0,33211.0,-46838.199999999997,-14858.299999999999,-43009.099999999999,7788.6599999999999,1024.22,-985.09000000000003
175383.0,41283.699999999997,-51467.400000000001,-9626.4400000000005,-43325.199999999997,8550.4500000000007,1676.9000000000001,-315.08699999999999
175384.0,44540.900000000001,-64210.300000000003,-17347.0,-54093.699999999997,6749.96,2755.4899999999998,49.918500000000002
175385.0,47024.800000000003,-82198.800000000003,-31630.0,-70091.300000000003,4589.0,4026.21,1632.6400000000001
175386.0,49618.199999999997,-106843.0,-56144.5,-96639.100000000006,1950.6300000000001,8862.3799999999992,4388.3900000000003
175387.0,83368.5,-106990.0,-26266.299999999999,-90081.399999999994,15533.0,11049.200000000001,11873.0
175388.0,8868.1700000000001,-1070.53,7462.1300000000001,-533.28700000000003,806.78300000000002,1346.5599999999999,-955.93100000000004
175389.0,11065.4,-4558.3400000000001,6504.9200000000001,-3563.8600000000001,1184.1700000000001,1089.28,-874.26700000000005
175390.0,13554.9,-9351.1200000000008,4505.1700000000001,-7908.8900000000003,1389.3,718.27700000000004,-876.33000000000004
175391.0,15708.0,-15557.799999999999,514.48099999999999,-14066.200000000001,1489.1400000000001,328.88999999999999,-1031.79
175392.0,17508.5,-23024.299999999999,-5379.6599999999999,-21781.400000000001,1943.5,149.108,-1183.5699999999999
175393.0,19497.099999999999,-29996.5,-10566.4,-28792.299999999999,2553.4499999999998,175.554,-1278.27
175394.0,22164.099999999999,-35964.099999999999,-14464.200000000001,-34564.300000000003,4192.1000000000004,400.18200000000002,-1145.0599999999999
175395.0,28000.099999999999,-38496.099999999999,-11142.0,-34870.400000000001,6284.7299999999996,517.13900000000001,-911.46000000000004
175396.0,33920.199999999997,-43673.199999999997,-9289.75,-37031.300000000003,7051.6000000000004,931.97900000000004,-525.70799999999997
175397.0,41361.900000000001,-51074.599999999999,-7701.1800000000003,-40137.900000000001,7770.0,1025.29,109.83499999999999
175398.0,45617.699999999997,-71219.899999999994,-21149.0,-56759.800000000003,4881.6099999999997,2347.6900000000001,514.18299999999999
175399.0,45063.400000000001,-95097.800000000003,-45226.099999999999,-81127.0,1785.25,3151.1900000000001,1382.73
175400.0,46471.599999999999,-132694.0,-80904.199999999997,-112972.0,93.008300000000006,5091.1599999999999,3272.0599999999999
175401.0,72359.399999999994,-172745.0,-94916.699999999997,-135927.0,1115.6900000000001,5038.3900000000003,14243.700000000001
175402.0,8154.21,1090.3,8904.7600000000002,1925.97,758.06200000000001,1285.0999999999999,-1235.4300000000001
175403.0,9887.5300000000007,-2755.8899999999999,7250.8299999999999,-1248.3699999999999,1093.8800000000001,984.29300000000001,-1146.79
175404.0,12003.0,-7636.6700000000001,4885.3900000000003,-5540.8699999999999,1156.01,666.37,-1122.7
175405.0,13823.6,-13740.200000000001,654.99300000000005,-11633.299999999999,1372.9300000000001,417.56799999999998,-1092.71
175406.0,15872.5,-20005.799999999999,-3657.3899999999999,-17865.599999999999,1931.52,158.66,-1126.29
175407.0,17863.400000000001,-27046.299999999999,-8779.8099999999995,-24700.900000000001,2464.7800000000002,21.560400000000001,-1231.53
175408.0,21020.200000000001,-32039.400000000001,-11018.700000000001,-28895.599999999999,4213.8800000000001,175.727,-969.10599999999999
175409.0,26916.599999999999,-35974.400000000001,-8584.6800000000003,-30166.299999999999,5741.3299999999999,-14.633800000000001,-503.81799999999998
175410.0,32972.599999999999,-42967.199999999997,-8151.25,-33464.5,6205.29,75.416899999999998,-135.20099999999999
175411.0,39565.599999999999,-55307.0,-12317.1,-41875.599999999999,6139.25,-177.577,620.66499999999996
175412.0,44309.300000000003,-79598.399999999994,-29376.299999999999,-61092.800000000003,2938.5500000000002,46.439999999999998,831.17399999999998
175413.0,42240.800000000003,-118483.0,-70857.600000000006,-100465.0,-3062.3299999999999,1739.8800000000001,2030.54
175414.0,42728.0,-151984.0,-103609.0,-131696.0,-585.68299999999999,769.58299999999997,4185.6400000000003
175415.0,63598.300000000003,-218350.0,-146506.0,-177309.0,-2842.25,-5705.3199999999997,2911.0
175416.0,7872.2799999999997,4012.52,11417.6,4866.9300000000003,837.04200000000003,1210.55,-1441.8199999999999
175417.0,9375.8600000000006,591.62300000000005,9830.5100000000002,2060.4899999999998,1177.27,906.13599999999997,-1564.3699999999999
175418.0,11085.6,-4361.5299999999997,7031.6499999999996,-2146.8899999999999,1159.3599999999999,507.18099999999998,-1693.98
175419.0,12341.799999999999,-10625.200000000001,2215.5100000000002,-8034.3800000000001,1361.9000000000001,233.572,-1659.6400000000001
175420.0,14161.200000000001,-16872.0,-2147.0100000000002,-13968.799999999999,1899.97,-41.089599999999997,-1549.24
175421.0,16432.0,-22862.099999999999,-5992.6999999999998,-19675.5,2650.52,-193.28200000000001,-1617.3299999999999
175422.0,20353.0,-27724.900000000001,-7091.4899999999998,-23176.900000000001,4302.2799999999997,-309.97699999999998,-1396.0699999999999
175423.0,25218.599999999999,-33532.900000000001,-7222.7299999999996,-26558.900000000001,4975.4300000000003,-740.30399999999997,-947.87599999999998
175424.0,31391.900000000001,-42082.599999999999,-8733.2299999999996,-31293.599999999999,6054.6300000000001,-1436.8599999999999,-411.10000000000002
175425.0,37707.599999999999,-59479.699999999997,-17472.599999999999,-43745.400000000001,4436.8100000000004,-1953.52,-218.405
175426.0,41121.800000000003,-87619.300000000003,-40863.599999999999,-68775.399999999994,2115.4099999999999,-2410.7399999999998,55.508099999999999
175427.0,40222.599999999999,-132699.0,-87467.600000000006,-112120.0,-4714.3000000000002,-1660.75,-1199.8099999999999
175428.0,37004.300000000003,-178624.0,-136675.0,-160090.0,-2436.8000000000002,-1615.0799999999999,2447.2199999999998
175429.0,62799.0,-230869.0,-163047.0,-201329.0,-4838.4200000000001,-11140.9,3272.3000000000002
175430.0,8218.5300000000007,7481.8000000000002,14964.1,8231.0900000000001,1071.29,1278.46,-1659.1800000000001
175431.0,9382.9699999999993,4662.6099999999997,13563.1,5625.04,1211.6300000000001,1021.46,-1724.9300000000001
175432.0,10910.4,859.077,11527.299999999999,2343.98,1452.8499999999999,548.21699999999998,-1968.71
175433.0,12501.5,-4560.8599999999997,7794.2799999999997,-2462.1399999999999,1694.04,158.57300000000001,-2343.71
175434.0,14009.1,-10627.5,3331.8000000000002,-7982.4099999999999,2121.2199999999998,-82.189400000000006,-2435.8699999999999
175435.0,16042.299999999999,-16832.299999999999,-670.20600000000002,-13477.9,2874.4400000000001,-278.435,-2166.75
175436.0,19436.200000000001,-22258.900000000001,-2332.0999999999999,-17292.400000000001,3898.3200000000002,-787.06500000000005,-1585.3
175437.0,23317.900000000001,-30235.200000000001,-5623.6499999999996,-22912.0,4245.6199999999999,-1456.4200000000001,-1178.0599999999999
175438.0,29471.900000000001,-39325.900000000001,-8259.9400000000005,-28741.700000000001,5699.2200000000003,-2686.6700000000001,-627.76800000000003
175439.0,36804.900000000001,-58739.300000000003,-18006.5,-42448.699999999997,3866.02,-3869.5100000000002,-1134.77
175440.0,39187.900000000001,-92676.399999999994,-48358.5,-73865.600000000006,482.791,-3989.6999999999998,-995.86699999999996
175441.0,39985.400000000001,-136808.0,-91795.199999999997,-117139.0,-3239.4400000000001,-3087.5,-1922.6199999999999
175442.0,38897.0,-192415.0,-150819.0,-173828.0,-7814.5299999999997,-3004.1700000000001,-191.60499999999999
175443.0,51505.599999999999,-261019.0,-218026.0,-246678.0,-14288.4,-13364.799999999999,4727.0299999999997
175444.0,8746.5400000000009,10241.299999999999,18239.200000000001,10977.799999999999,1016.83,1589.3499999999999,-1549.52
175445.0,9058.3099999999995,8182.1000000000004,16597.700000000001,8657.0200000000004,1073.1099999999999,1286.6900000000001,-1481.05
175446.0,10559.1,5996.2600000000002,15923.799999999999,6695.5500000000002,1716.2,828.28599999999994,-1682.96
175447.0,12785.200000000001,2592.8400000000001,15018.5,3981.4000000000001,1930.4000000000001,438.536,-2052.1300000000001
175448.0,14443.299999999999,-2698.9299999999998,11435.1,-833.13900000000001,2242.6300000000001,205.547,-2345.9899999999998
175449.0,16278.799999999999,-8739.2000000000007,7369.6199999999999,-5993.0,2887.23,-168.81100000000001,-2388.04
175450.0,18469.200000000001,-15547.9,2991.6599999999999,-11611.799999999999,3533.6500000000001,-1093.8499999999999,-2146.7800000000002
175451.0,22014.0,-23215.200000000001,-884.61099999999999,-17039.299999999999,4418.7600000000002,-2273.0100000000002,-1971.1900000000001
175452.0,27710.400000000001,-34171.599999999999,-5481.9700000000003,-24538.599999999999,5181.0600000000004,-3686.5,-1532.26
175453.0,34465.300000000003,-53629.599999999999,-16470.099999999999,-39101.599999999999,3502.1500000000001,-5568.9200000000001,-1412.8199999999999
175454.0,36944.699999999997,-92811.300000000003,-52821.900000000001,-74540.699999999997,-2133.5100000000002,-6872.3400000000001,-1552.95
175455.0,37379.800000000003,-146364.0,-107333.0,-124640.0,-6210.3199999999997,-6663.8299999999999,539.00999999999999
175456.0,43469.800000000003,-213994.0,-181595.0,-193173.0,-17254.299999999999,-7781.0200000000004,1439.4300000000001
175457.0,42869.900000000001,-286039.0,-280527.0,-286040.0,-20807.700000000001,-13010.6,494.07100000000003
210332.0,58.529899999999998,23.0321,35.1708,45.768900000000002,-7.4031799999999999,-1.93493,30.8857
210333.0,50.038499999999999,-46.455100000000002,-45.9024,-8.8109599999999997,-9.3897399999999998,-1.1633899999999999,16.720400000000001
210334.0,47.996899999999997,-5.3458199999999998,-23.093699999999998,13.450699999999999,-19.9709,-5.71645,1.5552999999999999
210335.0,48.911099999999998,36.257899999999999,15.831099999999999,51.886899999999997,-20.6935,-6.0479000000000003,-2.3897499999999998
210336.0,50.671599999999998,-39.882599999999996,-40.026499999999999,-0.44911000000000001,-10.8843,-1.0028300000000001,14.7026
210337.0,53.276400000000002,23.623100000000001,30.530200000000001,47.160200000000003,-9.6626499999999993,-5.7106599999999998,25.957100000000001
210338.0,62.759799999999998,-128.702,-111.289,-97.882400000000004,-5.7591700000000001,-0.37700899999999998,32.261699999999998
210339.0,85.356099999999998,20.982700000000001,16.412199999999999,66.5244,-13.0428,-3.5852499999999998,38.443399999999997
210340.0,46.1419,-9.0622900000000008,-4.3664699999999996,9.6763200000000005,-9.5350999999999999,-5.4279299999999999,22.2317
210341.0,48.659799999999997,-5.0327299999999999,-6.0317600000000002,16.6175,-10.2957,-5.7918000000000003,22.043800000000001
210342.0,49.248800000000003,-14.665800000000001,-14.3873,10.0046,-9.8131900000000005,-4.609,22.1434
210343.0,50.8855,-19.225999999999999,-19.4587,11.9171,-9.3010900000000003,-3.5972400000000002,20.9268
210344.0,51.9664,-28.810199999999998,-27.526,6.1757499999999999,-9.1330799999999996,-1.6467000000000001,20.505299999999998
210345.0,47.9651,-42.372500000000002,-43.118600000000001,-5.0582700000000003,-12.3162,-1.4029700000000001,11.8171
210346.0,48.508099999999999,-34.57,-38.043999999999997,0.494226,-15.0494,-2.4154499999999999,9.87744
210347.0,48.9405,-35.145200000000003,-40.029699999999998,-2.8320500000000002,-17.4956,-2.58527,8.7749400000000009
210348.0,49.795999999999999,-32.688600000000001,-41.308900000000001,-3.06359,-19.105399999999999,-3.0183200000000001,7.0697200000000002
210349.0,48.458500000000001,-30.723800000000001,-44.005899999999997,-6.5977199999999998,-19.616299999999999,-3.8431600000000001,4.8509900000000004
210350.0,46.2941,79.983199999999997,59.1631,91.488799999999998,-20.823499999999999,-2.0925600000000002,-2.8136999999999999
210351.0,45.859099999999998,74.234999999999999,51.433300000000003,81.362300000000005,-21.299199999999999,0.83716599999999997,-1.50159
210352.0,46.274000000000001,78.691699999999997,53.699599999999997,81.268100000000004,-21.569600000000001,1.0368200000000001,-3.9447000000000001
210353.0,50.281999999999996,71.947299999999998,43.571599999999997,74.049800000000005,-23.0459,0.77500500000000005,-4.6146700000000003
210354.0,53.9694,77.412800000000004,45.530000000000001,79.475700000000003,-23.906600000000001,0.078048000000000006,-6.0979000000000001
210355.0,59.197400000000002,-15.953799999999999,-1.6009,6.0841099999999999,-4.3881899999999998,2.8602400000000001,31.867699999999999
210356.0,43.583799999999997,-21.932600000000001,-23.890000000000001,8.6464400000000001,-9.0980000000000008,-0.56800300000000004,14.736599999999999
210357.0,51.277700000000003,-36.305799999999998,-54.642299999999999,-11.363899999999999,-19.4678,-1.3842399999999999,4.86435
210358.0,47.920900000000003,-26.93,-49.713000000000001,-11.361800000000001,-19.415400000000002,-4.0530299999999997,-0.21242
210359.0,42.5246,-21.816299999999998,-24.517299999999999,8.3666599999999995,-10.449999999999999,-0.58129399999999998,12.647600000000001
210360.0,53.739600000000003,-31.895299999999999,-29.0929,-2.8728799999999999,-7.0819000000000001,0.598916,25.6098
210361.0,64.683300000000003,-89.049499999999995,-76.941100000000006,-56.1419,-2.17685,5.4705899999999996,32.908299999999997
210362.0,86.938500000000005,47.391599999999997,46.020200000000003,92.996200000000002,-7.6281600000000003,2.8929399999999998,41.691000000000003
210363.0,53.097499999999997,-32.019100000000002,-30.4422,-2.9252600000000002,-5.3857499999999998,2.1616599999999999,25.2669
210364.0,52.285800000000002,-32.549700000000001,-33.8322,-1.9449399999999999,-4.8503400000000001,1.6158600000000001,23.6492
210365.0,50.536000000000001,-30.7577,-33.3889,-0.10261199999999999,-5.6325500000000002,0.88664299999999996,21.825299999999999
210366.0,48.475000000000001,-25.040700000000001,-28.338999999999999,5.6240399999999999,-7.0319799999999999,-0.224911,19.5702
210367.0,46.554000000000002,-23.685300000000002,-25.960999999999999,6.9973999999999998,-8.3534000000000006,-0.46545199999999998,17.709199999999999
210368.0,41.523699999999998,-22.3278,-24.807400000000001,7.1537899999999999,-11.9642,0.047681899999999999,10.745100000000001
210369.0,42.681600000000003,-26.778500000000001,-30.0854,3.3112699999999999,-13.524100000000001,0.63010600000000005,9.2375500000000006
210370.0,45.759599999999999,-30.291499999999999,-35.491199999999999,0.83935800000000005,-15.473800000000001,0.56088000000000005,8.4978800000000003
210371.0,50.174100000000003,-33.646500000000003,-42.002800000000001,-1.18825,-17.597000000000001,-0.035022699999999997,8.0390899999999998
210372.0,52.374000000000002,-38.3904,-51.228400000000001,-7.1628699999999998,-18.916799999999999,-0.630799,6.5173699999999997
210373.0,48.462800000000001,41.729199999999999,16.174800000000001,51.575800000000001,-19.873100000000001,-5.37439,-5.0186400000000004
210374.0,47.628999999999998,74.677099999999996,48.542900000000003,81.056899999999999,-21.2834,-1.52088,-2.0167000000000002
210375.0,44.924399999999999,81.349500000000006,54.6935,80.746700000000004,-20.842500000000001,1.4418800000000001,-2.1524200000000002
210376.0,47.7971,76.466300000000004,45.852800000000002,73.399000000000001,-21.4756,1.3550500000000001,-3.77555
210377.0,52.030200000000001,71.324799999999996,37.039000000000001,68.367500000000007,-22.818999999999999,1.0658300000000001,-4.4253299999999998
210378.0,55.156599999999997,-36.103499999999997,-26.618300000000001,-14.2477,-5.8288500000000001,3.9298000000000002,29.061199999999999
210379.0,33.709400000000002,-13.055,-21.4009,4.7530599999999996,-8.6063100000000006,3.12554,10.7921
210380.0,52.660600000000002,-32.301200000000001,-51.168900000000001,-3.7050100000000001,-17.758800000000001,0.26489099999999999,6.15158
210381.0,48.052500000000002,-36.983499999999999,-57.686,-15.3725,-17.6495,0.65798199999999996,3.1726000000000001
210382.0,31.821899999999999,-11.5214,-19.630400000000002,4.8245399999999998,-9.7632499999999993,3.3736899999999999,8.6992999999999991
210383.0,57.733499999999999,-24.544699999999999,-25.6358,6.4509999999999996,-5.6843599999999999,3.1931699999999998,27.140899999999998
210384.0,66.968400000000003,-8.9910599999999992,-0.97365800000000002,16.1906,-3.03898,6.1596700000000002,35.808500000000002
210385.0,75.575800000000001,27.443999999999999,29.466100000000001,57.780000000000001,-7.8267800000000003,3.5680000000000001,39.2714
210386.0,55.407299999999999,-23.2043,-24.152000000000001,5.4776400000000001,-5.2021600000000001,2.11449,26.612200000000001
210387.0,51.418500000000002,-20.763300000000001,-24.180700000000002,7.4675099999999999,-5.5325699999999998,1.29609,23.394200000000001
210388.0,46.398299999999999,-16.9026,-22.328099999999999,8.8162099999999999,-5.6385699999999996,1.6619299999999999,20.1553
210389.0,41.2224,-16.863399999999999,-23.872900000000001,6.0707899999999997,-6.3291700000000004,2.3572299999999999,16.5989
210390.0,36.798999999999999,-13.759499999999999,-21.890799999999999,6.3562799999999999,-7.2968000000000002,2.85677,13.3619
210391.0,31.8111,-12.7653,-20.732299999999999,3.2814299999999998,-11.0268,3.21923,7.4671000000000003
210392.0,33.823399999999999,-12.845499999999999,-21.176500000000001,4.3060799999999997,-12.4148,2.7433800000000002,7.1318599999999996
210393.0,38.057400000000001,-18.363600000000002,-28.224399999999999,1.3272299999999999,-13.956300000000001,2.2120099999999998,7.5324900000000001
210394.0,44.4405,-23.963000000000001,-37.048999999999999,-0.26838800000000002,-15.625,1.3668499999999999,8.0452700000000004
210395.0,50.1843,-31.227399999999999,-47.612400000000001,-3.7463799999999998,-16.990200000000002,0.27395900000000001,7.7091599999999998
210396.0,45.769799999999996,-5.7438399999999996,-31.4208,5.0589599999999999,-17.647300000000001,-1.6994800000000001,-5.7313200000000002
210397.0,49.187399999999997,65.150899999999993,34.664000000000001,71.198499999999996,-19.9452,-1.32134,-4.8417399999999997
210398.0,45.090200000000003,85.499499999999998,56.743499999999997,84.059399999999997,-20.3203,1.5046999999999999,-0.092305700000000004
210399.0,45.7378,75.330500000000001,43.894199999999998,69.220399999999998,-20.209800000000001,1.21923,-3.0923500000000002
210400.0,50.668599999999998,85.374799999999993,49.037399999999998,79.313400000000001,-21.597999999999999,0.989209,-3.0584899999999999
210401.0,55.507599999999996,-23.1983,-25.063600000000001,-0.68732000000000004,-5.2356400000000001,5.8813899999999997,27.945599999999999
210402.0,28.315100000000001,-1.5674699999999999,-11.5364,9.3982200000000002,-8.2444100000000002,2.9966499999999998,8.9805799999999998
210403.0,47.0379,-32.155500000000004,-55.135399999999997,-12.4222,-15.2133,0.14051900000000001,7.0054699999999999
210404.0,43.6997,-33.1004,-55.430999999999997,-16.817299999999999,-15.9998,-0.075863299999999995,2.1804299999999999
210405.0,26.733899999999998,-1.8501099999999999,-12.0227,7.5004400000000002,-8.9256100000000007,2.8224,7.4334800000000003
210406.0,56.308999999999997,-19.914999999999999,-24.7103,4.40463,-4.9776199999999999,4.8063099999999999,27.6647
210407.0,67.317999999999998,23.7179,29.694299999999998,41.426499999999997,-5.8513999999999999,5.3257599999999998,36.970399999999998
210408.0,61.517200000000003,-18.763999999999999,-17.7699,1.33941,-5.5783300000000002,6.8127800000000001,32.488999999999997
210409.0,50.7943,-22.025600000000001,-28.906400000000001,0.78146499999999997,-4.9513400000000001,4.3160699999999999,23.987400000000001
210410.0,45.823999999999998,-14.575799999999999,-23.394500000000001,6.2479199999999997,-5.3687800000000001,4.2652200000000002,20.5245
210411.0,39.713099999999997,-13.112399999999999,-22.282599999999999,5.1029,-6.0781499999999999,3.79087,16.735800000000001
210412.0,35.0715,-6.4544600000000001,-15.987500000000001,9.3096999999999994,-6.8192500000000003,3.39188,13.7395
210413.0,31.011900000000001,-4.6615500000000001,-14.376300000000001,8.51159,-7.5188899999999999,3.1086200000000002,11.064399999999999
210414.0,26.7287,-2.2014499999999999,-12.953200000000001,6.3996899999999997,-9.5569500000000005,2.7938299999999998,6.7067899999999998
210415.0,28.698,-6.3766999999999996,-18.577300000000001,2.9760200000000001,-10.3195,2.7576700000000001,6.6040999999999999
210416.0,32.772599999999997,-11.2309,-25.5152,0.64084300000000005,-11.2727,2.6290399999999998,7.2464399999999998
210417.0,39.135800000000003,-17.180199999999999,-34.881700000000002,-1.16917,-12.610799999999999,2.2741799999999999,7.8714300000000001
210418.0,44.921300000000002,-26.7363,-48.250900000000001,-7.2884200000000003,-13.888500000000001,1.57579,7.57843
210419.0,44.106999999999999,15.739699999999999,-10.034800000000001,26.8657,-16.000599999999999,1.0014799999999999,-5.7583900000000003
210420.0,45.224299999999999,67.057100000000005,36.200200000000002,71.803100000000001,-17.252600000000001,1.60961,-2.7920799999999999
210421.0,42.513100000000001,84.829999999999998,54.891399999999997,80.914199999999994,-18.312100000000001,1.5182899999999999,0.112233
210422.0,44.868000000000002,76.016400000000004,43.595500000000001,69.356700000000004,-19.310099999999998,0.96214,-2.01349
210423.0,49.441800000000001,73.973100000000002,36.347099999999998,67.053399999999996,-20.2254,0.42230600000000001,-2.1239499999999998
210424.0,58.542700000000004,-5.9133399999999998,-10.6678,16.959199999999999,-4.3370899999999999,6.7561400000000003,29.322199999999999
210425.0,25.5108,-3.6784500000000002,-14.630800000000001,4.1615799999999998,-7.0145099999999996,2.9564900000000001,8.3602600000000002
210426.0,39.928400000000003,-14.5905,-41.106200000000001,-5.2892299999999999,-12.0181,4.42767,4.6878900000000003
210427.0,37.584899999999998,-10.85,-38.633800000000001,-6.6765499999999998,-12.2033,4.1550700000000003,-1.70835
210428.0,24.244399999999999,-1.9883999999999999,-13.425800000000001,4.6309100000000001,-7.3658900000000003,2.6803699999999999,7.1445299999999996
210429.0,53.613799999999998,-27.690799999999999,-33.379600000000003,-6.9447999999999999,-4.42394,6.1708699999999999,26.587700000000002
210430.0,62.741700000000002,3.62534,4.7286400000000004,18.7456,-5.9819000000000004,6.79345,34.046900000000001
210431.0,57.709800000000001,-27.751799999999999,-28.096299999999999,-7.8826900000000002,-4.6102600000000002,6.9303400000000002,30.115500000000001
210432.0,49.253,-8.7225099999999998,-17.7775,12.704599999999999,-5.29819,5.1077500000000002,22.5702
210433.0,42.6267,-13.1572,-22.297599999999999,4.5522099999999996,-5.25875,4.5111100000000004,19.2698
210434.0,36.433300000000003,-4.0158800000000001,-14.3271,11.1274,-5.6772799999999997,3.8473000000000002,15.2151
210435.0,31.722000000000001,-5.99247,-16.517900000000001,6.0975000000000001,-6.1118199999999998,3.60934,12.5291
210436.0,27.8432,-2.2164000000000001,-13.0318,7.5245600000000001,-6.60928,3.2288399999999999,9.92821
210437.0,24.6892,-4.7850099999999998,-17.106100000000001,1.58721,-7.7244999999999999,2.4705499999999998,6.8633100000000002
210438.0,26.939,-5.2515499999999999,-19.5044,2.20642,-8.0589999999999993,2.2292000000000001,7.0921099999999999
210439.0,30.936800000000002,-11.1775,-28.516300000000001,-1.6955199999999999,-8.4381000000000004,2.1349300000000002,7.6345999999999998
210440.0,35.781500000000001,-14.9094,-35.686199999999999,-2.9744199999999998,-9.1728100000000001,2.2096100000000001,7.9824599999999997
210441.0,38.617800000000003,-19.171299999999999,-43.157200000000003,-6.6926399999999999,-10.6271,2.5571999999999999,5.84694
210442.0,39.491999999999997,66.354500000000002,37.058799999999998,68.552599999999998,-13.502700000000001,2.2157300000000002,-4.8463000000000003
210443.0,39.729500000000002,83.393799999999999,53.843600000000002,82.173500000000004,-15.445600000000001,2.3512300000000002,1.58138
210444.0,38.697899999999997,82.287800000000004,52.501100000000001,74.155799999999999,-16.130099999999999,1.35998,-0.307506
210445.0,44.0944,77.6357,42.794199999999996,69.686999999999998,-17.7197,0.56952999999999998,-0.63509300000000002
210446.0,48.180300000000003,79.173900000000003,40.150399999999998,72.022499999999994,-18.4313,-0.20275699999999999,-1.54589
210447.0,55.0075,-17.3809,-22.744299999999999,2.1518700000000002,-3.7595299999999998,7.7966100000000003,27.604399999999998
210448.0,24.624500000000001,-1.68973,-12.686199999999999,6.5853099999999998,-5.2610900000000003,2.6667299999999998,8.5946200000000008
210449.0,33.960500000000003,21.3184,-5.5610099999999996,26.193300000000001,-9.2025500000000005,2.7013500000000001,-0.13533899999999999
210450.0,34.963099999999997,60.457500000000003,29.903400000000001,58.9452,-9.7835300000000007,3.35425,-1.9896499999999999
210451.0,23.638300000000001,-3.07809,-14.811,4.3313800000000002,-5.3957600000000001,2.3237999999999999,7.6535399999999996
210452.0,53.481200000000001,-19.768799999999999,-26.823499999999999,0.99630200000000002,-4.4429299999999996,7.3858899999999998,25.883800000000001
210453.0,61.498800000000003,13.7408,8.2241499999999998,25.678899999999999,-1.3892899999999999,12.9259,31.813300000000002
210454.0,57.520800000000001,-13.210699999999999,-17.594000000000001,1.37615,-2.1776300000000002,9.7914999999999992,30.060400000000001
210455.0,48.192,-17.332999999999998,-27.0062,2.32714,-4.49742,6.36869,22.134699999999999
210456.0,41.635300000000001,-10.664400000000001,-20.726600000000001,6.2581499999999997,-4.6565700000000003,5.2884000000000002,18.499099999999999
210457.0,35.213999999999999,-9.1828000000000003,-19.587299999999999,5.1246400000000003,-4.7834500000000002,4.3530899999999999,14.750299999999999
210458.0,30.485700000000001,-4.3323,-14.795299999999999,7.47729,-4.9397700000000002,3.6309999999999998,12.167199999999999
210459.0,26.802199999999999,-3.5924100000000001,-14.226100000000001,6.2365399999999998,-5.0948099999999998,3.0674399999999999,9.9675899999999995
210460.0,24.436,-4.1806700000000001,-17.3843,3.0337200000000002,-5.52067,2.1563300000000001,7.5298999999999996
210461.0,27.361799999999999,-7.93492,-23.9529,0.155975,-5.80945,2.1052300000000002,7.7991999999999999
210462.0,31.276800000000001,-12.013500000000001,-31.760000000000002,-2.7924799999999999,-6.2491000000000003,2.0899999999999999,7.9779799999999996
210463.0,34.615499999999997,-13.8673,-37.407499999999999,-4.5298299999999996,-6.8141400000000001,2.1955100000000001,7.8174799999999998
210464.0,32.088500000000003,-17.540900000000001,-41.5518,-11.0848,-7.7637999999999998,1.9976100000000001,4.6062799999999999
210465.0,32.975299999999997,96.260300000000001,65.279499999999999,83.915099999999995,-10.7514,1.8649199999999999,-0.37037399999999998
210466.0,37.283099999999997,82.831000000000003,49.1633,68.585400000000007,-13.0854,0.86483200000000005,2.3996900000000001
210467.0,37.533099999999997,93.090199999999996,59.454500000000003,77.763099999999994,-13.628,0.49412499999999998,0.18279799999999999
210468.0,41.859499999999997,76.484300000000005,39.088000000000001,64.554299999999998,-14.7888,0.56879900000000005,0.38470599999999999
210469.0,46.808999999999997,73.941699999999997,32.879199999999997,64.868399999999994,-16.227900000000002,-0.17294300000000001,-1.3011699999999999
210470.0,49.505400000000002,-25.3855,-31.6526,-11.553100000000001,-1.94536,8.7313500000000008,25.122499999999999
210471.0,24.462599999999998,-5.2739599999999998,-17.408100000000001,2.7988900000000001,-3.6038000000000001,2.70383,8.7016899999999993
210472.0,31.2547,24.7148,-4.4677600000000002,22.284099999999999,-7.5211300000000003,-2.0772499999999998,-1.5931900000000001
210473.0,35.957299999999996,79.766400000000004,45.457999999999998,72.593599999999995,-9.7156599999999997,-2.0379,-2.2254700000000001
210474.0,23.7241,-4.0972600000000003,-17.396100000000001,2.9991599999999998,-3.6108699999999998,2.3358699999999999,7.8688700000000003
210475.0,53.972799999999999,-16.3931,-26.811599999999999,4.0536000000000003,-3.8094100000000002,8.5434199999999993,25.238399999999999
210476.0,63.347799999999999,58.839100000000002,52.6051,69.366699999999994,-0.34912599999999999,13.7079,32.830500000000001
210477.0,59.234699999999997,19.5688,15.493,28.9526,-0.26301400000000003,11.485300000000001,31.463699999999999
210478.0,48.505099999999999,-15.6592,-25.000499999999999,3.1855600000000002,-3.50014,7.5443199999999999,22.559699999999999
210479.0,42.424700000000001,-13.393700000000001,-24.138500000000001,4.4759700000000002,-3.6755800000000001,6.0934400000000002,18.4495
210480.0,35.506799999999998,-7.4997699999999998,-18.040800000000001,7.1307,-3.4928599999999999,4.9116299999999997,14.970800000000001
210481.0,30.460599999999999,-6.7868399999999998,-17.7606,5.3620599999999996,-3.5551300000000001,3.9823400000000002,12.124599999999999
210482.0,26.659500000000001,-4.1480399999999999,-15.535299999999999,5.5970599999999999,-3.6062599999999998,3.2498800000000001,10.073399999999999
210483.0,24.7255,-7.2137900000000004,-22.208600000000001,-0.32656200000000002,-3.6824300000000001,2.1787000000000001,7.76485
210484.0,27.895399999999999,-7.8955599999999997,-25.880500000000001,-0.036793699999999999,-4.0493800000000002,2.1902300000000001,7.9165000000000001
210485.0,31.422999999999998,-13.355600000000001,-34.780299999999997,-4.9622900000000003,-4.7026700000000003,2.1901099999999998,8.1113300000000006
210486.0,33.918399999999998,-12.8513,-38.152500000000003,-5.0286900000000001,-5.5984999999999996,1.9972099999999999,6.9569000000000001
210487.0,29.5822,-13.2281,-38.845300000000002,-11.5885,-5.6816800000000001,0.79465300000000005,5.0145999999999997
210488.0,32.501100000000001,115.196,82.896799999999999,95.3125,-9.0240100000000005,0.30225099999999999,2.2650600000000001
210489.0,36.592399999999998,90.811000000000007,53.878900000000002,68.906000000000006,-9.8752700000000004,1.0323500000000001,1.67652
210490.0,38.833199999999998,101.839,62.665500000000002,79.141099999999994,-10.7399,0.031974000000000002,0.67184999999999995
210491.0,41.876300000000001,79.956999999999994,37.993400000000001,59.573799999999999,-11.9467,-0.66283499999999995,1.01258
210492.0,46.2331,91.533600000000007,46.3416,74.872399999999999,-13.727399999999999,-0.77160300000000004,-1.0696300000000001
210493.0,47.233400000000003,-23.195,-29.1904,-14.2502,-0.217227,8.9643200000000007,24.631900000000002
210494.0,24.9542,-3.1703399999999999,-17.118500000000001,4.1957399999999998,-2.3483999999999998,2.7845900000000001,8.7815899999999996
210495.0,30.467500000000001,4.7969099999999996,-25.557500000000001,0.57425800000000005,-5.9444800000000004,-1.8286500000000001,0.62797000000000003
210496.0,36.211399999999998,53.176299999999998,18.255099999999999,47.464799999999997,-8.1014900000000001,-3.86904,-2.3659599999999998
210497.0,24.207100000000001,-4.4833999999999996,-19.937000000000001,1.6073900000000001,-2.2460499999999999,2.2723499999999999,7.8596399999999997
210498.0,52.139499999999998,-15.020899999999999,-27.586200000000002,3.6106199999999999,-2.2996699999999999,8.9695699999999992,23.959499999999998
210499.0,59.874200000000002,70.944500000000005,61.133699999999997,78.109399999999994,-2.1235599999999999,9.8795900000000003,31.941099999999999
210500.0,58.693899999999999,50.035699999999999,43.296500000000002,55.0426,-0.30229899999999998,10.5625,31.653199999999998
210501.0,49.170099999999998,-20.276900000000001,-31.774799999999999,-2.78457,-2.3394699999999999,8.3589500000000001,22.747599999999998
210502.0,42.913499999999999,-11.5611,-23.733599999999999,5.4817799999999997,-2.5305300000000002,7.0697599999999996,18.496200000000002
210503.0,36.047600000000003,-11.6502,-23.465299999999999,2.5661299999999998,-2.5426700000000002,5.61632,15.0082
210504.0,30.777899999999999,-6.4651100000000001,-18.6937,5.1077000000000004,-2.5402800000000001,4.4268299999999998,12.1675
210505.0,27.0306,-5.7058600000000004,-18.5519,3.5052699999999999,-2.4485199999999998,3.4803299999999999,10.1348
210506.0,25.0474,-4.6532900000000001,-22.1035,0.73128300000000002,-2.2050000000000001,2.048,7.5880900000000002
210507.0,27.619399999999999,-7.6719099999999996,-28.020800000000001,-1.93821,-2.6230699999999998,2.0372499999999998,7.4411100000000001
210508.0,30.631799999999998,-10.7814,-34.036299999999997,-4.8142199999999997,-3.2847,2.1136699999999999,7.6892199999999997
210509.0,33.094000000000001,-11.3851,-38.110599999999998,-5.3967700000000001,-4.4946000000000002,1.6311899999999999,6.23095
210510.0,31.4011,-11.1447,-39.436199999999999,-10.3507,-4.7203400000000002,0.71341100000000002,5.6022800000000004
210511.0,33.942100000000003,99.087299999999999,64.333600000000004,86.459900000000005,-7.2080799999999998,-3.86456,2.7671100000000002
210512.0,34.830500000000001,82.786100000000005,46.455599999999997,66.105599999999995,-7.0984499999999997,-3.8356300000000001,2.92869
210513.0,38.205300000000001,100.06399999999999,60.258600000000001,78.837699999999998,-8.8838000000000008,-3.27555,-0.43892599999999998
210514.0,44.003799999999998,90.131200000000007,43.983699999999999,65.122600000000006,-10.418200000000001,-1.78118,0.29643999999999998
210515.0,47.898299999999999,92.021600000000007,42.294899999999998,65.146299999999997,-11.9221,-1.6845399999999999,-0.49014000000000002
210516.0,49.813800000000001,-8.9543900000000001,-14.8292,0.336613,0.434396,9.3442799999999995,26.0991
210517.0,25.617799999999999,-4.6251600000000002,-21.282699999999998,0.77012400000000003,-1.6930799999999999,2.7173799999999999,8.7381399999999996
210518.0,32.604599999999998,-7.3292799999999998,-39.318199999999997,-9.6918299999999995,-4.8258999999999999,-1.7027000000000001,3.2245599999999999
210519.0,36.418199999999999,10.0244,-25.413699999999999,6.5022099999999998,-6.1367500000000001,-4.7721,0.71736599999999995
210520.0,24.859100000000002,-2.2937799999999999,-20.795999999999999,1.35917,-1.5268999999999999,1.9778199999999999,7.6589700000000001
210521.0,50.563499999999998,-23.480699999999999,-36.2502,-6.9458000000000002,-0.91022000000000003,9.5637500000000006,23.325099999999999
210522.0,58.956499999999998,70.767300000000006,59.752600000000001,78.756,0.078014200000000006,10.073399999999999,31.082100000000001
210523.0,57.795699999999997,50.126600000000003,43.051099999999998,56.703200000000002,1.0827,10.2234,31.002300000000002
210524.0,49.8506,-12.476100000000001,-26.444400000000002,4.4495100000000001,-1.1958599999999999,9.1037199999999991,22.465900000000001
210525.0,42.955599999999997,-16.789100000000001,-30.519300000000001,-1.6196299999999999,-1.4994099999999999,7.7087500000000002,18.558499999999999
210526.0,36.3626,-7.6509900000000002,-21.468,5.3446899999999999,-1.7723899999999999,6.19346,14.8142
210527.0,31.192,-7.3906000000000001,-21.447900000000001,2.7627899999999999,-1.8175600000000001,4.8768399999999996,12.223699999999999
210528.0,27.533200000000001,-3.68337,-18.821400000000001,3.9359600000000001,-1.8554999999999999,3.65801,10.0838
210529.0,25.485299999999999,-4.1486099999999997,-24.8842,-1.74787,-1.40333,1.54192,7.0934499999999998
210530.0,27.133299999999998,-3.8726799999999999,-27.134599999999999,-2.0055100000000001,-1.6072,1.34701,6.7079199999999997
210531.0,29.620899999999999,-7.26776,-33.361899999999999,-5.5849099999999998,-2.1240899999999998,1.3720399999999999,6.5970300000000002
210532.0,31.880700000000001,-8.9872800000000002,-37.705300000000001,-7.2341199999999999,-3.2845200000000001,1.10484,5.8369900000000001
210533.0,32.962800000000001,-10.110099999999999,-40.7119,-9.7583599999999997,-4.0899999999999999,0.34634300000000001,5.4356900000000001
210534.0,40.671199999999999,34.308799999999998,-5.3639200000000002,27.784800000000001,-6.6780400000000002,-6.6092000000000004,3.2481300000000002
210535.0,40.463999999999999,25.6996,-14.938000000000001,12.353300000000001,-6.5293099999999997,-7.8144299999999998,3.6087899999999999
210536.0,41.947699999999998,46.757100000000001,4.9902499999999996,30.1006,-7.9998800000000001,-8.8551900000000003,-1.4321900000000001
210537.0,45.332799999999999,85.549700000000001,39.223599999999998,65.9726,-9.4413800000000005,-7.2051699999999999,-1.7760899999999999
210538.0,47.957299999999996,102.761,53.1601,75.900499999999994,-11.062900000000001,-5.27074,-0.023688000000000001
210539.0,53.201900000000002,-9.2687299999999997,-18.626799999999999,3.4853100000000001,-0.079400200000000004,10.007099999999999,26.8353
210540.0,26.684699999999999,-1.5759700000000001,-21.182500000000001,1.5484,-1.56802,2.4779,8.7719299999999993
210541.0,35.308900000000001,-11.101000000000001,-48.041499999999999,-17.488900000000001,-3.7365499999999998,-0.57354400000000005,3.3866399999999999
210542.0,37.404899999999998,-4.9242999999999997,-44.424999999999997,-13.047599999999999,-4.6898099999999996,-1.26183,2.7660499999999999
210543.0,26.030000000000001,-2.0794899999999998,-23.7759,-1.0442800000000001,-1.37991,1.4628099999999999,7.5534100000000004
210544.0,51.238999999999997,-23.925599999999999,-37.1858,-9.8825699999999994,0.299904,10.4556,24.068999999999999
210545.0,61.692700000000002,60.301400000000001,52.349800000000002,70.7286,1.1314299999999999,9.0462799999999994,33.175199999999997
210546.0,54.273699999999998,11.879200000000001,7.53024,21.117999999999999,0.91029300000000002,7.9454700000000003,29.491900000000001
210547.0,49.505499999999998,-15.9625,-32.069299999999998,-0.40347300000000003,-0.31866899999999998,9.8394899999999996,21.663599999999999
210548.0,42.839399999999998,-11.632400000000001,-26.921500000000002,1.43509,-0.80772200000000005,8.4155999999999995,18.407299999999999
210549.0,36.319499999999998,-9.6298700000000004,-25.490300000000001,1.2045699999999999,-1.5692200000000001,6.6805899999999996,14.5722
210550.0,31.5154,-6.3344300000000002,-22.855899999999998,1.4007000000000001,-1.7078899999999999,5.0038200000000002,12.230700000000001
210551.0,28.177199999999999,-4.4722099999999996,-22.281400000000001,0.87230200000000002,-1.71496,3.60304,10.0875
210552.0,26.612300000000001,-0.16447300000000001,-24.362400000000001,-0.92182299999999995,-1.20957,0.70286199999999999,6.6970799999999997
210553.0,27.697600000000001,-1.78311,-28.470099999999999,-4.2043200000000001,-1.1711199999999999,0.144758,6.0425599999999999
210554.0,29.733699999999999,-0.83379400000000004,-30.397300000000001,-4.13551,-1.47505,-0.089167099999999999,5.4848100000000004
210555.0,31.376300000000001,-3.9980600000000002,-35.793399999999998,-8.2285500000000003,-2.0508999999999999,-0.217224,5.0787599999999999
210556.0,33.975999999999999,-4.9065000000000003,-39.680300000000003,-9.5760199999999998,-2.8721899999999998,-0.182172,4.5047699999999997
210557.0,42.326599999999999,-14.9933,-58.975200000000001,-23.0291,-6.4173200000000001,-1.7746299999999999,2.08114
210558.0,42.877699999999997,-2.57131,-47.994100000000003,-15.3238,-7.0900400000000001,-3.2374800000000001,1.79345
210559.0,45.811999999999998,-8.2980400000000003,-55.918599999999998,-24.4756,-8.2732899999999994,-6.6897399999999996,-0.180566
210560.0,49.82,27.7563,-21.279399999999999,9.0740200000000009,-9.6205700000000007,-10.7552,-2.5765600000000002
210561.0,51.187899999999999,52.784199999999998,3.9865400000000002,30.466200000000001,-11.1517,-12.337899999999999,-0.26376699999999997
210562.0,55.187899999999999,-8.4379899999999992,-23.261099999999999,4.7672699999999999,0.87313499999999999,12.315799999999999,25.810400000000001
210563.0,28.156400000000001,-2.3500299999999998,-24.896599999999999,-1.4928900000000001,-1.86941,2.1068600000000002,8.9549599999999998
210564.0,37.1967,-1.4938400000000001,-41.949300000000001,-13.505800000000001,-3.3119200000000002,-3.0709599999999999,3.02278
210565.0,39.0548,1.96214,-40.712499999999999,-11.4513,-3.9306800000000002,-2.9373,2.85276
210566.0,27.680599999999998,0.78370600000000001,-23.9908,-0.642764,-1.73508,0.79657100000000003,7.6334999999999997
210567.0,53.624499999999998,-23.6799,-37.843299999999999,-11.078799999999999,1.20401,12.0905,25.131900000000002
210568.0,62.898200000000003,49.256500000000003,37.509900000000002,52.523800000000001,3.9040499999999998,12.1799,33.057400000000001
210569.0,50.907899999999998,-27.588799999999999,-35.1922,-23.535499999999999,2.6427800000000001,10.1027,26.8292
210570.0,49.166800000000002,-11.853,-28.988199999999999,1.6349,-0.26309399999999999,11.0131,21.186800000000002
210571.0,42.712200000000003,-15.9962,-33.298499999999997,-5.49946,-0.97356200000000004,8.8333899999999996,18.222999999999999
210572.0,36.346499999999999,-6.0984800000000003,-24.028600000000001,2.1520299999999999,-1.6209499999999999,6.89621,14.5261
210573.0,32.302300000000002,-5.1275700000000004,-23.907800000000002,0.552203,-1.7954300000000001,5.24146,12.379099999999999
210574.0,29.294,-1.60564,-21.9788,1.57134,-1.9732099999999999,3.5451600000000001,10.3096
210575.0,28.383500000000002,0.25906400000000002,-27.167400000000001,-3.3182200000000002,-1.61974,-0.295294,6.5978300000000001
210576.0,29.3706,2.1263899999999998,-27.814399999999999,-3.8393799999999998,-1.5196799999999999,-1.31012,5.6902799999999996
210577.0,31.339300000000001,1.89971,-31.086600000000001,-5.9940300000000004,-1.68828,-2.04514,4.8657300000000001
210578.0,32.963700000000003,1.00789,-34.406100000000002,-9.0499299999999998,-1.8502099999999999,-2.65171,4.32498
210579.0,35.704500000000003,3.4901200000000001,-35.105200000000004,-7.24857,-2.5256599999999998,-2.7525400000000002,3.7635999999999998
210580.0,43.1447,-10.0221,-56.6417,-22.8218,-5.4544100000000002,-2.6985700000000001,1.8131299999999999
210581.0,44.373100000000001,0.64071599999999995,-47.079000000000001,-14.627700000000001,-6.85473,-3.7742399999999998,1.0919399999999999
210582.0,48.267400000000002,-13.558400000000001,-64.911799999999999,-31.3095,-8.7217099999999999,-4.4397700000000002,0.75344699999999998
210583.0,50.713700000000003,-1.0163599999999999,-53.769500000000001,-24.285,-10.1076,-7.4500000000000002,-0.82678799999999997
210584.0,53.845199999999998,3.4700500000000001,-48.968000000000004,-23.426100000000002,-11.3368,-12.238899999999999,-0.72948000000000002
210585.0,55.025500000000001,-17.268599999999999,-33.549999999999997,-6.1265000000000001,1.8270999999999999,14.1614,24.802600000000002
210586.0,29.912700000000001,-0.416412,-25.497399999999999,-1.3546899999999999,-2.4396599999999999,1.6992,9.3424499999999995
210587.0,40.813099999999999,4.21828,-39.694899999999997,-14.843500000000001,-3.6655899999999999,-7.0452399999999997,2.69807
210588.0,43.344099999999997,11.020799999999999,-35.555799999999998,-10.334099999999999,-4.18527,-7.7434099999999999,2.27386
210589.0,29.634899999999998,-0.51039500000000004,-27.884899999999998,-3.7650899999999998,-2.4161199999999998,0.140928,7.9539
210590.0,54.499299999999998,-21.0915,-37.715600000000002,-10.911300000000001,1.1746700000000001,12.9321,25.265799999999999
210591.0,63.810000000000002,56.373699999999999,43.687199999999997,57.387900000000002,6.3575499999999998,13.9253,32.628599999999999
210592.0,52.564799999999998,-16.830200000000001,-24.677499999999998,-14.261200000000001,5.2005400000000002,12.571199999999999,26.579899999999999
210593.0,49.006599999999999,-16.803699999999999,-35.2455,-6.1171499999999996,-0.39594400000000002,11.7441,21.103100000000001
210594.0,43.362699999999997,-8.30762,-26.939299999999999,0.188055,-1.14459,9.9799199999999999,18.257400000000001
210595.0,37.3371,-8.5715400000000006,-28.123799999999999,-2.5435300000000001,-2.1892299999999998,7.5343,14.976599999999999
210596.0,33.591700000000003,-5.9047799999999997,-27.141400000000001,-2.4669599999999998,-2.4801500000000001,5.1712800000000003,12.8309
210597.0,30.852,-3.81141,-26.729099999999999,-2.6155400000000002,-2.4920599999999999,3.2505299999999999,10.762
210598.0,30.3918,2.4091800000000001,-27.558,-3.1595300000000002,-2.4088599999999998,-1.2818400000000001,6.81074
210599.0,31.541899999999998,2.3924599999999998,-30.100000000000001,-5.8176199999999998,-2.4037600000000001,-2.6933199999999999,5.7560000000000002
210600.0,33.484000000000002,5.5782299999999996,-29.7898,-5.1243800000000004,-2.5606200000000001,-3.90489,4.7906700000000004
210601.0,35.523000000000003,5.4568000000000003,-32.5366,-8.2471599999999992,-2.7030699999999999,-5.1549699999999996,4.0662099999999999
210602.0,38.530000000000001,6.7986300000000002,-34.642099999999999,-9.4261800000000004,-3.2145899999999998,-6.08338,3.3828100000000001
210603.0,46.728900000000003,3.7328000000000001,-46.411999999999999,-18.904699999999998,-5.4982800000000003,-7.9560399999999998,1.9312
210604.0,48.412799999999997,9.11843,-42.115200000000002,-15.8742,-6.7979500000000002,-8.7568999999999999,1.4206099999999999
210605.0,51.539200000000001,2.5536799999999999,-51.382199999999997,-22.2029,-8.6037700000000008,-9.0061800000000005,1.1809099999999999
210606.0,52.910800000000002,6.2983200000000004,-48.030000000000001,-21.326899999999998,-10.0481,-9.6775400000000005,0.77698999999999996
210607.0,55.582599999999999,-3.1926899999999998,-58.947800000000001,-35.480400000000003,-10.841699999999999,-11.340400000000001,0.13789299999999999
210608.0,53.138300000000001,-10.792199999999999,-28.342400000000001,-2.4050199999999999,1.96045,13.918200000000001,23.8428
210609.0,32.087600000000002,-2.2976100000000002,-29.389600000000002,-4.2194599999999998,-3.2503799999999998,1.6651100000000001,10.0665
210610.0,44.133699999999997,10.4849,-34.3553,-10.9003,-4.9706400000000004,-10.5945,3.0483600000000002
210611.0,47.749899999999997,11.749700000000001,-36.086799999999997,-13.1716,-5.44529,-12.287800000000001,2.6376400000000002
210612.0,31.694500000000001,1.28512,-28.014199999999999,-2.93215,-3.3233799999999998,-0.30750300000000003,8.5332399999999993
210613.0,52.792400000000001,-18.285399999999999,-36.269100000000002,-11.928699999999999,1.98674,14.053900000000001,23.836500000000001
210614.0,61.512799999999999,55.349200000000003,42.350000000000001,55.771700000000003,6.6754699999999998,12.0038,31.849699999999999
210615.0,50.683700000000002,-23.3581,-31.980499999999999,-20.785699999999999,4.2522000000000002,10.720599999999999,26.246600000000001
210616.0,48.6175,-11.370799999999999,-30.68,-4.3013000000000003,-0.78504099999999999,12.831200000000001,20.885100000000001
210617.0,43.949399999999997,-17.288699999999999,-37.171999999999997,-11.3405,-2.0966100000000001,10.120900000000001,18.8155
210618.0,39.038600000000002,-7.5617799999999997,-28.730599999999999,-2.9144600000000001,-2.74024,7.92326,15.7592
210619.0,35.747399999999999,-4.8438800000000004,-27.561,-2.30518,-2.8478400000000001,6.0960299999999998,13.685499999999999
210620.0,33.1892,-1.98536,-26.709700000000002,-1.65683,-3.19625,3.84287,11.648300000000001
210621.0,32.335999999999999,1.1970499999999999,-30.492599999999999,-5.47098,-3.4521199999999999,-2.1019800000000002,7.2851800000000004
210622.0,33.592100000000002,3.9817,-30.0778,-5.3798300000000001,-3.6507299999999998,-3.9015499999999999,6.1629199999999997
210623.0,35.6999,4.0957999999999997,-32.631999999999998,-8.0708500000000001,-3.94103,-5.6715099999999996,5.20519
210624.0,38.131599999999999,6.01851,-33.329599999999999,-9.2263300000000008,-4.1525999999999996,-7.3992199999999997,4.3674200000000001
210625.0,40.999499999999998,9.6420600000000007,-32.513100000000001,-8.4708400000000008,-4.5435999999999996,-8.89391,3.6579799999999998
210626.0,51.395200000000003,11.1633,-39.8551,-16.685400000000001,-6.1775599999999997,-13.592599999999999,2.2416399999999999
210627.0,54.359099999999998,15.770200000000001,-37.222700000000003,-15.2964,-6.9532800000000003,-14.9535,1.99756
210628.0,57.682000000000002,10.9236,-45.063699999999997,-22.445900000000002,-8.1370799999999992,-15.664899999999999,2.0471499999999998
210629.0,60.0565,14.5944,-42.484000000000002,-20.656700000000001,-9.4466900000000003,-16.754200000000001,1.67763
210630.0,62.190899999999999,18.416799999999999,-39.583399999999997,-18.831900000000001,-10.367800000000001,-17.734300000000001,1.8840399999999999
210631.0,49.638300000000001,-2.70296,-25.561900000000001,-3.6328100000000001,2.1768700000000001,11.7844,22.590399999999999
210632.0,34.505099999999999,-3.2585700000000002,-31.850200000000001,-5.5690999999999997,-4.2695800000000004,1.8166599999999999,11.0943
210633.0,46.811199999999999,8.48766,-36.124499999999998,-12.367800000000001,-6.4855299999999998,-13.240500000000001,3.8462299999999998
210634.0,50.130499999999998,13.1882,-33.789299999999997,-10.8065,-6.79373,-15.1129,3.36558
210635.0,33.840800000000002,-2.5068700000000002,-33.175899999999999,-7.1795200000000001,-4.4890400000000001,-0.47775699999999999,9.3975100000000005
210636.0,45.626899999999999,-18.9315,-37.3765,-17.115400000000001,1.4451000000000001,9.8741699999999994,21.649000000000001
210637.0,56.674500000000002,27.137899999999998,13.947900000000001,25.9283,5.9911300000000001,11.3047,29.220099999999999
210638.0,48.779499999999999,-14.1256,-31.849900000000002,-16.502099999999999,2.4426399999999999,11.6478,23.642199999999999
210639.0,44.148099999999999,-12.858499999999999,-33.020699999999998,-9.1341999999999999,-1.0031000000000001,11.1165,18.972200000000001
210640.0,43.197299999999998,-5.7845800000000001,-26.916499999999999,-4.3754999999999997,-1.6977800000000001,11.4054,18.154800000000002
210641.0,40.741100000000003,-9.7973800000000004,-32.213500000000003,-8.4960599999999999,-3.3111999999999999,9.4702999999999999,16.578499999999998
210642.0,38.4923,-10.783899999999999,-35.097000000000001,-9.6308199999999999,-4.1455900000000003,6.4974600000000002,15.088200000000001
210643.0,36.078099999999999,-7.6851599999999998,-34.172800000000002,-7.8451700000000004,-4.2721099999999996,4.0106099999999998,12.9259
210644.0,34.2607,1.25187,-31.508299999999998,-5.8497599999999998,-4.7099900000000003,-2.7225100000000002,8.0415299999999998
210645.0,35.474299999999999,2.0271300000000001,-32.821100000000001,-7.5886699999999996,-4.9935799999999997,-4.8741199999999996,6.84544
210646.0,37.392600000000002,5.7529500000000002,-31.252800000000001,-6.4406400000000001,-5.33005,-6.8792299999999997,5.8915199999999999
210647.0,40.031700000000001,6.7534900000000002,-32.543399999999998,-8.1529299999999996,-5.7737400000000001,-8.9959299999999995,5.1343300000000003
210648.0,43.389400000000002,6.9665600000000003,-34.983199999999997,-10.872999999999999,-6.17685,-11.224299999999999,4.4931700000000001
210649.0,54.020800000000001,14.2582,-35.566299999999998,-12.8506,-7.26403,-16.988299999999999,3.02569
210650.0,57.786999999999999,15.427,-36.488,-15.160600000000001,-7.7140599999999999,-19.105799999999999,2.7633100000000002
210651.0,61.488,19.648399999999999,-34.756700000000002,-13.865500000000001,-8.2346500000000002,-20.767399999999999,2.8124400000000001
210652.0,65.1785,17.745200000000001,-38.838200000000001,-18.891500000000001,-8.9229299999999991,-22.460999999999999,2.8864999999999998
210653.0,68.708699999999993,15.980700000000001,-42.240400000000001,-23.954899999999999,-9.6197099999999995,-24.205100000000002,2.9530099999999999
210654.0,46.826599999999999,36.5961,12.139900000000001,27.314499999999999,2.8279700000000001,12.737,20.205500000000001
210655.0,37.519599999999997,-5.673,-35.756799999999998,-8.9572099999999999,-5.6444200000000002,2.7986300000000002,12.5382
210656.0,47.364800000000002,6.6059200000000002,-36.099800000000002,-10.287599999999999,-7.6600000000000001,-14.2173,4.9424700000000001
210657.0,51.005200000000002,5.0546800000000003,-39.620899999999999,-13.8908,-7.90083,-16.783999999999999,4.4985099999999996
210658.0,36.523800000000001,-1.8863700000000001,-33.616,-6.5587299999999997,-5.8911300000000004,-0.10878599999999999,10.7933
210659.0,42.142200000000003,14.400499999999999,-12.165100000000001,1.0095099999999999,0.96689499999999995,9.7920099999999994,17.853100000000001
210660.0,52.718200000000003,-26.6769,-40.164200000000001,-28.545100000000001,5.5375100000000002,11.9735,26.438099999999999
210661.0,54.259,15.6356,-9.1956399999999991,16.0139,2.3615200000000001,15.426,23.002099999999999
210662.0,37.201099999999997,0.016478699999999999,-23.674900000000001,-8.8888499999999997,-0.922539,6.4482100000000004,16.603400000000001
210663.0,36.656599999999997,-14.8062,-35.501399999999997,-16.378900000000002,-2.9951400000000001,5.4618399999999996,16.624099999999999
210664.0,38.327300000000001,-9.3513800000000007,-32.226399999999998,-9.9251199999999997,-4.1149899999999997,6.8020899999999997,16.009499999999999
210665.0,39.511200000000002,-4.56515,-31.007200000000001,-7.1600400000000004,-4.2695800000000004,7.3941499999999998,15.331099999999999
210666.0,38.5809,-4.6574900000000001,-32.921799999999998,-7.7796000000000003,-4.9540699999999998,5.58209,14.154
210667.0,36.349200000000003,-1.5507899999999999,-34.874099999999999,-8.2182999999999993,-6.12758,-2.8646199999999999,9.1521500000000007
210668.0,37.264899999999997,1.4315100000000001,-33.444000000000003,-7.4449800000000002,-6.4336799999999998,-5.5017899999999997,7.9197199999999999
210669.0,39.255899999999997,0.88909800000000005,-35.8536,-10.122,-6.7563199999999997,-8.0248200000000001,6.9330299999999996
210670.0,41.619599999999998,2.7823199999999999,-35.935299999999998,-10.3527,-6.9645900000000003,-10.2006,6.0962800000000001
210671.0,44.1539,6.2884000000000002,-34.370800000000003,-8.7895099999999999,-7.2441700000000004,-12.0585,5.4299499999999998
210672.0,54.683,6.2143699999999997,-40.830399999999997,-14.8453,-8.1043699999999994,-18.968800000000002,3.9905400000000002
210673.0,57.999299999999998,8.6847999999999992,-39.851700000000001,-15.2173,-8.15611,-21.284500000000001,3.5720299999999998
210674.0,61.815199999999997,8.5425400000000007,-42.281100000000002,-18.040099999999999,-8.3773400000000002,-23.339700000000001,3.5449899999999999
210675.0,65.346699999999998,11.4998,-41.177999999999997,-18.0059,-8.6161399999999997,-25.309000000000001,3.3952800000000001
210676.0,68.810400000000001,19.794,-34.135300000000001,-12.6997,-8.7738399999999999,-27.423500000000001,3.4606400000000002
210677.0,41.223700000000001,21.011800000000001,4.2470999999999997,20.283000000000001,-0.022903400000000001,9.7914200000000005,19.514199999999999
210678.0,39.359900000000003,-7.0236099999999997,-38.181800000000003,-11.4336,-6.6474000000000002,1.7281299999999999,13.5991
210679.0,45.884099999999997,-4.0005499999999996,-44.941899999999997,-14.7448,-7.2465299999999999,-13.087999999999999,5.2337300000000004
210680.0,47.283200000000001,2.4107400000000001,-39.774500000000003,-10.07,-7.3621699999999999,-14.2119,4.4082999999999997
210681.0,39.001300000000001,-8.2230799999999995,-40.909399999999998,-13.3886,-6.9523400000000004,-0.030758400000000002,12.2455
210682.0,41.1965,76.001900000000006,52.769199999999998,69.972399999999993,-1.53162,10.8162,17.3504
210683.0,52.339799999999997,-68.307599999999994,-82.760800000000003,-72.680700000000002,5.4849800000000002,12.7212,25.8127
210684.0,59.968400000000003,18.5275,-10.3606,22.002300000000002,1.74318,15.466900000000001,25.314299999999999
210685.0,36.014699999999998,46.320999999999998,22.581399999999999,28.3019,-1.37843,6.3563700000000001,15.3802
210686.0,35.2971,23.706099999999999,-5.7564799999999998,2.8866900000000002,-3.5684300000000002,3.2268400000000002,12.758599999999999
210687.0,35.558500000000002,0.53388899999999995,-28.139900000000001,-13.771699999999999,-3.91466,1.2357800000000001,14.1092
210688.0,36.090000000000003,-8.5988600000000002,-34.5381,-14.258699999999999,-5.2208300000000003,1.01634,14.827299999999999
210689.0,38.328299999999999,-12.210000000000001,-40.1723,-15.5403,-6.3521799999999997,1.93343,14.5709
210690.0,38.776200000000003,-3.8819599999999999,-37.780900000000003,-9.7376299999999993,-7.3261500000000002,-2.4653200000000002,10.6366
210691.0,39.001800000000003,-3.7582599999999999,-38.7393,-10.7935,-7.3299200000000004,-5.0359999999999996,9.2522500000000001
210692.0,39.9255,0.600387,-35.618899999999996,-7.6024900000000004,-7.3910799999999997,-7.2366200000000003,7.9798099999999996
210693.0,41.6785,-0.65433699999999995,-38.113599999999998,-9.7385999999999999,-7.42882,-9.4810300000000005,7.2211699999999999
210694.0,44.158999999999999,-2.5939899999999998,-41.9709,-12.157299999999999,-7.3939700000000004,-11.576499999999999,6.2857900000000004
210695.0,49.6068,-1.2147300000000001,-45.288499999999999,-14.7936,-7.5556599999999996,-15.4473,3.8860899999999998
210696.0,51.641599999999997,1.69191,-42.336100000000002,-13.5501,-7.9469599999999998,-17.755700000000001,3.2601900000000001
210697.0,55.006700000000002,1.30359,-45.043599999999998,-15.427300000000001,-8.2557700000000001,-19.471599999999999,3.2291500000000002
210698.0,58.303100000000001,1.40158,-46.043700000000001,-17.163499999999999,-8.2724600000000006,-22.023,2.83019
210699.0,62.063800000000001,-2.9750700000000001,-51.208399999999997,-23.690100000000001,-8.3584399999999999,-24.926600000000001,2.7013600000000002
210700.0,40.218800000000002,-10.9495,-27.175699999999999,-15.7012,-1.0066200000000001,6.8881399999999999,20.521599999999999
210701.0,37.931600000000003,-5.2837500000000004,-36.377400000000002,-13.4299,-6.14072,0.34429199999999999,13.4839
210702.0,42.681600000000003,-12.5252,-51.196100000000001,-16.903300000000002,-6.2619100000000003,-9.6908399999999997,5.0675999999999997
210703.0,44.127200000000002,-16.412099999999999,-53.835700000000003,-19.532399999999999,-6.2956799999999999,-12.5054,4.67835
210704.0,40.566200000000002,-6.7310800000000004,-39.4604,-11.7255,-7.3141299999999996,0.44581399999999999,13.5627
210705.0,41.259700000000002,23.220800000000001,2.2536499999999999,25.570699999999999,-5.8285999999999998,6.0506099999999998,18.2227
210706.0,54.711799999999997,-74.837999999999994,-90.204599999999999,-85.204800000000006,5.9885099999999998,15.577500000000001,25.648399999999999
210707.0,65.439800000000005,9.1093399999999995,-25.947199999999999,2.8647999999999998,3.1210399999999998,18.396599999999999,27.011099999999999
210708.0,34.626100000000001,53.637099999999997,37.350299999999997,52.209699999999998,-5.6586299999999996,4.2992600000000003,16.364599999999999
210709.0,33.037100000000002,79.722899999999996,57.781799999999997,70.4054,-5.0886899999999997,5.08108,13.814500000000001
210710.0,35.275300000000001,66.872600000000006,38.718600000000002,47.529699999999998,-3.3961299999999999,2.4950299999999999,13.770200000000001
210711.0,36.748199999999997,27.3477,-4.9960100000000001,5.4658600000000002,-3.60656,-0.30443700000000001,12.8314
210712.0,36.590000000000003,5.8908300000000002,-26.1572,-9.5507299999999997,-4.3906900000000002,-0.67565900000000001,13.0253
210713.0,41.183100000000003,-9.5167199999999994,-43.924999999999997,-13.542899999999999,-7.6299000000000001,-1.05023,12.3354
210714.0,41.069299999999998,-9.0490899999999996,-44.468499999999999,-12.4771,-7.38171,-3.1371500000000001,10.783099999999999
210715.0,41.067799999999998,-12.3431,-48.537399999999998,-15.2538,-6.8818000000000001,-5.2689399999999997,9.0931099999999994
210716.0,41.056899999999999,-12.582100000000001,-49.694299999999998,-15.9618,-6.3315700000000001,-6.7658199999999997,7.4109299999999996
210717.0,41.701700000000002,-8.2525999999999993,-46.808700000000002,-12.7486,-6.2538999999999998,-7.7385200000000003,6.0167299999999999
210718.0,46.878399999999999,-21.178999999999998,-59.470500000000001,-24.430700000000002,-7.11815,-14.805400000000001,3.4488099999999999
210719.0,49.0032,-15.4557,-54.541499999999999,-20.6493,-6.7256999999999998,-17.116700000000002,3.41492
210720.0,51.407699999999998,-21.3063,-61.969499999999996,-27.645399999999999,-6.7322800000000003,-18.673300000000001,2.8746800000000001
210721.0,53.745100000000001,-15.069699999999999,-57.726199999999999,-23.442499999999999,-7.4518399999999998,-19.822700000000001,1.8799399999999999
210722.0,55.888100000000001,-10.096500000000001,-53.970100000000002,-20.608499999999999,-6.6582299999999996,-21.638100000000001,1.9721299999999999
210723.0,46.331400000000002,-24.725200000000001,-42.228999999999999,-38.718600000000002,0.64191600000000004,10.3514,22.8521
210724.0,36.348999999999997,-1.2355400000000001,-29.2913,-7.7117699999999996,-5.2409400000000002,-0.60079300000000002,14.028499999999999
210725.0,41.327500000000001,-20.033100000000001,-57.026299999999999,-22.422899999999998,-6.8518400000000002,-8.9235100000000003,3.7607400000000002
210726.0,43.792299999999997,-9.3808799999999994,-49.191499999999998,-19.5794,-6.8668699999999996,-12.4618,3.02921
210727.0,40.4938,-13.275,-46.247500000000002,-17.727599999999999,-5.27745,0.0089427800000000009,14.094799999999999
210728.0,44.016500000000001,-2.2168399999999999,-29.0961,-12.2926,-3.48068,8.9626400000000004,19.2088
210729.0,54.025199999999998,-75.872299999999996,-89.243799999999993,-87.767799999999994,4.5352699999999997,15.798,25.4758
210730.0,70.034499999999994,15.2852,-20.3307,4.8829700000000003,3.3121299999999998,21.146799999999999,29.006599999999999
210731.0,37.813400000000001,-6.3422900000000002,-26.477,-8.6322299999999998,-5.3312200000000001,2.8896899999999999,17.841899999999999
210732.0,37.438499999999998,21.485299999999999,3.8041499999999999,27.152000000000001,-7.6681499999999998,1.2672399999999999,16.0779
210733.0,35.408099999999997,55.503900000000002,37.553199999999997,59.499499999999998,-6.7969299999999997,2.6409400000000001,15.103
210734.0,34.561,75.613699999999994,54.401000000000003,72.161100000000005,-3.8211499999999998,3.3809300000000002,15.5746
210735.0,33.508899999999997,33.9863,11.2179,26.162400000000002,-3.0712000000000002,0.689079,15.1839
210736.0,41.4681,-17.850899999999999,-52.893700000000003,-20.089300000000001,-5.3321300000000003,1.0593300000000001,12.6012
210737.0,42.691000000000003,-18.2346,-55.496000000000002,-19.073899999999998,-5.3976199999999999,1.73454,11.0792
210738.0,42.027200000000001,-16.5243,-54.851900000000001,-17.623899999999999,-5.3827699999999998,0.67369800000000002,9.1275499999999994
210739.0,41.5366,-17.796399999999998,-56.508800000000001,-18.1846,-5.0945499999999999,-1.54766,7.2218400000000003
210740.0,39.990299999999998,-25.252800000000001,-61.332900000000002,-24.566400000000002,-5.1042399999999999,-5.3070000000000004,6.0430299999999999
210741.0,46.589199999999998,3.4891100000000002,-37.128,-12.5326,-7.5312900000000003,-15.673299999999999,1.60717
210742.0,49.415300000000002,12.642200000000001,-30.257100000000001,-6.0840199999999998,-6.3318199999999996,-17.288900000000002,3.52102
210743.0,51.177399999999999,4.3665200000000004,-37.576700000000002,-14.869400000000001,-6.6770699999999996,-19.508700000000001,2.6564399999999999
210744.0,53.596200000000003,4.1485399999999997,-40.709400000000002,-12.8614,-7.0461799999999997,-19.698499999999999,2.6433900000000001
210745.0,55.0625,-10.4947,-54.917900000000003,-25.468499999999999,-5.5404099999999996,-21.4069,3.2950900000000001
210746.0,50.476999999999997,-16.984999999999999,-33.594799999999999,-32.634500000000003,1.5348900000000001,12.1355,24.753399999999999
210747.0,38.283499999999997,35.238100000000003,3.1661899999999998,26.530899999999999,-2.8239200000000002,3.5728300000000002,13.8833
210748.0,39.4527,9.9420300000000008,-27.678000000000001,-0.32416800000000001,-6.9783499999999998,-9.3156499999999998,2.2826599999999999
210749.0,40.478400000000001,41.968200000000003,5.3528599999999997,30.3626,-7.7975300000000001,-11.617900000000001,0.49748300000000001
210750.0,38.259799999999998,6.2979599999999998,-24.6328,-1.9003399999999999,0.84860599999999997,3.8434200000000001,14.685499999999999
210751.0,51.796900000000001,-8.1022499999999997,-34.250500000000002,-20.088000000000001,-0.90699200000000002,14.112299999999999,22.869199999999999
210752.0,49.192100000000003,-67.355199999999996,-84.641400000000004,-88.163600000000002,4.0331299999999999,11.9596,22.875499999999999
210753.0,66.677499999999995,14.153700000000001,-23.310300000000002,-3.3025799999999998,3.22777,19.197099999999999,27.414999999999999
210754.0,46.132899999999999,-15.1,-40.778799999999997,-27.5137,-0.33652500000000002,10.422599999999999,20.8749
210755.0,40.160400000000003,-17.209800000000001,-44.786499999999997,-25.763000000000002,-2.33691,7.1977200000000003,16.765899999999998
210756.0,36.731499999999997,-9.6959999999999997,-32.950099999999999,-8.4337400000000002,-4.4222200000000003,3.3890400000000001,15.103899999999999
210757.0,36.155700000000003,1.6107199999999999,-15.7919,8.8632899999999992,-5.7783499999999997,0.93419700000000006,15.521800000000001
210758.0,34.119399999999999,18.950099999999999,-2.0794700000000002,19.992100000000001,-7.1491600000000002,1.2842800000000001,13.423999999999999
210759.0,40.1036,-27.6904,-60.682499999999997,-29.022300000000001,-3.0807899999999999,5.5740699999999999,12.114800000000001
210760.0,46.781199999999998,-27.747900000000001,-67.019999999999996,-25.773900000000001,-4.0459100000000001,6.4131799999999997,11.434900000000001
210761.0,43.5807,-36.991199999999999,-74.169700000000006,-33.187100000000001,-3.8894199999999999,3.3974099999999998,9.6802100000000006
210762.0,42.213999999999999,-25.796199999999999,-64.2761,-24.217300000000002,-6.49993,-0.104229,6.0905399999999998
210763.0,39.9452,-15.129300000000001,-54.257300000000001,-21.467600000000001,-6.2871499999999996,-5.3080600000000002,4.80762
210764.0,40.576900000000002,80.773700000000005,47.363700000000001,67.702600000000004,-5.9031099999999999,-15.068300000000001,1.86303
210765.0,43.229700000000001,69.034899999999993,34.663800000000002,55.746699999999997,-4.6026300000000004,-17.0626,3.1961300000000001
210766.0,45.915500000000002,80.835099999999997,47.752699999999997,66.521299999999997,-5.1566900000000002,-19.901299999999999,2.1964100000000002
210767.0,50.342700000000001,57.028100000000002,18.636800000000001,42.041499999999999,-4.4106699999999996,-20.7455,4.5376500000000002
210768.0,54.659799999999997,45.993499999999997,5.5082500000000003,29.237500000000001,-5.2580799999999996,-23.166699999999999,4.2114000000000003
210769.0,47.819899999999997,-20.5779,-35.705100000000002,-39.682000000000002,4.5639399999999997,9.4572900000000004,23.460100000000001
210770.0,41.603499999999997,64.451499999999996,33.4724,60.6434,1.5842499999999999,6.7852499999999996,15.588100000000001
210771.0,33.880000000000003,67.25,36.686399999999999,61.936999999999998,-5.0103,-8.5732099999999996,4.1659600000000001
210772.0,37.588000000000001,59.0535,33.139000000000003,60.974800000000002,-6.47248,-13.551399999999999,1.9338500000000001
210773.0,36.410699999999999,-13.4125,-33.808100000000003,-12.362,2.7666900000000001,3.9253200000000001,16.513000000000002
210774.0,53.890700000000002,-12.0245,-40.563400000000001,-27.4358,1.2049300000000001,15.421799999999999,22.9071
210775.0,46.878599999999999,-32.031500000000001,-50.093299999999999,-58.798200000000001,4.2657400000000001,10.2616,20.5579
210776.0,64.405500000000004,46.663499999999999,6.7208199999999998,22.6084,5.3853999999999997,17.051200000000001,25.661899999999999
210777.0,54.808399999999999,-21.908300000000001,-48.933599999999998,-33.926499999999997,2.7890700000000002,15.5761,23.824100000000001
210778.0,51.617400000000004,-18.151700000000002,-47.920999999999999,-27.377400000000002,1.63523,15.260300000000001,20.502199999999998
210779.0,42.250500000000002,-25.379799999999999,-53.409300000000002,-35.834400000000002,0.49400899999999998,10.7166,16.712499999999999
210780.0,33.145800000000001,-20.046099999999999,-47.0548,-31.650500000000001,-4.0838900000000002,5.8795599999999997,11.4628
210781.0,36.413200000000003,28.800599999999999,-4.1636800000000003,19.5871,-6.6840099999999998,6.0190599999999996,8.4733800000000006
210782.0,38.8889,-44.725200000000001,-76.608800000000002,-44.293500000000002,-3.6961900000000001,5.5224500000000001,10.7913
210783.0,46.491599999999998,-24.2593,-67.667699999999996,-28.545200000000001,-3.76817,5.94611,9.9363100000000006
210784.0,41.677999999999997,-24.6983,-66.565200000000004,-33.114199999999997,-4.1705699999999997,1.8811100000000001,8.2249599999999994
210785.0,40.0169,2.0171899999999998,-38.825000000000003,-7.5046900000000001,-7.9906899999999998,-0.88959500000000002,3.53877
210786.0,36.450200000000002,46.213299999999997,9.5418199999999995,37.298900000000003,-7.1369899999999999,-3.87988,3.3311799999999998
210787.0,41.375900000000001,90.540400000000005,68.816400000000002,96.162300000000002,-3.9619,-18.232199999999999,3.7404000000000002
210788.0,45.107399999999998,61.244399999999999,38.420299999999997,67.505200000000002,-3.0744099999999999,-20.566299999999998,3.38443
210789.0,47.569600000000001,88.817599999999999,68.407600000000002,94.649100000000004,-2.8680599999999998,-23.459499999999998,2.41838
210790.0,48.715800000000002,62.610999999999997,38.173099999999998,65.004499999999993,-1.64849,-23.479299999999999,4.0750400000000004
210791.0,48.301099999999998,76.5244,48.832299999999996,74.826300000000003,-3.8155199999999998,-22.737300000000001,2.2844899999999999
210792.0,48.5824,-12.1335,-21.736999999999998,-33.2607,9.6025600000000004,8.4334699999999998,22.616900000000001
210793.0,36.2485,43.897799999999997,16.972799999999999,36.6569,3.12581,2.7660200000000001,15.0473
210794.0,33.164000000000001,70.803899999999999,46.331499999999998,76.003900000000002,-4.1784499999999998,-8.4083000000000006,5.2336499999999999
210795.0,35.115000000000002,52.903300000000002,28.695399999999999,57.679299999999998,-4.61599,-11.5943,3.7149899999999998
210796.0,31.710999999999999,-12.5078,-39.665100000000002,-23.5838,-0.40127600000000002,-0.160528,12.187799999999999
210797.0,52.444000000000003,-9.2039600000000004,-37.613,-26.575399999999998,4.4564700000000004,16.510300000000001,20.475100000000001
210798.0,39.229599999999998,-44.1648,-55.287999999999997,-59.515799999999999,1.4781599999999999,10.412000000000001,18.425999999999998
210799.0,67.818299999999994,101.506,58.129100000000001,77.005099999999999,7.55105,18.8581,25.444800000000001
210800.0,57.109099999999998,-26.364999999999998,-57.250799999999998,-43.8917,6.2245699999999999,16.958200000000001,22.823
210801.0,55.299900000000001,-25.581199999999999,-59.765900000000002,-41.315199999999997,3.2080799999999998,16.783799999999999,20.847300000000001
210802.0,45.406100000000002,-21.669699999999999,-50.874600000000001,-34.386099999999999,-0.717669,13.4117,17.1006
210803.0,37.524099999999997,19.321000000000002,-10.746499999999999,7.2301399999999996,-4.2870699999999999,10.6044,10.470000000000001
210804.0,36.487099999999998,72.038499999999999,39.6633,62.847000000000001,-1.6384099999999999,8.0554400000000008,9.8914299999999997
210805.0,38.593200000000003,0.63134400000000002,-39.486800000000002,-14.0839,-3.3721899999999998,3.05823,7.9917600000000002
210806.0,41.186100000000003,20.922999999999998,-21.901199999999999,7.1310200000000004,-3.0264700000000002,4.3357900000000003,7.7227300000000003
210807.0,37.073399999999999,38.761000000000003,0.25297799999999998,27.400099999999998,-4.6896699999999996,2.8971100000000001,6.0228099999999998
210808.0,34.314900000000002,65.288499999999999,30.777200000000001,59.326500000000003,-5.7082499999999996,0.18768499999999999,4.4284999999999997
210809.0,31.359300000000001,64.103300000000004,37.305199999999999,66.179900000000004,-4.8410000000000002,-4.7191599999999996,4.7675799999999997
210810.0,36.954900000000002,68.275599999999997,45.502000000000002,72.942099999999996,-3.5651000000000002,-14.779299999999999,2.9190900000000002
210811.0,39.839599999999997,48.8506,24.014600000000002,53.430399999999999,-3.29392,-16.2197,2.1501600000000001
210812.0,41.1873,67.364000000000004,47.216700000000003,72.857900000000001,-2.7410299999999999,-19.333200000000001,1.3849100000000001
210813.0,42.738700000000001,50.454700000000003,29.560500000000001,57.367899999999999,-1.20841,-19.9039,1.2796099999999999
210814.0,43.752899999999997,68.314599999999999,47.8217,80.158199999999994,-0.69791700000000001,-19.233899999999998,-0.167319
210815.0,50.648299999999999,-0.45185799999999998,-3.8989199999999999,-16.203499999999998,12.546900000000001,9.3969400000000007,23.254899999999999
210816.0,30.327400000000001,58.598399999999998,33.685200000000002,46.4831,-0.0378135,2.89046,11.959099999999999
210817.0,30.8658,56.4557,30.328099999999999,60.368400000000001,-3.4672299999999998,-4.95648,3.7744800000000001
210818.0,31.5853,52.133000000000003,25.9359,57.367199999999997,-3.4439199999999999,-5.44747,2.7218800000000001
210819.0,31.371400000000001,61.386499999999998,30.860499999999998,47.137599999999999,-0.91171100000000005,3.7067700000000001,8.9544300000000003
210820.0,49.0137,-20.1175,-46.198399999999999,-38.0685,5.1003100000000003,15.885400000000001,18.5562
210821.0,33.677300000000002,-73.9251,-84.990300000000005,-88.265199999999993,0.61773900000000004,10.552099999999999,14.486499999999999
210822.0,69.310699999999997,106.423,61.188899999999997,86.283100000000005,8.7587899999999994,21.239100000000001,23.6631
210823.0,54.458399999999997,-29.0932,-58.445799999999998,-46.335500000000003,7.1899499999999996,15.983499999999999,21.5364
210824.0,49.7346,-23.322500000000002,-55.885899999999999,-40.954099999999997,2.1097100000000002,14.8733,18.252199999999998
210825.0,44.900799999999997,13.0602,-24.0381,-7.3611800000000001,-1.6524300000000001,12.068899999999999,13.3566
210826.0,38.813299999999998,66.248599999999996,31.652200000000001,50.075899999999997,-1.3579000000000001,8.8995599999999992,11.021000000000001
210827.0,33.425400000000003,73.6357,46.7498,63.5458,0.118718,5.3580399999999999,12.6188
210828.0,34.404600000000002,65.052800000000005,30.6677,54.110300000000002,-0.790466,4.6475900000000001,7.9831300000000001
210829.0,33.7575,61.2789,28.4194,55.981200000000001,-1.39832,3.3923000000000001,7.4261499999999998
210830.0,31.9815,59.5503,30.545200000000001,60.895699999999998,-2.8896500000000001,1.09399,6.1113400000000002
210831.0,32.206099999999999,61.950899999999997,34.557400000000001,66.552999999999997,-3.6379700000000001,-1.07745,5.6684200000000002
210832.0,30.084700000000002,56.785200000000003,31.511900000000001,60.590600000000002,-2.9977299999999998,-3.9196499999999999,5.2486699999999997
210833.0,31.1843,57.631799999999998,33.136899999999997,63.907299999999999,-3.0813899999999999,-6.9778799999999999,1.26525
210834.0,32.960299999999997,46.416400000000003,21.233799999999999,53.162500000000001,-2.9388299999999998,-8.3847500000000004,0.0210907
210835.0,32.849400000000003,59.246600000000001,38.125900000000001,66.883099999999999,-2.3816099999999998,-11.456899999999999,-0.93024700000000005
210836.0,36.040199999999999,45.271299999999997,22.183,52.372399999999999,-1.32958,-13.4148,-1.4457500000000001
210837.0,40.308599999999998,40.387700000000002,14.4414,46.382800000000003,-0.152506,-15.9017,-0.68742599999999998
210838.0,44.7378,-7.1005200000000004,-13.776899999999999,-24.286899999999999,12.347099999999999,6.8551599999999997,19.815300000000001
210839.0,29.3062,67.944100000000006,44.918399999999998,64.246200000000002,-0.65105999999999997,4.9823500000000003,10.3988
210840.0,30.563800000000001,52.085999999999999,23.117999999999999,54.2851,-2.0640299999999998,-0.49662299999999998,2.0772400000000002
210841.0,31.439599999999999,44.628300000000003,15.057700000000001,47.152099999999997,-2.5213800000000002,-2.0022799999999998,0.80177399999999999
210842.0,31.191600000000001,69.019400000000005,44.1464,69.273799999999994,0.35447699999999999,5.21793,9.4128000000000007
210843.0,41.404800000000002,-6.8089700000000004,-32.992199999999997,-28.507100000000001,4.3884600000000002,11.742900000000001,14.7722
210844.0,36.082799999999999,-82.846500000000006,-94.656199999999998,-102.762,3.9214600000000002,12.1859,13.031499999999999
210845.0,67.568200000000004,90.421199999999999,41.070500000000003,65.162400000000005,9.8077699999999997,20.587700000000002,19.818999999999999
210846.0,45.4739,-8.1974400000000003,-38.412100000000002,-33.335099999999997,6.2198599999999997,10.4411,16.727799999999998
210847.0,42.692,5.4664799999999998,-29.209299999999999,-20.1525,0.81071400000000005,10.272399999999999,13.3377
210848.0,43.536000000000001,70.361099999999993,33.708100000000002,49.887300000000003,-0.096759200000000004,11.3245,12.889699999999999
210849.0,37.665799999999997,79.5411,51.744900000000001,67.238699999999994,1.20669,8.3099399999999992,14.435600000000001
210850.0,30.7012,65.125699999999995,43.128700000000002,57.512,-0.244334,5.0970399999999998,12.7813
210851.0,31.857600000000001,63.663899999999998,36.830199999999998,64.884100000000004,0.28304400000000002,4.3678600000000003,8.22898
210852.0,31.817299999999999,60.880499999999998,31.9404,61.081400000000002,-0.37286000000000002,2.9745499999999998,6.87967
210853.0,30.877300000000002,53.421300000000002,23.827500000000001,52.418599999999998,-0.994282,1.2752399999999999,5.7281599999999999
210854.0,30.650600000000001,52.591099999999997,22.8157,52.049100000000003,-1.9727600000000001,0.57846900000000001,4.3224799999999997
210855.0,30.105799999999999,52.866,24.256799999999998,54.285499999999999,-1.9199299999999999,0.22975899999999999,3.36775
210856.0,31.7133,48.363100000000003,19.668500000000002,51.773600000000002,-2.90889,-3.97804,-0.015055499999999999
210857.0,32.5642,42.319499999999998,14.4993,46.727699999999999,-3.21306,-6.0898199999999996,-0.85020600000000002
210858.0,32.827100000000002,47.290500000000002,22.3645,53.189,-2.9977499999999999,-8.9756499999999999,-1.39595
210859.0,34.963999999999999,42.837499999999999,17.8461,49.338900000000002,-2.6971099999999999,-11.0136,-1.57501
210860.0,36.3399,52.329900000000002,26.7577,56.350200000000001,-2.6759400000000002,-13.2043,-1.0235099999999999
210861.0,40.836300000000001,37.411200000000001,23.610900000000001,12.6296,12.369300000000001,5.4070099999999996,14.813499999999999
210862.0,33.119300000000003,62.255499999999998,33.224200000000003,53.387500000000003,1.9666300000000001,6.5407799999999998,9.8814600000000006
210863.0,32.114899999999999,47.624400000000001,15.58,47.2819,-1.81209,0.87563100000000005,1.0379499999999999
210864.0,32.0364,46.750500000000002,15.6785,47.998699999999999,-2.48658,-0.72436800000000001,0.36305999999999999
210865.0,33.511499999999998,55.552599999999998,24.217099999999999,47.624200000000002,1.9232400000000001,5.7867600000000001,8.4682600000000008
210866.0,34.249400000000001,40.117699999999999,15.454700000000001,13.1713,4.2137500000000001,7.0951700000000004,9.9822600000000001
210867.0,36.950400000000002,-105.495,-116.143,-125.146,6.3208399999999996,11.918699999999999,13.279
210868.0,66.484700000000004,90.3215,35.6798,58.882100000000001,8.3680400000000006,20.102499999999999,15.722200000000001
210869.0,36.312100000000001,46.600999999999999,20.8307,20.0854,4.2385400000000004,7.6132499999999999,11.6465
210870.0,37.8962,76.863900000000001,47.482500000000002,53.6661,2.7819699999999998,9.15733,12.131399999999999
210871.0,37.645400000000002,71.504900000000006,43.358800000000002,55.249499999999998,2.72404,8.5273400000000006,13.8787
210872.0,35.248800000000003,68.6417,42.891199999999998,56.319299999999998,1.7595700000000001,7.2042799999999998,13.902799999999999
210873.0,33.060099999999998,65.165599999999998,38.924799999999998,54.650799999999997,1.59517,6.8495100000000004,11.8513
210874.0,33.6843,54.827800000000003,22.186800000000002,48.142699999999998,1.24691,5.4626799999999998,7.0362799999999996
210875.0,33.484999999999999,53.3414,20.6751,48.397100000000002,0.62091200000000002,5.43302,5.8169300000000002
210876.0,32.825400000000002,55.353900000000003,23.303999999999998,52.180500000000002,0.079330899999999996,5.2207299999999996,4.4779400000000003
210877.0,32.287500000000001,52.807000000000002,20.818899999999999,50.7121,-0.38794200000000001,4.1980300000000002,3.08466
210878.0,31.756599999999999,47.494799999999998,15.5509,46.115099999999998,-0.98050800000000005,2.3784999999999998,1.86063
210879.0,32.373100000000001,47.1248,17.204599999999999,50.225900000000003,-3.07823,-2.6902599999999999,-0.29548600000000003
210880.0,32.805799999999998,42.667400000000001,14.6775,47.940899999999999,-3.5260600000000002,-5.10853,-0.77051099999999995
210881.0,33.4465,46.906599999999997,21.590599999999998,54.5351,-3.5297800000000001,-7.8706399999999999,-1.03878
210882.0,35.124899999999997,39.765599999999999,16.5688,49.825899999999997,-3.1051299999999999,-10.4612,-1.13331
210883.0,37.402000000000001,42.088799999999999,21.968499999999999,55.390099999999997,-3.0063399999999998,-13.066000000000001,-1.84887
210884.0,34.096899999999998,73.595699999999994,60.963500000000003,55.397100000000002,10.2636,5.8368900000000004,12.695
210885.0,37.956800000000001,58.313400000000001,24.567399999999999,45.653799999999997,3.8867600000000002,9.2001799999999996,9.4801099999999998
210886.0,32.590499999999999,47.008499999999998,14.3239,46.359900000000003,-1.8572,0.74357099999999998,0.93645199999999995
210887.0,32.5,42.799399999999999,11.6432,44.616300000000003,-2.5417299999999998,-1.3894299999999999,0.39277299999999998
210888.0,38.567700000000002,59.540500000000002,23.7957,47.690300000000001,3.5120200000000001,9.5009899999999998,7.8553899999999999
210889.0,25.212,87.921000000000006,71.232299999999995,70.184200000000004,2.87216,5.9980399999999996,8.2838200000000004
210890.0,35.520400000000002,-119.19199999999999,-131.42699999999999,-142.20099999999999,7.9161900000000003,9.5861000000000001,11.552899999999999
210891.0,65.256299999999996,96.606200000000001,37.613399999999999,63.0364,6.6379099999999998,18.672499999999999,12.295199999999999
210892.0,23.601700000000001,78.119699999999995,63.8065,64.662999999999997,3.5138600000000002,4.7195099999999996,9.3065700000000007
210893.0,28.3461,77.037800000000004,57.382899999999999,64.697900000000004,3.00041,5.5640099999999997,11.366199999999999
210894.0,32.235599999999998,70.395300000000006,47.453099999999999,56.831600000000002,4.0042600000000004,5.9191700000000003,12.738200000000001
210895.0,34.380299999999998,66.040099999999995,38.433599999999998,52.093699999999998,3.6534599999999999,7.27773,11.7112
210896.0,37.005299999999998,61.258899999999997,30.023,48.0152,4.2388700000000004,8.4469799999999999,11.015700000000001
210897.0,37.772500000000001,56.688000000000002,20.2347,46.129100000000001,2.68988,8.7997099999999993,6.2536800000000001
210898.0,36.578600000000002,54.113100000000003,17.4681,45.158999999999999,1.7606299999999999,7.3715400000000004,4.8567799999999997
210899.0,35.095799999999997,48.415300000000002,12.286099999999999,41.293599999999998,0.73785100000000003,5.5450100000000004,3.61029
210900.0,33.978000000000002,48.085099999999997,12.849,42.883600000000001,-0.282829,3.9971700000000001,2.6439900000000001
210901.0,32.9176,48.760300000000001,14.962300000000001,45.808,-1.0930899999999999,2.5363600000000002,1.77434
210902.0,33.005899999999997,43.224299999999999,13.606400000000001,47.525399999999998,-3.2198699999999998,-3.4244400000000002,0.017522300000000001
210903.0,33.4467,40.383000000000003,13.254200000000001,47.535400000000003,-3.65036,-5.6942000000000004,-0.29719800000000002
210904.0,34.4955,40.668799999999997,16.178999999999998,50.831899999999997,-3.7183199999999998,-8.0771700000000006,-0.51991799999999999
210905.0,36.388199999999998,38.501300000000001,16.446200000000001,51.669899999999998,-3.3322099999999999,-10.6304,-0.706484
210906.0,39.454700000000003,43.976900000000001,24.321300000000001,60.2014,-3.1921499999999998,-13.5999,-0.95791199999999999
210907.0,27.984300000000001,64.805499999999995,53.683700000000002,51.617199999999997,8.61463,5.3858699999999997,10.368499999999999
210908.0,38.646000000000001,61.108600000000003,23.558900000000001,45.186500000000002,5.2799100000000001,7.3936900000000003,7.7514200000000004
210909.0,33.185699999999997,45.535800000000002,12.9069,46.132800000000003,-1.9825900000000001,-0.40898400000000001,1.22688
210910.0,32.987299999999998,45.081200000000003,14.523999999999999,48.5672,-2.6150699999999998,-2.1430899999999999,0.69674999999999998
210911.0,39.300699999999999,54.139000000000003,14.8306,39.567100000000003,4.3427800000000003,7.2816999999999998,6.93309
210912.0,20.421700000000001,98.161900000000003,82.311099999999996,87.283600000000007,1.55077,4.0834400000000004,7.3632600000000004
210913.0,35.668799999999997,-124.381,-136.429,-146.42500000000001,9.9023199999999996,9.5873500000000007,10.596299999999999
210914.0,64.131399999999999,97.855800000000002,39.311599999999999,64.578199999999995,8.1099399999999999,18.191299999999998,10.5852
210915.0,17.472799999999999,72.511600000000001,63.511099999999999,66.054299999999998,3.76633,0.83505300000000005,8.0842299999999998
210916.0,20.074400000000001,76.412099999999995,60.739400000000003,68.193200000000004,3.1213099999999998,1.75065,7.7499900000000004
210917.0,27.079799999999999,67.421999999999997,45.1539,56.546300000000002,5.4365399999999999,3.5015499999999999,8.8674599999999995
210918.0,32.188400000000001,67.193399999999997,38.488399999999999,53.351799999999997,5.7895700000000003,5.37134,8.7699200000000008
210919.0,36.796900000000001,63.043799999999997,28.750299999999999,47.123199999999997,6.1258600000000003,6.8200399999999997,8.5313999999999997
210920.0,38.5032,52.493499999999997,13.087300000000001,40.056199999999997,3.0535399999999999,6.7324299999999999,5.8056799999999997
210921.0,37.481200000000001,51.236800000000002,12.2723,40.792200000000001,1.90785,5.9600499999999998,4.7259000000000002
210922.0,35.986899999999999,53.485799999999998,15.8002,45.425899999999999,0.75433499999999998,4.8576699999999997,3.7028599999999998
210923.0,34.701799999999999,50.281599999999997,14.0868,45.104900000000001,-0.24629200000000001,3.2828499999999998,2.7210100000000002
210924.0,33.648800000000001,46.3752,11.9838,44.190300000000001,-1.15604,1.3430899999999999,1.8637600000000001
210925.0,33.543500000000002,43.118099999999998,14.4048,49.491999999999997,-3.1899600000000001,-3.9317700000000002,0.23633999999999999
210926.0,34.124400000000001,39.9863,13.901899999999999,49.539499999999997,-3.5628199999999999,-5.9307499999999997,-0.080717499999999998
210927.0,35.413600000000002,40.653300000000002,16.9237,53.3367,-3.6849400000000001,-7.9193899999999999,-0.31470399999999998
210928.0,37.2089,35.369700000000002,14.0238,51.2684,-3.5334300000000001,-9.9794199999999993,-0.40699200000000002
210929.0,39.290700000000001,33.867699999999999,15.267300000000001,53.162500000000001,-3.5435699999999999,-11.941000000000001,-0.62515799999999999
210930.0,27.165500000000002,30.043199999999999,19.874300000000002,20.533100000000001,7.8529299999999997,7.5612899999999996,9.7347999999999999
210931.0,35.9114,57.823399999999999,21.9283,48.081600000000002,5.8326000000000002,4.3698600000000001,5.6746100000000004
210932.0,34.028199999999998,44.823999999999998,12.5311,47.504100000000001,-1.90581,-1.3413299999999999,1.2991299999999999
210933.0,34.041499999999999,40.763800000000003,10.7842,46.702800000000003,-2.48855,-2.9821599999999999,0.69915099999999997
210934.0,37.118400000000001,59.755499999999998,21.517299999999999,48.810099999999998,4.8717499999999996,4.5827099999999996,5.1684999999999999
210935.0,24.6264,84.050700000000006,63.050699999999999,71.970100000000002,1.4764900000000001,6.1352700000000002,7.15883
210936.0,37.137599999999999,-114.575,-127.684,-136.22499999999999,12.6724,8.8014100000000006,10.1371
210937.0,61.493499999999997,55.822400000000002,1.78423,25.151499999999999,11.4512,16.831099999999999,10.563700000000001
210938.0,18.841999999999999,81.689400000000006,68.662199999999999,73.960700000000003,5.1154200000000003,1.2466999999999999,6.9064899999999998
210939.0,18.638500000000001,77.067400000000006,60.999499999999998,70.223500000000001,4.6713300000000002,0.54517099999999996,5.3537999999999997
210940.0,24.194199999999999,71.483800000000002,50.292999999999999,64.448499999999996,6.4523700000000002,1.3429500000000001,5.9325900000000003
210941.0,29.096499999999999,64.650499999999994,37.670499999999997,57.0732,6.4402299999999997,2.7324600000000001,6.2948500000000003
210942.0,33.668999999999997,60.379899999999999,28.0153,51.857599999999998,6.5112100000000002,3.7916300000000001,6.29826
210943.0,37.290700000000001,58.402299999999997,19.1144,47.4803,3.51186,4.2073499999999999,4.7175799999999999
210944.0,36.790500000000002,54.840600000000002,15.945,45.987699999999997,2.2614100000000001,3.5066799999999998,4.2586700000000004
210945.0,35.940600000000003,48.509700000000002,10.7761,42.523699999999998,0.88254699999999997,2.4552100000000001,3.5368300000000001
210946.0,35.165999999999997,48.059800000000003,11.717499999999999,44.652799999999999,-0.17713499999999999,1.2859,2.7713399999999999
210947.0,34.295200000000001,47.515999999999998,13.204800000000001,47.010899999999999,-1.08958,0.089895199999999995,2.0322900000000002
210948.0,34.614400000000003,40.432099999999998,12.571099999999999,49.447800000000001,-3.0217299999999998,-4.5439499999999997,0.19819800000000001
210949.0,35.256399999999999,37.747799999999998,12.6061,50.050400000000003,-3.3316499999999998,-6.2410699999999997,-0.17404700000000001
210950.0,36.580800000000004,36.9071,14.0448,52.366599999999998,-3.48881,-7.8731299999999997,-0.43145600000000001
210951.0,38.210099999999997,34.452100000000002,13.993,53.134500000000003,-3.3626,-9.5771800000000002,-0.60375500000000004
210952.0,40.439900000000002,38.4925,20.445,60.509599999999999,-3.3537699999999999,-11.4217,-0.90583199999999997
210953.0,27.656199999999998,-23.619199999999999,-36.4529,-36.394199999999998,9.4801400000000005,6.39872,8.3358799999999995
210954.0,35.247100000000003,67.315200000000004,30.587499999999999,57.107900000000001,6.3258299999999998,1.35747,3.58487
210955.0,35.201799999999999,44.104500000000002,12.032500000000001,49.1389,-1.60873,-2.0890399999999998,0.98043199999999997
210956.0,35.173400000000001,43.029600000000002,13.3117,51.110900000000001,-2.2688100000000002,-3.2991600000000001,0.38774799999999998
210957.0,36.219099999999997,57.952300000000001,20.5367,50.406700000000001,5.4327300000000003,1.6531199999999999,3.6763300000000001
210958.0,30.989999999999998,47.208399999999997,19.925999999999998,32.696100000000001,3.3656100000000002,8.8612400000000004,6.6289699999999998
210959.0,39.092500000000001,-101.276,-116.33499999999999,-125.092,14.955500000000001,7.7492700000000001,8.9770299999999992
210960.0,60.158999999999999,29.609100000000002,-22.074400000000001,-5.0126600000000003,15.8918,12.8988,9.6926600000000001
210961.0,27.610399999999998,68.716800000000006,48.561199999999999,58.369700000000002,7.5781599999999996,6.7613200000000004,7.0271499999999998
210962.0,25.856000000000002,78.492099999999994,58.087200000000003,69.302800000000005,7.5407299999999999,5.2471100000000002,5.8323799999999997
210963.0,27.247900000000001,68.928799999999995,44.330399999999997,59.799999999999997,7.43363,3.64052,4.9344999999999999
210964.0,31.9299,74.349199999999996,42.475900000000003,63.167400000000001,7.5513000000000003,2.17123,4.0731999999999999
210965.0,34.4925,70.182599999999994,35.232100000000003,58.653799999999997,7.9801299999999999,1.34023,3.7317999999999998
210966.0,35.599699999999999,52.799500000000002,16.414999999999999,48.152700000000003,3.93729,1.8323799999999999,3.3864399999999999
210967.0,35.949300000000001,51.528700000000001,14.508800000000001,47.642200000000003,2.3957999999999999,1.4895700000000001,2.9874100000000001
210968.0,35.692700000000002,53.606000000000002,17.009799999999998,50.776600000000002,1.5410699999999999,0.83378799999999997,2.6471100000000001
210969.0,35.261800000000001,48.9696,13.7166,48.564399999999999,0.26508500000000002,0.15865199999999999,2.19509
210970.0,35.285699999999999,45.133600000000001,11.2339,47.437199999999997,-0.87370899999999996,-0.91351400000000005,1.6020700000000001
210971.0,35.744599999999998,40.336399999999998,12.888500000000001,51.609999999999999,-2.8250099999999998,-4.6099600000000001,-0.14054900000000001
210972.0,36.421500000000002,37.001300000000001,12.467700000000001,51.825899999999997,-3.1141399999999999,-6.08894,-0.52852600000000005
210973.0,37.799700000000001,36.706699999999998,14.5642,54.906599999999997,-3.2739699999999998,-7.5268199999999998,-0.85338899999999995
210974.0,39.487499999999997,31.731000000000002,12.077500000000001,53.3947,-3.1537099999999998,-9.0347100000000005,-1.0338799999999999
210975.0,41.596400000000003,29.360199999999999,12.170500000000001,54.523099999999999,-3.25814,-10.527900000000001,-1.2520800000000001
210976.0,331.04700000000003,19554.5,19822.5,19621.700000000001,-119.059,-51.423000000000002,16.493600000000001
210977.0,321.03800000000001,-19307.099999999999,-19039.200000000001,-19231.099999999999,-116.17,-40.662700000000001,12.244899999999999
210978.0,303.17000000000002,19375.200000000001,19639.900000000001,19460.0,-108.262,-23.918399999999998,8.1943699999999993
210979.0,301.30000000000001,-18964.200000000001,-18700.400000000001,-18878.5,-108.07599999999999,-20.686699999999998,6.5187099999999996
210980.0,307.863,19364.5,19627.900000000001,19448.200000000001,-112.748,-26.895700000000001,6.4161400000000004
210981.0,292.37799999999999,-19302.700000000001,-19049.0,-19223.200000000001,-106.744,-16.210699999999999,2.9163299999999999
210982.0,298.70499999999998,19144.200000000001,19399.5,19223.400000000001,-112.52500000000001,-2.11382,-0.65195400000000003
210983.0,294.55000000000001,-19194.0,-18942.400000000001,-19115.099999999999,-110.854,-8.4473199999999995,0.412192
210984.0,296.392,18800.0,19048.700000000001,18873.599999999999,-113.80800000000001,0.25586300000000001,-1.3596699999999999
210985.0,291.93000000000001,-19208.0,-18966.5,-19144.200000000001,-112.405,10.2219,-3.5873300000000001
210986.0,294.80599999999998,19044.5,19292.599999999999,19122.0,-113.36499999999999,-1.8575299999999999,0.0560359
210987.0,280.346,-19311.900000000001,-19067.200000000001,-19224.799999999999,-103.10299999999999,-13.431900000000001,-1.1108
210988.0,269.92099999999999,18689.900000000001,18926.400000000001,18769.5,-98.196799999999996,-11.742900000000001,-4.3924700000000003
210989.0,267.649,-19246.5,-19012.5,-19170.099999999999,-97.380099999999999,-10.882300000000001,-5.5045099999999998
210990.0,269.09100000000001,18642.900000000001,18882.799999999999,18732.900000000001,-95.663300000000007,-16.2486,-5.3527100000000001
210991.0,271.74000000000001,-19206.799999999999,-18958.700000000001,-19096.900000000001,-92.739400000000003,-22.7591,-6.2108400000000001
210992.0,278.59300000000002,18322.700000000001,18571.5,18428.599999999999,-99.031000000000006,-21.593699999999998,-4.1188799999999999
210993.0,280.42599999999999,-19233.5,-18989.799999999999,-19140.700000000001,-103.31999999999999,-19.661000000000001,-3.4186200000000002
210994.0,289.26100000000002,18351.599999999999,18604.200000000001,18458.400000000001,-106.741,-20.6326,-0.57874400000000004
210995.0,301.81200000000001,-19085.400000000001,-18823.900000000001,-18965.200000000001,-113.024,-20.787400000000002,4.6479799999999996
210996.0,309.09100000000001,17910.5,18191.200000000001,18075.5,-107.2,-21.4193,-0.88961299999999999
210997.0,320.99400000000003,-19159.599999999999,-18861.099999999999,-18956.0,-103.158,-19.847799999999999,-6.8650099999999998
210998.0,339.67099999999999,17808.099999999999,18121.700000000001,18035.200000000001,-109.30500000000001,-16.853200000000001,-1.9213
210999.0,358.25999999999999,-19411.599999999999,-19078.799999999999,-19149.799999999999,-109.119,-10.7714,-5.4792199999999998
211000.0,377.82900000000001,17562.400000000001,17907.299999999999,17835.700000000001,-119.764,-7.0822500000000002,7.2564200000000003
211001.0,393.47800000000001,-18594.5,-18246.299999999999,-18327.099999999999,-132.828,-8.3816799999999994,26.178599999999999
211002.0,409.86200000000002,17971.0,18318.5,18228.400000000001,-145.21600000000001,-12.490399999999999,47.320399999999999
211003.0,431.33300000000003,-18781.799999999999,-18436.400000000001,-18532.099999999999,-157.16200000000001,-17.206,72.212800000000001
211004.0,134.12700000000001,-2580.23,-2457.6199999999999,-2559.9099999999999,31.046299999999999,9.8683700000000005,24.839200000000002
211005.0,106.14400000000001,-886.779,-797.60799999999995,-886.35400000000004,13.0816,-1.2002900000000001,30.741199999999999
211006.0,212.72499999999999,2782.9200000000001,2805.9400000000001,2855.3600000000001,-14.246499999999999,11.7828,115.637
211007.0,83.235500000000002,5685.1800000000003,5718.8199999999997,5715.5699999999997,0.0544457,2.5450400000000002,44.257800000000003
211008.0,82.837900000000005,3643.3000000000002,3695.7600000000002,3655.6199999999999,7.1988200000000004,7.6368499999999999,37.743499999999997
211009.0,82.634,1906.72,1964.3499999999999,1904.24,10.318199999999999,5.2430000000000003,31.3917
211010.0,69.558300000000003,4705.2399999999998,4728.3500000000004,4737.9099999999999,-4.8642599999999998,-0.81881199999999998,36.144100000000002
211011.0,180.58199999999999,5911.0299999999997,5936.0,5983.9099999999999,-12.422599999999999,5.3122600000000002,96.518600000000006
211012.0,112.621,1427.29,1511.0999999999999,1445.6199999999999,5.5523899999999999,8.14696,46.793599999999998
211013.0,110.875,1179.5799999999999,1265.0599999999999,1190.5699999999999,7.7870600000000003,6.2866799999999996,42.835299999999997
211014.0,98.029499999999999,-447.90699999999998,-378.13200000000001,-423.77999999999997,7.3571600000000004,9.5952099999999998,42.442100000000003
211015.0,99.155699999999996,2654.5,2709.98,2687.8600000000001,7.3207700000000004,8.6940600000000003,48.663699999999999
211016.0,131.494,1524.8199999999999,1564.72,1573.1199999999999,1.3894500000000001,10.5151,70.605400000000003
211017.0,184.71199999999999,3041.77,3069.4000000000001,3105.1399999999999,-7.9911099999999999,12.6327,100.69799999999999
211018.0,200.607,-2702.1999999999998,-2665.3899999999999,-2637.8499999999999,-8.4758099999999992,13.7905,110.045
211019.0,201.08600000000001,4308.3999999999996,4331.4899999999998,4382.3400000000001,-14.1548,8.5592299999999994,108.50700000000001
211020.0,164.42500000000001,5460.3900000000003,5484.8199999999997,5530.29,-9.7445000000000004,4.1172399999999998,87.416399999999996
211021.0,150.52099999999999,5898.9200000000001,5921.6300000000001,5963.0,-7.8272700000000004,2.6966600000000001,80.175899999999999
211022.0,135.84100000000001,6103.7299999999996,6126.29,6159.9899999999998,-6.3196399999999997,1.77298,72.843800000000002
211023.0,113.04600000000001,5961.04,5988.4799999999996,6006.1499999999996,-3.7182400000000002,1.81823,61.040199999999999
211024.0,88.311999999999998,-5817.6400000000003,-5792.8800000000001,-5775.3000000000002,-2.67909,0.18283199999999999,46.259500000000003
211025.0,64.884,5217.7399999999998,5249.4499999999998,5241.3100000000004,0.49277199999999999,1.4165000000000001,33.612099999999998
211026.0,92.109899999999996,4390.79,4403.7799999999997,4439.96,-11.8727,-2.8517399999999999,45.051400000000001
211027.0,109.61199999999999,4360.8400000000001,4370.9300000000003,4422.0699999999997,-14.7813,-3.56942,51.921799999999998
211028.0,106.44,4353.1599999999999,4372.96,4411.0900000000001,-10.3764,-0.239812,52.9313
211029.0,85.953699999999998,4149.8800000000001,4185.9300000000003,4186.1599999999999,-0.87947900000000001,3.5374500000000002,44.872100000000003
211030.0,67.118700000000004,-4011.7199999999998,-3976.4499999999998,-3984.6999999999998,3.1879900000000001,-0.0022795799999999998,33.926299999999998
211031.0,89.205100000000002,2827.0,2890.0300000000002,2822.0900000000001,12.7805,9.3609799999999996,31.0807
211032.0,90.579499999999996,1250.71,1305.96,1257.4400000000001,2.9791599999999998,5.3674400000000002,42.290199999999999
211033.0,96.617800000000003,710.55899999999997,769.94000000000005,716.56899999999996,1.2443200000000001,9.0658200000000004,44.265799999999999
211034.0,91.661699999999996,111.539,173.03,109.18600000000001,4.3507600000000002,10.5246,36.884300000000003
211035.0,53.537799999999997,65.964200000000005,33.653599999999997,66.528099999999995,-23.5273,-0.290794,-6.9023599999999998
211036.0,110.515,-226.46199999999999,-132.529,-220.61199999999999,11.045199999999999,7.9128499999999997,33.424199999999999
211037.0,112.863,-2147.9299999999998,-2057.79,-2133.75,7.0593899999999996,7.25021,42.3598
211038.0,98.896199999999993,-299.38499999999999,-221.143,-279.48700000000002,5.00746,5.6910499999999997,39.3581
211039.0,95.500799999999998,-1196.05,-1127.5,-1173.53,10.024100000000001,6.21563,40.9908
211040.0,117.279,-2610.8600000000001,-2545.5900000000001,-2579.0799999999999,7.1094900000000001,8.5099999999999998,58.279899999999998
211041.0,162.893,-2364.71,-2313.4000000000001,-2318.5900000000001,0.19367100000000001,13.8475,88.629300000000001
211042.0,200.92500000000001,-3116.96,-3091.9099999999999,-3042.3699999999999,-13.302199999999999,9.1183399999999999,108.42400000000001
211043.0,182.946,-5410.5799999999999,-5388.5,-5335.7399999999998,-12.869400000000001,5.3501200000000004,97.381600000000006
211044.0,166.14099999999999,-5923.5500000000002,-5902.9499999999998,-5852.46,-12.116199999999999,3.0685899999999999,87.787400000000005
211045.0,152.27699999999999,-5569.3599999999997,-5551.6199999999999,-5503.1700000000001,-9.8580299999999994,2.3687,80.328699999999998
211046.0,138.90600000000001,-5983.8699999999999,-5966.71,-5922.96,-8.5191400000000002,1.5001199999999999,73.284499999999994
211047.0,118.502,-6021.7600000000002,-6003.1400000000003,-5967.7299999999996,-6.2889299999999997,0.79992399999999997,62.349299999999999
211048.0,66.998900000000006,-5470.4899999999998,-5438.5200000000004,-5442.8500000000004,0.68577299999999997,1.1467099999999999,34.548400000000001
211049.0,71.162999999999997,-4894.6400000000003,-4859.6000000000004,-4868.79,-2.0395400000000001,1.3469800000000001,36.7682
211050.0,89.409999999999997,-4359.6099999999997,-4329.7299999999996,-4320.21,-8.6069099999999992,0.030344599999999999,46.560899999999997
211051.0,107.517,-4169.8400000000001,-4149.1199999999999,-4113.8400000000001,-13.538399999999999,-2.5788799999999998,53.494700000000002
211052.0,111.163,-4217.1099999999997,-4200.8199999999997,-4153.2700000000004,-13.0143,-4.6993,53.1706
211053.0,86.851200000000006,-4247.3800000000001,-4225.96,-4196.21,-4.8814099999999998,-3.52135,42.635899999999999
211054.0,72.315399999999997,-3433.2199999999998,-3381.3400000000001,-3429.2800000000002,10.5732,4.9671099999999999,27.788799999999998
211055.0,89.7316,-2535.52,-2472.9699999999998,-2540.48,11.510199999999999,8.6631599999999995,32.569200000000002
211056.0,92.319199999999995,-1660.9300000000001,-1604.0,-1654.1600000000001,3.4706700000000001,6.9583599999999999,42.584499999999998
211057.0,89.947900000000004,-1165.46,-1110.1500000000001,-1155.8399999999999,0.50630500000000001,7.5554300000000003,42.028399999999998
211058.0,86.149500000000003,-684.42399999999998,-625.84100000000001,-684.678,3.7290000000000001,9.9859100000000005,34.804099999999998
211059.0,130.09899999999999,2194.0,2314.6900000000001,2213.71,26.703399999999998,11.445499999999999,24.618600000000001
211060.0,104.36199999999999,965.18600000000004,1049.71,966.52999999999997,17.1843,2.0169999999999999,31.4117
211061.0,224.41200000000001,4322.6000000000004,4336.0,4396.1999999999998,-3.45208,18.865300000000001,121.99299999999999
211062.0,82.962199999999996,5829.5100000000002,5857.0200000000004,5864.1499999999996,6.2571500000000002,8.2073699999999992,43.048400000000001
211063.0,83.222499999999997,3935.0599999999999,3980.79,3954.4200000000001,8.8706600000000009,9.9337999999999997,40.053800000000003
211064.0,92.146600000000007,2348.9699999999998,2408.0900000000001,2339.1399999999999,12.1812,10.383800000000001,34.395000000000003
211065.0,83.330600000000004,4946.4700000000003,4955.3199999999997,4988.5100000000002,6.3676000000000004,9.2046899999999994,41.209400000000002
211066.0,177.28999999999999,4496.8599999999997,4513.96,4564.71,-1.79264,8.7415500000000002,95.668400000000005
211067.0,105.443,-250.441,-175.16300000000001,-234.06299999999999,6.1119599999999998,8.6697900000000008,45.013599999999997
211068.0,106.492,-617.59299999999996,-541.60599999999999,-614.11000000000001,11.914400000000001,5.9479800000000003,41.980400000000003
211069.0,100.56,2161.4099999999999,2224.0300000000002,2189.9200000000001,3.9293200000000001,12.7912,46.998699999999999
211070.0,111.41500000000001,-335.04399999999998,-288.541,-301.22800000000001,4.1127799999999999,12.5016,58.195999999999998
211071.0,144.47499999999999,1801.6500000000001,1832.4300000000001,1849.52,4.4096200000000003,13.9291,78.458500000000001
211072.0,198.44200000000001,1943.0999999999999,1962.6700000000001,2008.6800000000001,-0.26983400000000002,17.8536,108.047
211073.0,213.209,-2876.0100000000002,-2850.4099999999999,-2810.27,-0.062976500000000005,19.5655,116.92700000000001
211074.0,204.26900000000001,4719.5500000000002,4733.5500000000002,4790.0200000000004,-1.7004900000000001,14.0687,110.97799999999999
211075.0,163.154,5895.2299999999996,5915.1199999999999,5963.8299999999999,-4.2435900000000002,5.9805299999999999,87.0274
211076.0,153.09,6083.0,6104.7399999999998,6150.6099999999997,-5.78268,5.7536800000000001,80.960099999999997
211077.0,138.15000000000001,6175.9200000000001,6198.0600000000004,6236.7600000000002,-4.6468499999999997,6.8822599999999996,73.106800000000007
211078.0,111.393,6194.5699999999997,6219.5900000000001,6240.9499999999998,-0.17723900000000001,7.2647899999999996,59.535499999999999
211079.0,86.357799999999997,-6031.0500000000002,-6008.0,-5989.1400000000003,2.02711,3.1635900000000001,45.0687
211080.0,74.279600000000002,5316.0299999999997,5337.54,5349.6300000000001,8.6614299999999993,9.2587299999999999,37.266599999999997
211081.0,102.762,4786.2399999999998,4784.2299999999996,4842.1800000000003,2.3153700000000002,8.43154,48.595999999999997
211082.0,116.425,4725.5200000000004,4721.3699999999999,4789.2600000000002,-1.6005199999999999,6.4330800000000004,55.010599999999997
211083.0,108.988,4701.54,4709.1700000000001,4759.0699999999997,-1.7087399999999999,5.5536000000000003,54.3093
211084.0,89.657499999999999,4477.5900000000001,4505.1199999999999,4517.2799999999997,3.00007,7.12174,46.972099999999998
211085.0,71.4345,-4346.3000000000002,-4316.4899999999998,-4311.2299999999996,6.3572699999999998,6.6885000000000003,35.469499999999996
211086.0,88.963099999999997,3178.04,3235.79,3178.3000000000002,13.5306,11.3649,34.917400000000001
211087.0,93.858099999999993,1520.3399999999999,1579.3800000000001,1509.29,7.7889999999999997,11.8817,36.260199999999998
211088.0,89.053299999999993,751.65599999999995,806.20899999999995,746.93600000000004,4.38666,13.2903,36.9099
211089.0,80.448099999999997,132.34299999999999,180.386,132.06800000000001,4.87392,12.7456,34.601700000000001
211090.0,51.359299999999998,85.799300000000002,51.375599999999999,81.085899999999995,-22.2776,0.66517400000000004,-5.84877
211091.0,111.11499999999999,-264.714,-176.40899999999999,-260.88299999999998,17.572800000000001,9.8245900000000006,34.9116
211092.0,108.086,1142.3499999999999,1228.04,1152.51,10.2782,6.4039000000000001,39.441699999999997
211093.0,98.524199999999993,-1230.0999999999999,-1155.96,-1211.6900000000001,5.2940300000000002,7.6006299999999998,40.738300000000002
211094.0,103.03,-746.452,-687.69600000000003,-723.50400000000002,5.8483799999999997,9.8767499999999995,50.2973
211095.0,123.114,54.944099999999999,102.54300000000001,84.208500000000001,5.3951700000000002,11.3094,65.719099999999997
211096.0,173.72300000000001,-1327.9200000000001,-1288.55,-1282.3499999999999,5.1749099999999997,17.649999999999999,95.449799999999996
211097.0,208.81,-4657.7600000000002,-4643.1499999999996,-4581.8900000000003,-0.96100300000000005,15.501200000000001,112.571
211098.0,182.19800000000001,-4097.8900000000003,-4082.8499999999999,-4024.3899999999999,-0.30932599999999999,11.1785,97.120400000000004
211099.0,163.84700000000001,-4774.04,-4756.7600000000002,-4704.1800000000003,-2.3707600000000002,8.49587,86.873099999999994
211100.0,154.17500000000001,-5945.4799999999996,-5927.7200000000003,-5876.8599999999997,-5.7423599999999997,6.2854099999999997,81.132400000000004
211101.0,142.184,-6029.3699999999999,-6012.75,-5964.5200000000004,-7.09781,4.8297100000000004,74.365899999999996
211102.0,118.77500000000001,-6138.4700000000003,-6121.4700000000003,-6082.2399999999998,-3.9761500000000001,3.7378999999999998,61.976199999999999
211103.0,75.491799999999998,-5517.0600000000004,-5489.5100000000002,-5484.4099999999999,7.5375399999999999,6.0833300000000001,38.696199999999997
211104.0,81.838300000000004,-4999.2399999999998,-4977.2299999999996,-4965.3500000000004,7.5253899999999998,8.1956199999999999,42.578899999999997
211105.0,97.148099999999999,-4720.7299999999996,-4709.2200000000003,-4675.7700000000004,4.0481999999999996,8.5316799999999997,50.111499999999999
211106.0,114.441,-4594.1999999999998,-4591.7600000000002,-4534.1300000000001,0.16286300000000001,7.8227399999999996,56.1113
211107.0,113.19799999999999,-4612.6899999999996,-4610.9300000000003,-4547.3000000000002,-2.2677399999999999,5.0925900000000004,53.406100000000002
211108.0,91.239400000000003,-4617.0699999999997,-4603.7399999999998,-4561.6999999999998,0.69730800000000004,4.4079100000000002,43.814999999999998
211109.0,70.289299999999997,-3760.6700000000001,-3716.4099999999999,-3747.98,11.813499999999999,9.3737499999999994,30.0001
211110.0,82.769199999999998,-3003.9899999999998,-2951.1599999999999,-3007.6900000000001,12.587999999999999,11.926600000000001,31.348400000000002
211111.0,88.212400000000002,-2176.79,-2122.0300000000002,-2186.0700000000002,8.0367800000000003,12.999000000000001,34.0989
211112.0,92.519499999999994,-1368.55,-1313.01,-1376.74,4.7859499999999997,15.7841,37.133299999999998
211113.0,87.2149,-644.64099999999996,-593.56700000000001,-649.61500000000001,5.2137399999999996,15.8543,35.978900000000003
211114.0,129.137,-2568.9499999999998,-2451.4400000000001,-2549.0900000000001,26.197099999999999,16.078700000000001,25.645399999999999
211115.0,104.95,-872.00800000000004,-790.69600000000003,-872.53700000000003,19.706199999999999,1.6742900000000001,32.590000000000003
211116.0,242.184,3579.8699999999999,3589.4699999999998,3659.2399999999998,4.9791100000000004,23.954999999999998,130.67400000000001
211117.0,97.548699999999997,6175.8299999999999,6183.3500000000004,6220.9499999999998,5.9963600000000001,13.7902,48.593800000000002
211118.0,85.474599999999995,4425.4700000000003,4472.6700000000001,4433.46,12.5359,11.5259,38.818600000000004
211119.0,102.092,2485.29,2552.4099999999999,2461.7600000000002,11.8064,13.190799999999999,30.7896
211120.0,114.28400000000001,5715.3400000000001,5699.29,5772.9899999999998,9.2128800000000002,16.023199999999999,50.098599999999998
211121.0,171.78899999999999,6584.0299999999997,6596.7399999999998,6645.3199999999997,9.2105599999999992,14.4466,92.180300000000003
211122.0,102.64,1320.78,1384.73,1334.4200000000001,12.3185,11.8886,45.6539
211123.0,104.322,1201.0799999999999,1272.2,1204.1600000000001,15.73,9.8268900000000006,40.833599999999997
211124.0,109.33199999999999,-436.70400000000001,-388.72399999999999,-410.79899999999998,14.502800000000001,13.7082,54.858800000000002
211125.0,133.02199999999999,2992.9299999999998,3026.3000000000002,3027.2600000000002,15.2577,17.8322,70.465199999999996
211126.0,164.154,2057.8299999999999,2078.48,2106.98,11.8794,19.1769,88.680099999999996
211127.0,216.232,3692.9400000000001,3705.8499999999999,3762.54,7.6744199999999996,22.5962,116.812
211128.0,229.423,-3422.1199999999999,-3405.5599999999999,-3353.5900000000001,6.8587300000000004,23.684200000000001,125.133
211129.0,212.66800000000001,5139.4300000000003,5151.2600000000002,5210.5299999999997,7.0939500000000004,20.0825,114.764
211130.0,150.458,5873.2299999999996,5886.6800000000003,5932.3100000000004,6.8907299999999996,10.452,80.188500000000005
211131.0,144.29300000000001,6145.1400000000003,6157.3500000000004,6208.9899999999998,2.3433799999999998,9.90259,75.418000000000006
211132.0,141.28899999999999,6348.1599999999999,6359.1000000000004,6414.3699999999999,-1.0834600000000001,12.015499999999999,72.448999999999998
211133.0,124.47499999999999,6327.5900000000001,6338.1099999999997,6385.1999999999998,0.357464,14.186500000000001,63.421999999999997
211134.0,101.339,-6194.46,-6189.3000000000002,-6143.5299999999997,2.40055,8.8274299999999997,50.531700000000001
211135.0,94.650499999999994,5914.0200000000004,5911.6300000000001,5960.6899999999996,8.9612200000000009,14.513500000000001,43.933999999999997
211136.0,129.46700000000001,5644.5299999999997,5621.79,5710.0799999999999,8.3886299999999991,14.884399999999999,56.5137
211137.0,126.52800000000001,5700.25,5684.5,5763.79,7.93086,14.635,57.418999999999997
211138.0,106.67,5569.8599999999997,5572.1099999999997,5619.1599999999999,9.0357800000000008,14.4969,52.212000000000003
211139.0,87.296700000000001,5121.8299999999999,5147.8000000000002,5150.4799999999996,11.1892,13.094799999999999,44.645600000000002
211140.0,69.596900000000005,-4934.4899999999998,-4905.2799999999997,-4909.9700000000003,11.577500000000001,12.9695,32.654000000000003
211141.0,95.607100000000003,3529.46,3591.5999999999999,3517.3299999999999,12.915100000000001,11.4092,34.098599999999998
211142.0,95.366500000000002,1473.76,1535.3599999999999,1451.5899999999999,9.7764799999999994,14.7712,28.882000000000001
211143.0,78.510800000000003,666.346,712.928,658.36300000000006,5.8916199999999996,15.048999999999999,30.413699999999999
211144.0,64.361099999999993,135.827,164.88,141.90199999999999,3.3306499999999999,11.9872,31.482800000000001
211145.0,49.893300000000004,72.194599999999994,36.138800000000003,64.534599999999998,-21.066600000000001,0.63042299999999996,-4.9747599999999998
211146.0,112.131,-244.37799999999999,-158.679,-243.30799999999999,20.8032,8.2894900000000007,35.661200000000001
211147.0,106.146,-2068.6399999999999,-1987.55,-2058.9299999999998,14.8193,10.2773,38.3369
211148.0,100.036,-201.73599999999999,-137.66999999999999,-187.429,13.388299999999999,9.9542800000000007,43.892499999999998
211149.0,119.13200000000001,-1396.3199999999999,-1350.0,-1374.9400000000001,15.7095,14.1206,61.215000000000003
211150.0,141.55600000000001,-3151.4499999999998,-3120.29,-3121.9899999999998,14.0938,17.124099999999999,76.683899999999994
211151.0,187.971,-2991.73,-2964.3000000000002,-2945.6799999999998,10.2736,20.709800000000001,103.473
211152.0,222.58500000000001,-3938.4699999999998,-3931.0900000000001,-3857.79,5.3189500000000001,20.558599999999998,118.63500000000001
211153.0,182.56800000000001,-6154.3400000000001,-6144.9799999999996,-6081.6099999999997,8.5119199999999999,15.7751,96.039000000000001
211154.0,155.52699999999999,-6390.5299999999997,-6374.3800000000001,-6325.96,9.9792500000000004,13.2902,81.594999999999999
211155.0,144.37799999999999,-5767.6599999999999,-5747.5100000000002,-5704.21,5.89133,11.132199999999999,75.753399999999999
211156.0,142.477,-6099.3599999999997,-6082.5799999999999,-6032.6599999999999,0.37990699999999999,10.6426,73.819400000000002
211157.0,130.65000000000001,-6232.1700000000001,-6222.46,-6167.8100000000004,-1.9681500000000001,9.8146199999999997,66.224599999999995
211158.0,88.943899999999999,-5981.4300000000003,-5977.3199999999997,-5940.6899999999996,6.8759399999999999,10.194900000000001,44.529000000000003
211159.0,104.20699999999999,-5693.8299999999999,-5698.9099999999999,-5647.7200000000003,8.9238900000000001,13.834899999999999,50.530700000000003
211160.0,123.486,-5512.9099999999999,-5530.2200000000003,-5454.6800000000003,9.0719600000000007,15.419499999999999,56.539499999999997
211161.0,128.73699999999999,-5547.5699999999997,-5568.1599999999999,-5481.1199999999999,7.1579199999999998,14.380699999999999,56.542999999999999
211162.0,113.46299999999999,-5629.8699999999999,-5642.3299999999999,-5567.6099999999997,7.7301200000000003,14.595700000000001,49.1569
211163.0,85.520300000000006,-5440.0600000000004,-5433.6300000000001,-5394.4499999999998,9.7285799999999991,13.932700000000001,39.240200000000002
211164.0,73.419799999999995,-4205.2600000000002,-4158.0600000000004,-4202.0799999999999,12.354100000000001,12.8034,28.004200000000001
211165.0,88.947699999999998,-3262.25,-3202.9000000000001,-3277.71,11.823,14.2662,27.095500000000001
211166.0,98.808800000000005,-2197.5900000000001,-2134.8200000000002,-2221.79,10.466200000000001,16.332699999999999,29.386199999999999
211167.0,96.900099999999995,-1201.21,-1145.29,-1219.3399999999999,7.2067600000000001,17.205400000000001,35.948300000000003
211168.0,84.513599999999997,-450.10000000000002,-409.98599999999999,-454.80500000000001,5.2743000000000002,15.6904,38.732199999999999
211169.0,128.19399999999999,2050.7199999999998,2167.8899999999999,2069.1599999999999,21.806000000000001,16.028500000000001,27.851800000000001
211170.0,104.886,1007.8200000000001,1088.6400000000001,1008.6900000000001,20.491599999999998,5.8751499999999997,32.530000000000001
211171.0,248.654,5143.46,5151.8599999999997,5225.2600000000002,4.9737799999999996,25.717199999999998,133.78700000000001
211172.0,131.86699999999999,6678.6400000000003,6661.6400000000003,6742.4700000000003,8.89602,22.067,58.431199999999997
211173.0,97.641900000000007,4688.96,4750.4099999999999,4665.3299999999999,9.7802100000000003,7.9618799999999998,33.019199999999998
211174.0,111.032,2129.7399999999998,2204.8299999999999,2088.3099999999999,5.5528300000000002,6.8166500000000001,23.304200000000002
211175.0,153.696,6702.7700000000004,6663.7299999999996,6778.5699999999997,12.407400000000001,22.780999999999999,61.577199999999998
211176.0,177.256,5321.9300000000003,5331.3199999999997,5386.3800000000001,8.86876,19.784300000000002,93.760599999999997
211177.0,107.435,-170.35300000000001,-113.124,-158.28100000000001,18.168199999999999,14.6615,48.912300000000002
211178.0,107.32599999999999,-638.58600000000001,-571.96900000000005,-635.91399999999999,21.057200000000002,10.5571,43.155799999999999
211179.0,116.018,2264.3000000000002,2313.3800000000001,2291.2600000000002,17.162700000000001,14.013999999999999,58.238199999999999
211180.0,146.06200000000001,-117.66500000000001,-78.016800000000003,-75.0608,17.055299999999999,17.732399999999998,77.072000000000003
211181.0,183.49199999999999,2310.3200000000002,2330.0300000000002,2365.6300000000001,13.5755,21.669599999999999,98.910899999999998
211182.0,230.72900000000001,2655.9899999999998,2666.1300000000001,2728.1799999999998,8.3219200000000004,24.438199999999998,124.705
211183.0,237.673,-3636.2399999999998,-3622.5999999999999,-3563.9400000000001,6.0132000000000003,24.654299999999999,129.267
211184.0,217.619,5609.5299999999997,5618.8699999999999,5683.6099999999997,6.1236699999999997,23.528700000000001,116.47799999999999
211185.0,151.20400000000001,6528.5100000000002,6535.46,6585.4099999999999,9.9586799999999993,16.8444,79.213399999999993
211186.0,137.995,6473.3100000000004,6474.5100000000002,6529.9499999999998,8.6076599999999992,14.740399999999999,70.773200000000003
211187.0,136.38200000000001,6455.4399999999996,6451.8400000000001,6517.2799999999997,5.5972099999999996,15.816599999999999,67.567599999999999
211188.0,138.19900000000001,6635.8900000000003,6626.9399999999996,6701.8699999999999,5.1027899999999997,19.477,65.468699999999998
211189.0,129.81200000000001,-6512.0299999999997,-6523.2399999999998,-6448.0500000000002,7.50509,18.968299999999999,59.626899999999999
211190.0,137.178,6635.1000000000004,6605.0600000000004,6702.7200000000003,12.0412,23.0745,55.616
211191.0,149.666,6876.2299999999996,6842.1099999999997,6948.25,11.3438,20.672499999999999,63.043100000000003
211192.0,119.709,6771.5100000000002,6756.6800000000003,6826.4300000000003,10.559200000000001,17.073499999999999,54.987400000000001
211193.0,91.585999999999999,6385.04,6395.3199999999997,6418.1999999999998,9.8135999999999992,13.6074,47.183999999999997
211194.0,81.872600000000006,5713.8699999999999,5750.46,5719.0,9.7787400000000009,10.488799999999999,40.451700000000002
211195.0,63.7667,-5428.7799999999997,-5389.4899999999998,-5430.04,8.6494599999999995,10.0769,25.446200000000001
211196.0,114.979,3411.52,3488.52,3369.8899999999999,8.6006900000000002,7.2142900000000001,25.656700000000001
211197.0,89.212400000000002,1069.3099999999999,1128.6300000000001,1041.1099999999999,1.70949,5.8689400000000003,24.9009
211198.0,61.534199999999998,375.20999999999998,410.67399999999998,369.10000000000002,-1.64937,5.9310200000000002,26.839400000000001
211199.0,57.566699999999997,82.002600000000001,93.236999999999995,95.841700000000003,-4.2966699999999998,4.6517200000000001,31.787700000000001
211200.0,48.778300000000002,86.213499999999996,49.067999999999998,77.895099999999999,-19.930299999999999,0.209701,-3.9810500000000002
211201.0,112.56699999999999,-257.904,-176.40899999999999,-258.38999999999999,24.762,10.4521,35.697299999999998
211202.0,109.575,1119.47,1194.8199999999999,1127.1199999999999,19.999199999999998,11.1616,41.922899999999998
211203.0,104.86499999999999,-1317.6400000000001,-1260.97,-1304.8199999999999,19.763999999999999,13.293200000000001,47.063099999999999
211204.0,127.563,-831.77999999999997,-778.52999999999997,-806.35900000000004,18.0335,14.538,64.6387
211205.0,160.98699999999999,-252.066,-216.572,-215.93600000000001,17.776,19.201499999999999,86.756100000000004
211206.0,205.459,-1943.3299999999999,-1922.5999999999999,-1893.0699999999999,12.432399999999999,23.34,112.84399999999999
211207.0,227.05500000000001,-5508.71,-5505.1899999999996,-5426.5,3.7751600000000001,22.529399999999999,120.426
211208.0,187.471,-4946.4799999999996,-4941.4200000000001,-4872.1099999999997,6.7585499999999996,18.364899999999999,98.009600000000006
211209.0,158.12,-5445.3199999999997,-5435.8400000000001,-5380.4700000000003,9.3619800000000009,15.560499999999999,82.323300000000003
211210.0,139.29400000000001,-6351.8400000000001,-6341.0,-6293.0500000000002,10.304,14.769399999999999,71.862899999999996
211211.0,134.643,-6195.8599999999997,-6187.54,-6135.0799999999999,7.8479200000000002,16.024799999999999,68.107500000000002
211212.0,135.649,-6309.9899999999998,-6309.5200000000004,-6245.2600000000002,5.4765600000000001,18.170200000000001,66.235100000000003
211213.0,127.71899999999999,-6494.54,-6516.3299999999999,-6434.5500000000002,11.0509,19.697099999999999,55.981200000000001
211214.0,144.655,-6447.9300000000003,-6481.4099999999999,-6381.4899999999998,12.546099999999999,21.2941,61.4619
211215.0,153.393,-6625.21,-6664.8500000000004,-6550.2799999999997,11.2727,20.808499999999999,62.427799999999998
211216.0,131.73599999999999,-6782.29,-6813.8100000000004,-6713.6300000000001,9.6696799999999996,18.236999999999998,52.296599999999998
211217.0,98.536100000000005,-6600.8199999999997,-6611.5699999999997,-6549.3299999999999,8.7845899999999997,15.785500000000001,42.463700000000003
211218.0,68.9255,-6170.0100000000002,-6156.8900000000003,-6141.7200000000003,8.4697399999999998,12.9206,33.829999999999998
211219.0,92.483599999999996,-4313.0799999999999,-4248.5299999999997,-4341.6499999999996,8.4928899999999992,8.4940599999999993,20.7607
211220.0,113.608,-2991.6599999999999,-2915.29,-3033.6300000000001,7.1677799999999996,8.9527699999999992,23.8996
211221.0,110.378,-1719.77,-1649.0799999999999,-1757.48,3.99308,8.2537599999999998,30.808
211222.0,93.370199999999997,-738.79600000000005,-686.10699999999997,-760.69399999999996,0.18062400000000001,7.0683400000000001,37.231699999999996
211223.0,77.850200000000001,-157.369,-130.815,-155.92400000000001,-2.5308199999999998,7.0250899999999996,41.731400000000001
211224.0,125.452,-2615.3099999999999,-2500.0100000000002,-2599.6799999999998,15.4527,14.013299999999999,29.982700000000001
211225.0,110.541,-847.15700000000004,-763.82299999999998,-841.76700000000005,23.0305,12.620799999999999,34.765999999999998
211226.0,246.58099999999999,4244.1999999999998,4241.6800000000003,4320.6599999999999,5.2840100000000003,29.167899999999999,131.809
211227.0,157.16,7142.1000000000004,7110.2399999999998,7222.6899999999996,8.2134099999999997,24.939900000000002,64.686499999999995
211228.0,113.066,4582.0900000000001,4647.2399999999998,4530.25,11.2699,9.8826699999999992,24.502800000000001
211229.0,115.155,1694.5,1761.3,1635.03,8.9765300000000003,6.1874200000000004,17.634699999999999
211230.0,176.69900000000001,7716.7299999999996,7673.21,7807.2600000000002,6.6016000000000004,23.662400000000002,71.603300000000004
211231.0,195.066,7329.1300000000001,7321.6400000000003,7398.3199999999997,9.0545100000000005,25.5961,100.79300000000001
211232.0,114.652,1420.6500000000001,1472.4100000000001,1432.77,27.877600000000001,14.779999999999999,51.507599999999996
211233.0,112.96299999999999,1244.0999999999999,1305.01,1242.3699999999999,28.047000000000001,11.5662,45.3902
211234.0,122.501,-235.845,-193.60599999999999,-211.042,20.6846,16.336600000000001,62.103999999999999
211235.0,147.77500000000001,3240.6399999999999,3271.77,3280.0100000000002,15.340999999999999,19.135300000000001,79.034800000000004
211236.0,193.47800000000001,2438.52,2454.0700000000002,2496.4200000000001,14.403499999999999,23.495200000000001,104.021
211237.0,241.75899999999999,4296.1300000000001,4298.8699999999999,4367.9899999999998,8.7832899999999992,27.0059,130.452
211238.0,240.72999999999999,-4077.6500000000001,-4073.5100000000002,-4005.0100000000002,5.2143699999999997,26.840900000000001,130.02000000000001
211239.0,221.40899999999999,5771.8599999999997,5767.5699999999997,5846.0100000000002,6.5210400000000002,27.5974,116.583
211240.0,170.45400000000001,6809.0900000000001,6799.1999999999998,6870.0200000000004,11.945399999999999,24.3155,86.485900000000001
211241.0,146.81399999999999,7121.3800000000001,7108.6099999999997,7175.3400000000001,12.4655,22.1936,72.679000000000002
211242.0,133.899,7169.5900000000001,7152.5500000000002,7224.4399999999996,10.9322,21.374700000000001,63.1554
211243.0,143.35400000000001,7049.0799999999999,7025.7600000000002,7115.5600000000004,8.8444599999999998,22.741700000000002,63.904600000000002
211244.0,144.67400000000001,-6779.0600000000004,-6795.6099999999997,-6708.8900000000003,10.342700000000001,23.601099999999999,64.755600000000001
211245.0,174.68000000000001,7410.1899999999996,7367.8699999999999,7502.0699999999997,7.7223199999999999,25.513000000000002,68.945300000000003
211246.0,146.465,7808.4899999999998,7779.5,7879.6300000000001,6.8860599999999996,20.966999999999999,63.315399999999997
211247.0,102.72,7598.3100000000004,7592.75,7639.46,8.1518700000000006,16.3156,50.331899999999997
211248.0,75.665899999999993,6944.8500000000004,6965.1999999999998,6954.0,8.7674800000000008,12.324999999999999,39.6965
211249.0,83.894000000000005,5900.1000000000004,5944.9700000000003,5877.71,9.5510900000000003,10.8637,31.0443
211250.0,77.260000000000005,-5466.7200000000003,-5419.1499999999996,-5494.8699999999999,9.0715199999999996,9.9035700000000002,18.561399999999999
211251.0,128.696,3084.2199999999998,3158.6300000000001,3017.48,12.1487,7.5489899999999999,18.173300000000001
211252.0,79.557699999999997,694.76400000000001,739.56100000000004,658.36800000000005,3.1674000000000002,6.4869700000000003,20.093800000000002
211253.0,47.108800000000002,129.23699999999999,145.875,123.122,-2.4827699999999999,5.9125100000000002,23.663599999999999
211254.0,61.058799999999998,-8.4316800000000001,-11.290900000000001,8.0006900000000005,-6.9917600000000002,6.0345700000000004,32.3887
211255.0,47.720399999999998,71.204400000000007,32.644199999999998,63.119399999999999,-18.351700000000001,-0.30467499999999997,-2.9500899999999999
211256.0,119.117,-266.61599999999999,-187.08799999999999,-266.56,29.231100000000001,14.585800000000001,39.442100000000003
211257.0,110.125,-2119.0799999999999,-2051.4499999999998,-2115.29,27.020199999999999,10.8291,41.849499999999999
211258.0,117.004,-326.95400000000001,-273.17500000000001,-314.23099999999999,28.240300000000001,15.9917,52.154800000000002
211259.0,129.44300000000001,-1597.28,-1554.0799999999999,-1574.6900000000001,18.0441,16.870000000000001,67.142300000000006
211260.0,165.78399999999999,-3371.8800000000001,-3339.3800000000001,-3336.6100000000001,17.755299999999998,20.270900000000001,89.724999999999994
211261.0,219.16,-3422.5500000000002,-3405.46,-3369.71,15.1065,26.169899999999998,119.876
211262.0,225.364,-4557.7700000000004,-4562.54,-4479.6400000000003,4.9661200000000001,25.878599999999999,118.611
211263.0,199.36000000000001,-6778.4200000000001,-6785.9799999999996,-6704.1700000000001,6.6148300000000004,23.089099999999998,103.09
211264.0,175.779,-7225.4499999999998,-7236.8800000000001,-7157.6899999999996,8.2949000000000002,20.982099999999999,89.208699999999993
211265.0,150.446,-6773.3999999999996,-6786.6999999999998,-6714.3299999999999,10.4382,20.334599999999998,74.421099999999996
211266.0,131.41800000000001,-7011.3900000000003,-7023.6199999999999,-6957.71,10.678900000000001,20.253399999999999,63.272399999999998
211267.0,133.876,-6876.5200000000004,-6888.3900000000003,-6818.8599999999997,10.840199999999999,22.500599999999999,62.9831
211268.0,164.15299999999999,-6959.4099999999999,-6988.3599999999997,-6876.3000000000002,10.307,25.2258,69.681200000000004
211269.0,178.66,-7290.21,-7332.0500000000002,-7197.4499999999998,7.8859599999999999,24.4941,72.331199999999995
211270.0,162.27199999999999,-7585.7799999999997,-7627.7200000000003,-7497.9499999999998,5.1433999999999997,21.3536,62.523499999999999
211271.0,120.49299999999999,-7658.9499999999998,-7686.0100000000002,-7593.6899999999996,6.0945999999999998,18.6387,46.931199999999997
211272.0,75.482399999999998,-7350.3100000000004,-7353.1599999999999,-7315.1199999999999,6.5082700000000004,14.585800000000001,34.571599999999997
211273.0,54.1541,-6583.7299999999996,-6560.1599999999999,-6580.29,6.9616199999999999,11.383699999999999,25.247199999999999
211274.0,113.971,-4102.3999999999996,-4034.3800000000001,-4158.79,11.8613,8.3487399999999994,15.4467
211275.0,128.096,-2578.6199999999999,-2504.3899999999999,-2643.25,11.3034,8.2849799999999991,21.101600000000001
211276.0,113.01600000000001,-1284.8800000000001,-1223.3099999999999,-1337.49,6.7971500000000002,9.0846900000000002,29.382000000000001
211277.0,84.867599999999996,-416.05399999999997,-380.09500000000003,-443.58199999999999,1.3811899999999999,9.5879100000000008,35.964300000000001
211278.0,71.828599999999994,23.775300000000001,31.480899999999998,27.459,-5.0648799999999996,8.0391700000000004,40.182699999999997
211279.0,122.29600000000001,2070.3899999999999,2176.5,2080.48,16.241900000000001,17.620999999999999,31.3188
211280.0,116.20099999999999,1033.51,1119.79,1042.29,23.438500000000001,12.119999999999999,39.371299999999998
211281.0,248.06999999999999,5612.6300000000001,5599.6000000000004,5686.5799999999999,9.7230100000000004,33.556699999999999,130.73500000000001
211282.0,171.56299999999999,7925.7700000000004,7879.2600000000002,8009.5299999999997,6.8107600000000001,26.617699999999999,68.544399999999996
211283.0,113.155,4628.8800000000001,4691.0,4573.8400000000001,16.0259,12.263199999999999,20.6203
211284.0,118.541,1810.6400000000001,1869.3499999999999,1743.23,17.381499999999999,10.090199999999999,17.241099999999999
211285.0,172.971,8446.2700000000004,8404.5699999999997,8533.8899999999994,-0.42094399999999998,23.409800000000001,71.192300000000003
211286.0,212.054,5980.0299999999997,5957.6899999999996,6051.9099999999999,11.456300000000001,30.626000000000001,107.21899999999999
211287.0,122.90300000000001,-73.964699999999993,-17.389399999999998,-59.2241,33.6175,15.1432,53.049700000000001
211288.0,122.316,-449.721,-386.63299999999998,-450.80200000000002,31.622699999999998,16.1966,48.732900000000001
211289.0,132.035,2432.46,2473.8099999999999,2458.4499999999998,30.350999999999999,17.801600000000001,64.312299999999993
211290.0,154.94499999999999,179.08000000000001,199.94200000000001,214.953,23.508600000000001,22.196999999999999,81.441500000000005
211291.0,200.58600000000001,2630.9099999999999,2638.1399999999999,2686.5700000000002,17.8858,26.433900000000001,107.13
211292.0,247.983,3099.8899999999999,3094.1799999999998,3169.9299999999998,13.1554,31.862100000000002,132.40299999999999
211293.0,242.547,-4098.8000000000002,-4104.8699999999999,-4028.02,10.4125,31.328800000000001,129.20599999999999
211294.0,230.03299999999999,6076.0299999999997,6058.3100000000004,6150.2399999999998,9.6369500000000006,32.465699999999998,118.798
211295.0,185.50700000000001,7459.8199999999997,7436.8699999999999,7524.4899999999998,12.798999999999999,28.9269,91.6858
211296.0,160.46899999999999,7594.9200000000001,7569.5299999999997,7653.2799999999997,12.9557,28.3995,75.926299999999998
211297.0,150.15899999999999,7618.4499999999998,7586.9099999999999,7678.4099999999999,12.311,28.245999999999999,66.379599999999996
211298.0,160.90299999999999,7786.79,7747.0299999999997,7856.7600000000002,10.2044,28.3919,68.067599999999999
211299.0,158.386,-7596.3599999999997,-7631.0,-7523.9700000000003,9.3744300000000003,25.801500000000001,68.012500000000003
211300.0,184.37200000000001,8157.4899999999998,8107.9399999999996,8251.8299999999999,2.3805299999999998,25.165800000000001,73.137
211301.0,132.15000000000001,8490.2299999999996,8468.0499999999993,8554.1100000000006,0.40353499999999998,19.917300000000001,58.546300000000002
211302.0,90.935299999999998,8038.1800000000003,8038.96,8070.5200000000004,3.61761,16.678100000000001,46.094799999999999
211303.0,71.735399999999998,7197.9799999999996,7222.7399999999998,7195.0500000000002,8.2953600000000005,13.9366,34.942300000000003
211304.0,88.483800000000002,6019.8400000000001,6067.3000000000002,5986.6800000000003,12.6799,11.5901,25.940100000000001
211305.0,86.6447,-5535.04,-5484.2700000000004,-5572.1899999999996,12.8957,10.4945,16.672599999999999
211306.0,126.13200000000001,3189.25,3254.3000000000002,3120.6799999999998,18.1661,11.652200000000001,19.320499999999999
211307.0,79.939700000000002,690.58399999999995,727.995,648.47199999999998,11.963699999999999,10.0556,17.4087
211308.0,47.642000000000003,115.23699999999999,125.36499999999999,106.974,3.6778599999999999,9.97546,23.636900000000001
211309.0,58.562800000000003,10.5304,3.8396699999999999,23.981200000000001,-2.3650799999999998,12.066599999999999,29.778700000000001
211310.0,46.667700000000004,82.662899999999993,41.705300000000001,72.764499999999998,-16.247399999999999,-0.54510800000000004,-2.2325400000000002
211311.0,124.956,-408.90199999999999,-329.77300000000002,-408.31599999999997,29.671700000000001,14.1065,45.3157
211312.0,115.071,977.00900000000001,1041.8900000000001,980.85699999999997,32.436799999999998,14.390000000000001,42.774999999999999
211313.0,125.926,-1351.96,-1290.49,-1335.5,33.282299999999999,16.053000000000001,53.9221
211314.0,140.38999999999999,-1031.28,-992.42499999999995,-1009.64,29.0947,20.038699999999999,70.304500000000004
211315.0,173.72999999999999,-502.959,-477.59100000000001,-469.79700000000003,23.728000000000002,23.5762,92.957800000000006
211316.0,225.364,-2243.3200000000002,-2230.5,-2190.3699999999999,17.6692,28.717400000000001,122.596
211317.0,229.97200000000001,-5921.3900000000003,-5935.9200000000001,-5845.7799999999997,8.6279400000000006,30.785299999999999,119.435
211318.0,212.965,-5426.1000000000004,-5446.96,-5351.9399999999996,9.5345300000000002,28.8733,108.163
211319.0,191.17599999999999,-6224.3299999999999,-6248.8900000000003,-6152.6300000000001,9.7964900000000004,26.739599999999999,94.1798
211320.0,163.50700000000001,-7415.9099999999999,-7440.8599999999997,-7352.21,10.5525,25.1736,77.952699999999993
211321.0,145.15700000000001,-7383.29,-7409.1700000000001,-7325.79,11.890599999999999,24.677199999999999,66.723399999999998
211322.0,149.93799999999999,-7433.5600000000004,-7462.4700000000003,-7372.2200000000003,11.624599999999999,25.608699999999999,67.668700000000001
211323.0,176.80099999999999,-7727.6700000000001,-7769.8699999999999,-7640.6700000000001,5.3420300000000003,27.048400000000001,72.930000000000007
211324.0,181.28800000000001,-8033.6400000000003,-8080.5900000000001,-7938.5799999999999,-0.0542587,26.183,70.958200000000005
211325.0,151.51900000000001,-8371.4799999999996,-8410.4400000000005,-8287.8199999999997,-1.9897800000000001,22.4803,56.723999999999997
211326.0,106.965,-8264.8899999999994,-8284.5900000000001,-8206.5400000000009,-0.22065599999999999,18.221399999999999,42.831899999999997
211327.0,63.2363,-7697.0200000000004,-7693.4899999999998,-7671.1199999999999,3.7116199999999999,14.233499999999999,30.3216
211328.0,55.570399999999999,-6776.8699999999999,-6747.7799999999997,-6785.6199999999999,8.8250899999999994,11.538600000000001,20.637599999999999
211329.0,112.752,-4130.9899999999998,-4070.6700000000001,-4189.2399999999998,17.043299999999999,11.954700000000001,17.008700000000001
211330.0,125.45999999999999,-2715.8299999999999,-2652.96,-2785.5999999999999,18.639800000000001,11.508599999999999,19.0868
211331.0,116.935,-1358.04,-1303.6099999999999,-1419.4400000000001,16.5791,13.4613,27.266100000000002
211332.0,86.929500000000004,-348.971,-320.24099999999999,-379.33300000000003,9.6123799999999999,15.984999999999999,36.024799999999999
211333.0,69.986500000000007,24.8368,27.8813,25.869199999999999,0.84398200000000001,15.0883,37.442500000000003
211334.0,122.15900000000001,-2561.5799999999999,-2461.9899999999998,-2556.1599999999999,15.627800000000001,21.370699999999999,33.729599999999998
211335.0,119.553,-851.68299999999999,-769.90800000000002,-844.54300000000001,27.891300000000001,11.7058,42.4026
211336.0,248.577,4607.3599999999997,4585.96,4679.3999999999996,15.3925,37.2087,128.75999999999999
211337.0,181.203,8747.3400000000001,8691.6499999999996,8827.8099999999995,9.0220800000000008,31.238,72.121700000000004
211338.0,109.66,4907.8800000000001,4968.8100000000004,4856.04,17.858899999999998,8.6968399999999999,20.6768
211339.0,112.574,2171.5300000000002,2229.3000000000002,2113.21,17.650500000000001,8.4497599999999995,21.735800000000001
211340.0,153.49299999999999,8966.6900000000005,8928.5499999999993,9040.5699999999997,0.14660100000000001,25.5136,62.922600000000003
211341.0,226.048,7924.9899999999998,7892.1000000000004,7998.7399999999998,12.9466,36.407499999999999,112.05800000000001
211342.0,127.06699999999999,1650.9000000000001,1710.51,1665.52,30.787700000000001,16.669699999999999,56.488900000000001
211343.0,133.298,1374.4200000000001,1440.78,1377.8399999999999,35.6205,17.718699999999998,54.256599999999999
211344.0,129.29900000000001,-63.4251,-17.877700000000001,-36.634900000000002,26.8873,18.246300000000002,63.188899999999997
211345.0,160.21299999999999,3417.3000000000002,3441.5,3457.6100000000001,26.210799999999999,23.432300000000001,83.116699999999994
211346.0,210.83600000000001,2750.4099999999999,2751.4200000000001,2805.6100000000001,22.4846,30.2254,111.358
211347.0,250.83500000000001,4669.3199999999997,4655.5200000000004,4734.9700000000003,18.633400000000002,36.0351,132.38
211348.0,241.21700000000001,-4409.71,-4422.3000000000002,-4341.8900000000003,16.633099999999999,35.375599999999999,126.477
211349.0,239.59999999999999,6199.4700000000003,6170.8100000000004,6274.29,13.754,37.856699999999996,121.07599999999999
211350.0,195.34999999999999,7557.3199999999997,7524.21,7624.0500000000002,12.939,34.414299999999997,93.715900000000005
211351.0,176.88399999999999,7996.8400000000001,7959.6999999999998,8063.0900000000001,13.033200000000001,33.564900000000002,79.937100000000001
211352.0,177.99100000000001,8276.6200000000008,8231.2399999999998,8349.0,13.0457,33.531500000000001,75.750600000000006
211353.0,185.99100000000001,8470.2700000000004,8416.5599999999995,8548.2900000000009,12.290800000000001,34.334099999999999,76.249700000000004
211354.0,178.10599999999999,-8373.3099999999995,-8428.2199999999993,-8296.7000000000007,9.8470200000000006,31.852499999999999,71.407200000000003
211355.0,172.77000000000001,8951.0200000000004,8899.9599999999991,9031.7299999999996,3.84178,28.003699999999998,68.824200000000005
211356.0,121.834,8709.7700000000004,8690.2000000000007,8767.3799999999992,-0.20993999999999999,21.944400000000002,53.4467
211357.0,90.197999999999993,8254.9799999999996,8255.8400000000001,8288.6599999999999,2.6688399999999999,19.2956,44.313600000000001
211358.0,73.085999999999999,7461.9099999999999,7484.1000000000004,7465.6400000000003,8.2243899999999996,16.824400000000001,35.897599999999997
211359.0,87.993200000000002,6322.4499999999998,6366.9399999999996,6293.1000000000004,14.4589,12.4588,28.8888
211360.0,83.401799999999994,-5852.0500000000002,-5803.7299999999996,-5887.6599999999999,14.584099999999999,8.9872099999999993,15.8238
211361.0,118.014,3471.9699999999998,3535.5799999999999,3413.2399999999998,18.486699999999999,9.6421299999999999,21.5457
211362.0,84.228399999999993,1098.74,1139.03,1056.24,12.963100000000001,6.0793400000000002,21.1129
211363.0,54.047800000000002,420.577,438.56599999999997,403.37099999999998,5.6192500000000001,7.2168400000000004,24.0901
211364.0,47.939500000000002,101.815,100.139,108.334,-0.52313600000000005,10.263999999999999,25.331700000000001
211365.0,46.367100000000001,72.908799999999999,27.428100000000001,55.359099999999998,-13.6088,-1.55783,-1.7036
211366.0,128.154,-330.00700000000001,-256.017,-331.642,32.988399999999999,13.6135,48.320500000000003
211367.0,124.727,-2320.8699999999999,-2255.3099999999999,-2314.3499999999999,34.288499999999999,16.3446,49.380400000000002
211368.0,121.41800000000001,-505.279,-444.61900000000003,-488.404,27.983499999999999,16.090399999999999,53.7761
211369.0,142.23400000000001,-1655.74,-1609.75,-1632.4000000000001,30.6586,20.268799999999999,69.740700000000004
211370.0,185.25200000000001,-3503.5700000000002,-3476.5599999999999,-3468.2600000000002,29.246400000000001,26.601500000000001,97.650599999999997
211371.0,231.648,-3711.52,-3706.6999999999998,-3659.04,22.0672,32.998399999999997,124.376
211372.0,235.39699999999999,-4874.8599999999997,-4897.3299999999999,-4801.6800000000003,13.925800000000001,35.835000000000001,120.379
211373.0,226.399,-7202.3100000000004,-7231.7299999999996,-7126.5200000000004,12.7743,34.8752,112.958
211374.0,201.58099999999999,-7848.71,-7880.0600000000004,-7772.8699999999999,10.312200000000001,31.552,96.984200000000001
211375.0,174.86000000000001,-7521.5100000000002,-7552.5500000000002,-7453.5100000000002,11.9232,30.156600000000001,81.080299999999994
211376.0,168.86699999999999,-7923.1999999999998,-7958.6499999999996,-7856.0900000000001,13.3345,30.367699999999999,75.444299999999998
211377.0,177.33799999999999,-8126.1400000000003,-8172.0299999999997,-8053.71,12.290800000000001,31.477599999999999,76.039900000000003
211378.0,174.18000000000001,-8666.1900000000005,-8721.7700000000004,-8586.8600000000006,4.6514899999999999,30.224799999999998,67.677999999999997
211379.0,161.84200000000001,-8830.5300000000007,-8879.0,-8751.1100000000006,-0.50483999999999996,28.004100000000001,61.466000000000001
211380.0,135.65299999999999,-8748.0400000000009,-8782.3299999999999,-8676.8899999999994,-2.3595100000000002,24.472799999999999,51.346800000000002
211381.0,101.78400000000001,-8464.5499999999993,-8480.4799999999996,-8410.5699999999997,-1.6388400000000001,19.750399999999999,41.449100000000001
211382.0,67.339100000000002,-7947.3100000000004,-7943.6499999999996,-7918.6599999999999,2.58996,16.138999999999999,31.642700000000001
211383.0,54.253,-7062.1300000000001,-7037.6999999999998,-7064.7299999999996,8.9290500000000002,12.835000000000001,22.677499999999998
211384.0,109.271,-4393.5,-4333.5600000000004,-4446.3599999999997,17.564499999999999,9.5726899999999997,19.859500000000001
211385.0,116.61499999999999,-2998.5300000000002,-2939.0300000000002,-3058.4499999999998,18.831800000000001,10.341699999999999,22.495999999999999
211386.0,110.376,-1758.6900000000001,-1707.5599999999999,-1815.4000000000001,17.047699999999999,9.7136200000000006,27.672999999999998
211387.0,87.107600000000005,-756.39200000000005,-724.61900000000003,-792.07500000000005,10.738099999999999,11.0792,33.945700000000002
211388.0,68.923100000000005,-179.87799999999999,-169.06800000000001,-190.16900000000001,4.04603,13.8454,35.553600000000003
211389.0,121.139,1917.3199999999999,2010.3099999999999,1918.8,15.6396,19.891500000000001,37.605800000000002
211390.0,123.955,1112.5699999999999,1193.52,1118.9300000000001,29.073899999999998,15.6572,44.7774
211391.0,248.06299999999999,5902.6499999999996,5874.6000000000004,5972.0600000000004,20.477699999999999,41.295099999999998,125.97499999999999
211392.0,178.26900000000001,9303.6200000000008,9255.4500000000007,9383.8500000000004,6.6702599999999999,32.670999999999999,72.623900000000006
211393.0,106.203,5222.79,5283.8699999999999,5179.5799999999999,16.930399999999999,7.1787299999999998,26.004899999999999
211394.0,113.693,2397.8899999999999,2460.1900000000001,2343.21,16.5961,2.77237,24.496200000000002
211395.0,139.68000000000001,9180.7900000000009,9152.5100000000002,9249.0499999999993,1.1064099999999999,25.861899999999999,58.050600000000003
211396.0,240.68700000000001,6470.4300000000003,6427.5,6546.5600000000004,16.099699999999999,43.597900000000003,116.251
211397.0,132.81700000000001,157.63,212.04900000000001,169.571,36.085599999999999,16.586099999999998,59.0321
211398.0,140.26900000000001,-393.97399999999999,-326.69799999999998,-388.399,38.524999999999999,17.0321,58.225200000000001
211399.0,131.136,2692.71,2731.1700000000001,2715.7199999999998,31.149699999999999,20.8446,62.871699999999997
211400.0,165.01400000000001,369.26600000000002,390.36900000000003,408.58300000000003,28.5566,26.544699999999999,84.671400000000006
211401.0,217.749,2908.9499999999998,2906.6500000000001,2963.3600000000001,27.210699999999999,33.3947,113.661
211402.0,251.05199999999999,3449.3800000000001,3430.7199999999998,3511.3499999999999,24.633900000000001,39.381300000000003,130.65100000000001
211403.0,239.42400000000001,-4359.9899999999998,-4375.4799999999996,-4294.9300000000003,22.595400000000001,39.4467,123.34699999999999
211404.0,248.26499999999999,6381.7299999999996,6345.3999999999996,6458.2200000000003,17.948699999999999,43.132800000000003,122.663
211405.0,211.518,8115.4499999999998,8071.8500000000004,8186.79,15.5366,40.9482,98.120900000000006
211406.0,197.27099999999999,8428.3600000000006,8381.8299999999999,8502.1499999999996,15.0983,38.849899999999998,86.910200000000003
211407.0,195.684,8734.3500000000004,8683.0400000000009,8813.0900000000001,13.3047,37.166499999999999,83.151899999999998
211408.0,191.26400000000001,9121.7299999999996,9069.2800000000007,9203.3099999999995,10.285399999999999,35.398200000000003,79.205399999999997
211409.0,180.18799999999999,-9044.5799999999999,-9097.7099999999991,-8965.1000000000004,6.97614,34.337000000000003,71.697999999999993
211410.0,160.73599999999999,9311.9099999999999,9271.6700000000001,9387.5799999999999,3.3220499999999999,29.418099999999999,65.362799999999993
211411.0,115.955,8909.5100000000002,8896.2600000000002,8965.7999999999993,0.70674400000000004,22.406199999999998,51.148499999999999
211412.0,91.492199999999997,8340.6200000000008,8344.9899999999998,8379.1800000000003,2.3282099999999999,18.8904,44.520000000000003
211413.0,75.981999999999999,7559.4499999999998,7583.1400000000003,7574.9099999999999,5.8624299999999998,15.659800000000001,38.731699999999996
211414.0,84.6023,6550.3900000000003,6594.4799999999996,6535.1000000000004,11.6661,12.9846,33.622799999999998
211415.0,73.355599999999995,-6155.5,-6110.3100000000004,-6178.6000000000004,11.844799999999999,7.7880700000000003,19.651599999999998
211416.0,118.13800000000001,3737.0,3803.9499999999998,3682.5900000000001,18.517099999999999,3.2718099999999999,24.563300000000002
211417.0,89.645399999999995,1294.3299999999999,1339.6800000000001,1250.4100000000001,11.2624,3.3068499999999998,23.424299999999999
211418.0,57.860100000000003,517.85500000000002,540.45299999999997,493.37900000000002,4.8057999999999996,4.6213199999999999,22.742100000000001
211419.0,40.987499999999997,137.27699999999999,136.25800000000001,137.00399999999999,-1.41218,6.2805,22.765699999999999
211420.0,48.545699999999997,100.491,50.195700000000002,71.478200000000001,-11.598100000000001,-3.4686499999999998,-1.2786299999999999
211421.0,132.32499999999999,-477.77800000000002,-406.81700000000001,-481.07299999999998,35.4208,16.250900000000001,50.575499999999998
211422.0,130.477,838.28399999999999,902.21900000000005,845.63699999999994,36.382399999999997,15.832100000000001,53.633800000000001
211423.0,122.06100000000001,-1652.2,-1600.1099999999999,-1638.76,31.987100000000002,16.781700000000001,54.130800000000001
211424.0,145.00999999999999,-1206.6500000000001,-1164.01,-1185.49,32.502000000000002,22.100200000000001,70.780799999999999
211425.0,190.72900000000001,-633.00900000000001,-608.19200000000001,-598.10500000000002,31.2347,28.655899999999999,100.032
211426.0,234.91,-2512.5100000000002,-2511.3800000000001,-2460.4499999999998,27.872599999999998,36.508099999999999,124.098
211427.0,239.62299999999999,-6093.54,-6117.2200000000003,-6020.9200000000001,19.5961,40.489199999999997,120.824
211428.0,239.184,-5701.1000000000004,-5734.6300000000001,-5622.1599999999999,16.384,41.183199999999999,117.34999999999999
211429.0,215.61699999999999,-6747.4099999999999,-6788.8500000000004,-6668.96,13.4762,38.670699999999997,100.559
211430.0,193.47900000000001,-8087.0,-8129.1300000000001,-8014.3500000000004,14.4404,36.7012,86.898799999999994
211431.0,189.465,-8301.4300000000003,-8348.6599999999999,-8227.8500000000004,13.7727,36.246200000000002,82.189999999999998
211432.0,188.11799999999999,-8692.0699999999997,-8744.6900000000005,-8614.6000000000004,10.773300000000001,35.7483,78.228700000000003
211433.0,165.852,-9155.0400000000009,-9202.8999999999996,-9077.1000000000004,3.14906,31.4026,64.351200000000006
211434.0,147.17400000000001,-9120.7299999999996,-9158.8600000000006,-9047.0300000000007,0.0857348,27.783999999999999,56.713000000000001
211435.0,125.364,-8998.2700000000004,-9023.6499999999996,-8932.1399999999994,-1.5728200000000001,24.048300000000001,49.256599999999999
211436.0,99.525899999999993,-8647.8899999999994,-8658.4899999999998,-8594.7099999999991,-1.3860300000000001,20.170100000000001,41.534100000000002
211437.0,72.892300000000006,-8028.8699999999999,-8022.5799999999999,-7994.5600000000004,0.78434599999999999,16.147300000000001,34.294899999999998
211438.0,56.9238,-7225.6000000000004,-7200.9899999999998,-7215.9399999999996,4.9469599999999998,12.1412,27.467500000000001
211439.0,103.955,-4734.6099999999997,-4674.6999999999998,-4781.3800000000001,16.591000000000001,4.5125700000000002,21.142199999999999
211440.0,116.40900000000001,-3264.0,-3200.3400000000001,-3319.6900000000001,17.424299999999999,4.1319600000000003,25.099399999999999
211441.0,111.107,-1986.97,-1932.23,-2041.6500000000001,15.245699999999999,5.7013699999999998,29.273199999999999
211442.0,89.590199999999996,-934.73500000000001,-898.75900000000001,-975.49199999999996,10.0007,6.6932499999999999,32.507899999999999
211443.0,68.214699999999993,-241.18299999999999,-227.71799999999999,-259.22000000000003,4.1315099999999996,8.4474300000000007,34.825600000000001
211444.0,121.81699999999999,-2485.2399999999998,-2401.23,-2490.3099999999999,17.659800000000001,22.482099999999999,40.321300000000001
211445.0,128.91200000000001,-851.59699999999998,-773.52300000000002,-845.61800000000005,33.867699999999999,14.9251,47.7652
211446.0,251.87200000000001,4806.96,4773.9099999999999,4875.8299999999999,21.728899999999999,44.841000000000001,126.331
211447.0,167.398,9449.25,9410.7099999999991,9526.2600000000002,3.5033500000000002,31.4815,69.829400000000007
211448.0,102.361,5173.5200000000004,5238.1800000000003,5145.3100000000004,11.5654,3.2383099999999998,32.879600000000003
211449.0,120.923,2418.3000000000002,2488.77,2363.0300000000002,13.1882,-4.3537999999999997,26.634499999999999
211450.0,130.34399999999999,9200.5300000000007,9183.3899999999994,9267.1100000000006,-0.372722,23.865200000000002,56.015700000000002
211451.0,248.535,8315.5699999999997,8267.0200000000004,8393.5499999999993,17.021899999999999,47.924700000000001,118.021
211452.0,136.79300000000001,1780.76,1839.8299999999999,1794.47,36.304099999999998,18.139700000000001,60.289400000000001
211453.0,144.09700000000001,1518.55,1585.4300000000001,1523.8099999999999,39.983400000000003,17.255299999999998,60.346200000000003
211454.0,135.75899999999999,66.962199999999996,110.501,94.631,31.670999999999999,21.1449,64.867999999999995
211455.0,170.11000000000001,3649.8099999999999,3668.0100000000002,3688.02,29.731100000000001,28.388400000000001,87.124200000000002
211456.0,219.41300000000001,3033.77,3029.04,3085.0900000000001,28.052,35.710700000000003,114.102
211457.0,249.506,4898.0299999999997,4877.3199999999997,4958.7299999999996,25.553999999999998,42.923900000000003,128.31800000000001
211458.0,241.16200000000001,-4540.0500000000002,-4556.8500000000004,-4476.1999999999998,24.599499999999999,42.510100000000001,123.139
211459.0,254.476,6457.1400000000003,6414.6599999999999,6533.5200000000004,18.499600000000001,46.333300000000001,124.376
211460.0,225.95400000000001,8131.7799999999997,8082.75,8208.7600000000002,15.827,44.992800000000003,103.482
211461.0,209.03299999999999,8798.5300000000007,8748.8700000000008,8875.7600000000002,13.8553,41.854100000000003,92.370199999999997
211462.0,197.357,9221.6000000000004,9171.8600000000006,9299.4599999999991,11.129200000000001,38.987699999999997,84.868099999999998
211463.0,182.84800000000001,9359.5100000000002,9313.5799999999999,9437.3799999999992,7.1631600000000004,35.412100000000002,76.956699999999998
211464.0,170.28299999999999,-9213.9400000000005,-9258.6100000000006,-9137.3899999999994,4.2039499999999999,33.972900000000003,68.812299999999993
211465.0,150.33099999999999,9419.1200000000008,9390.4200000000001,9493.0400000000009,0.978711,27.6264,62.973399999999998
211466.0,108.474,8750.1499999999996,8746.5400000000009,8804.8899999999994,-0.42372300000000002,20.177299999999999,49.456400000000002
211467.0,88.029499999999999,8184.9700000000003,8196.8899999999994,8223.6800000000003,0.90853200000000001,16.444299999999998,43.802900000000001
211468.0,76.059200000000004,7387.6499999999996,7416.75,7406.5600000000004,3.4239700000000002,12.330299999999999,39.326700000000002
211469.0,81.6417,6356.3299999999999,6403.7799999999997,6352.8000000000002,7.2604899999999999,8.2356999999999996,35.9268
211470.0,70.692800000000005,-6000.3199999999997,-5952.6199999999999,-6009.5,6.0710600000000001,4.3387000000000002,26.0334
211471.0,120.443,3847.21,3920.2399999999998,3798.48,13.726599999999999,-1.56003,29.808299999999999
211472.0,94.087199999999996,1185.8299999999999,1238.6700000000001,1143.3,9.3007899999999992,-2.4624000000000001,23.9907
211473.0,54.232399999999998,415.209,438.53100000000001,394.70299999999997,3.8459699999999999,2.9598200000000001,21.816099999999999
211474.0,43.877400000000002,100.011,94.405900000000003,102.795,-0.064561300000000002,7.9142900000000003,23.682099999999998
211475.0,49.269500000000001,90.993200000000002,40.590699999999998,59.4298,-10.7905,-6.4596299999999998,-1.5502
211476.0,136.69900000000001,-409.26900000000001,-341.053,-413.005,38.618600000000001,15.690799999999999,53.390599999999999
211477.0,132.245,-2462.29,-2397.98,-2454.5900000000001,35.916200000000003,16.688800000000001,55.027099999999997
211478.0,126.18300000000001,-602.17399999999998,-544.19100000000003,-585.70000000000005,33.0533,17.310099999999998,54.976999999999997
211479.0,151.26599999999999,-1797.71,-1753.04,-1774.24,32.765799999999999,22.7775,74.399799999999999
211480.0,194.196,-3743.3699999999999,-3723.4099999999999,-3710.1599999999999,32.419699999999999,30.530100000000001,101.529
211481.0,231.82900000000001,-3937.0799999999999,-3935.27,-3885.4299999999998,27.767700000000001,37.900500000000001,121.854
211482.0,245.005,-5006.0799999999999,-5034.29,-4933.9700000000003,20.570799999999998,44.278500000000001,122.264
211483.0,244.50200000000001,-7453.8999999999996,-7493.3900000000003,-7375.4899999999998,16.453800000000001,45.738500000000002,118.16500000000001
211484.0,227.327,-8278.9200000000001,-8327.5400000000009,-8200.1599999999999,15.292999999999999,45.083300000000001,104.056
211485.0,208.66399999999999,-8177.0299999999997,-8226.9099999999999,-8100.2600000000002,13.478899999999999,41.914700000000003,92.220399999999998
211486.0,196.721,-8820.1499999999996,-8871.3400000000001,-8744.1499999999996,11.441700000000001,39.6721,84.259799999999998
211487.0,184.08699999999999,-9103.8199999999997,-9153.7900000000009,-9027.4799999999996,8.1115899999999996,37.253900000000002,76.129800000000003
211488.0,154.88300000000001,-9302.4599999999991,-9339.0200000000004,-9226.9400000000005,0.95381400000000005,30.143000000000001,61.804600000000001
211489.0,137.143,-9241.0799999999999,-9268.0100000000002,-9169.4200000000001,-1.5194700000000001,26.2483,54.602800000000002
211490.0,116.422,-8934.7000000000007,-8950.2800000000007,-8871.0599999999995,-2.8280400000000001,22.302199999999999,47.445700000000002
211491.0,93.775899999999993,-8484.9300000000003,-8486.9200000000001,-8433.5300000000007,-2.57613,18.375299999999999,40.877899999999997
211492.0,72.507999999999996,-7892.1599999999999,-7878.6000000000004,-7857.1400000000003,-0.94476700000000002,14.1914,35.190199999999997
211493.0,61.123699999999999,-7044.3299999999999,-7013.7700000000004,-7029.71,1.9241200000000001,9.40747,30.3231
211494.0,96.3476,-4814.7399999999998,-4752.7399999999998,-4849.3500000000004,9.9993200000000009,-0.89144500000000004,24.447099999999999
211495.0,117.10899999999999,-3429.7199999999998,-3361.0999999999999,-3483.1300000000001,12.5153,-4.1640199999999998,25.592400000000001
211496.0,118.255,-1981.53,-1917.8,-2036.4100000000001,12.862,-3.2042700000000002,31.0198
211497.0,93.909999999999997,-826.851,-785.07399999999996,-865.39700000000005,9.7704500000000003,1.6333899999999999,35.039000000000001
211498.0,68.183300000000003,-156.84,-147.02099999999999,-170.54499999999999,5.2688800000000002,7.6898299999999997,36.375300000000003
211499.0,125.197,1850.0799999999999,1924.6800000000001,1837.71,21.916899999999998,25.444299999999998,43.4011
211500.0,131.08500000000001,1160.4200000000001,1236.3099999999999,1166.02,36.490200000000002,12.0334,49.627699999999997
211501.0,256.11000000000001,6102.6899999999996,6057.5799999999999,6165.8100000000004,25.1492,47.985799999999998,126.386
211502.0,155.71299999999999,9442.6000000000004,9408.6599999999999,9510.8600000000006,3.9925999999999999,31.5106,66.059600000000003
211503.0,101.27200000000001,4713.7399999999998,4776.8299999999999,4684.6300000000001,8.2100899999999992,-2.7890799999999998,33.501100000000001
211504.0,113.499,2121.23,2186.6399999999999,2070.8899999999999,13.4023,-3.7498900000000002,27.0503
211505.0,113.28,8877.4200000000001,8867.7099999999991,8933.5300000000007,-0.47881800000000002,20.622900000000001,50.889000000000003
211506.0,246.33699999999999,6759.25,6705.0699999999997,6832.7600000000002,18.179500000000001,49.489600000000003,115.501
211507.0,137.929,267.029,322.63299999999998,278.673,32.8003,20.153300000000002,63.241700000000002
211508.0,144.655,-311.56200000000001,-245.58799999999999,-305.065,39.4739,17.510300000000001,61.548499999999997
211509.0,132.61799999999999,2810.27,2848.1700000000001,2833.1999999999998,28.970199999999998,20.314800000000002,65.1631
211510.0,168.078,503.92200000000003,516.46799999999996,539.72000000000003,29.206700000000001,28.632400000000001,86.104100000000003
211511.0,221.78299999999999,3081.5599999999999,3066.3000000000002,3127.5700000000002,27.852499999999999,38.412300000000002,114.574
211512.0,250.797,3620.0999999999999,3585.7199999999998,3674.1199999999999,26.470500000000001,45.394199999999998,127.354
211513.0,243.46100000000001,-4534.4399999999996,-4565.7200000000003,-4477.8100000000004,26.2623,44.986699999999999,122.715
211514.0,255.79300000000001,6661.0699999999997,6608.3800000000001,6730.5600000000004,21.846399999999999,49.351599999999998,123.05200000000001
211515.0,229.04499999999999,8473.9799999999996,8421.4799999999996,8549.7700000000004,14.889200000000001,47.183799999999998,104.304
211516.0,210.63,8896.1499999999996,8845.9200000000001,8971.6200000000008,11.773,43.9679,93.346000000000004
211517.0,194.041,9195.4799999999996,9148.3099999999995,9270.1100000000006,8.9635099999999994,40.576500000000003,83.975700000000003
211518.0,174.91900000000001,9452.3799999999992,9410.75,9524.7099999999991,6.2591000000000001,36.303400000000003,74.273799999999994
211519.0,161.441,-9306.6000000000004,-9347.2800000000007,-9235.9099999999999,4.2126700000000001,34.619799999999998,65.539000000000001
211520.0,134.505,9231.0,9207.6800000000003,9293.7700000000004,1.68502,26.036799999999999,58.026600000000002
211521.0,94.1875,8418.2299999999996,8423.7600000000002,8465.3199999999997,-2.1713399999999998,15.7247,45.193899999999999
211522.0,79.4345,7719.79,7740.5799999999999,7753.7299999999996,-2.7981099999999999,11.1531,40.966700000000003
211523.0,73.479200000000006,6885.29,6920.04,6901.3800000000001,-1.1830700000000001,7.0087700000000002,38.036999999999999
211524.0,81.559600000000003,5909.1599999999999,5957.5,5903.75,3.00007,2.1245599999999998,36.443100000000001
211525.0,72.184399999999997,-5569.1000000000004,-5521.0600000000004,-5580.1999999999998,2.3269799999999998,-0.87948499999999996,27.250599999999999
211526.0,114.96899999999999,3369.4299999999998,3439.75,3323.9200000000001,11.9819,-4.2923400000000003,28.950500000000002
211527.0,90.137600000000006,1045.1800000000001,1094.25,1004.59,10.4178,-2.3237000000000001,24.047599999999999
211528.0,48.357700000000001,284.411,305.48500000000001,268.27800000000002,3.7923800000000001,2.8938199999999998,20.214099999999998
211529.0,50.5565,50.0501,40.383699999999997,61.173699999999997,-0.70779099999999995,9.6335899999999999,25.503799999999998
211530.0,50.6952,58.375,9.3779900000000005,32.686799999999998,-11.382899999999999,-11.1967,-1.04006
211531.0,136.80099999999999,-550.86199999999997,-483.96100000000001,-554.36699999999996,40.4848,13.7189,53.261400000000002
211532.0,135.13499999999999,740.91399999999999,803.95299999999997,748.02499999999998,34.667099999999998,17.869599999999998,58.085799999999999
211533.0,125.34399999999999,-1764.27,-1711.9100000000001,-1749.5,29.963200000000001,17.7437,57.405700000000003
211534.0,146.191,-1319.76,-1279.1300000000001,-1299.01,30.966799999999999,21.2286,72.812399999999997
211535.0,195.69399999999999,-768.98900000000003,-753.47900000000004,-738.85199999999998,32.9559,31.837399999999999,102.17
211536.0,231.79300000000001,-2707.1700000000001,-2719.3800000000001,-2661.8499999999999,27.7638,39.782600000000002,120.98399999999999
211537.0,247.18700000000001,-6350.8999999999996,-6394.2799999999997,-6286.3900000000003,22.848099999999999,47.8444,120.867
211538.0,242.322,-6022.9200000000001,-6073.96,-5952.4799999999996,18.375699999999998,49.093000000000004,114.476
211539.0,228.495,-7041.9899999999998,-7094.9799999999996,-6967.9799999999996,15.3751,48.205399999999997,103.797
211540.0,212.22200000000001,-8493.4699999999993,-8545.7700000000004,-8418.0300000000007,12.014900000000001,45.238399999999999,93.259500000000003
211541.0,196.005,-8791.8099999999995,-8841.7600000000002,-8717.0900000000001,9.31264,41.987099999999998,83.781400000000005
211542.0,178.727,-9115.7199999999993,-9162.0,-9042.2199999999993,6.5733499999999996,38.460599999999999,74.008099999999999
211543.0,141.435,-9217.5400000000009,-9249.6100000000006,-9151.2399999999998,1.74031,29.920400000000001,57.0336
211544.0,120.142,-8969.4500000000007,-8989.8899999999994,-8908.8099999999995,-0.84703399999999995,24.687899999999999,49.224699999999999
211545.0,99.895099999999999,-8646.8799999999992,-8653.5799999999999,-8593.1800000000003,-3.3486400000000001,19.4831,42.889000000000003
211546.0,81.764799999999994,-8133.8800000000001,-8126.7299999999996,-8089.9499999999998,-5.2687999999999997,14.4361,37.901699999999998
211547.0,67.308999999999997,-7412.9300000000003,-7392.6800000000003,-7383.1899999999996,-5.2745899999999999,9.5406700000000004,34.065199999999997
211548.0,61.766599999999997,-6579.2399999999998,-6546.5900000000001,-6568.0900000000001,-2.3009200000000001,4.8891799999999996,31.098500000000001
211549.0,97.982200000000006,-4320.6199999999999,-4257.2299999999996,-4355.0,8.2359000000000009,-5.15733,25.414400000000001
211550.0,112.956,-2980.4099999999999,-2913.8400000000001,-3028.23,13.0183,-5.3708499999999999,27.4634
211551.0,110.904,-1770.03,-1710.8599999999999,-1819.4100000000001,13.925599999999999,-4.6598199999999999,30.500399999999999
211552.0,90.176699999999997,-716.85000000000002,-676.94600000000003,-752.21400000000006,10.892300000000001,-0.769783,34.254399999999997
211553.0,69.851100000000002,-45.106200000000001,-39.551000000000002,-51.271099999999997,5.8272000000000004,7.9231699999999998,38.668999999999997
211554.0,127.384,-2630.1500000000001,-2558.6700000000001,-2642.3299999999999,22.4057,22.689900000000002,48.469200000000001
211555.0,133.81999999999999,-789.47900000000004,-717.50699999999995,-789.673,38.668900000000001,15.4902,50.026899999999998
211556.0,257.65800000000002,5033.0799999999999,4976.9700000000003,5087.1999999999998,32.236800000000002,51.332299999999996,124.16500000000001
211557.0,145.81200000000001,9228.6800000000003,9200.3299999999999,9289.6000000000004,3.7193499999999999,31.593599999999999,63.200899999999997
211558.0,88.448700000000002,4122.79,4169.6000000000004,4093.5999999999999,8.8957099999999993,1.1254,32.515999999999998
211559.0,104.73099999999999,1786.78,1845.71,1740.95,15.9071,-4.7665600000000001,24.9512
211560.0,96.126999999999995,8554.3099999999995,8552.0200000000004,8596.7199999999993,1.3989499999999999,18.165299999999998,45.982900000000001
211561.0,238.22,8441.5599999999995,8385.4699999999993,8507.8799999999992,20.145,50.517099999999999,110.471
211562.0,137.45699999999999,1872.8,1915.6300000000001,1880.23,36.541800000000002,19.8094,63.612900000000003
211563.0,143.238,1480.73,1540.8399999999999,1485.5899999999999,42.6858,15.748799999999999,60.449800000000003
211564.0,133.15199999999999,243.114,265.50999999999999,255.77000000000001,30.543299999999999,22.446200000000001,65.9315
211565.0,166.28999999999999,3744.6500000000001,3742.27,3770.2399999999998,31.930099999999999,29.6904,84.117800000000003
211566.0,222.85599999999999,3150.0900000000001,3117.21,3185.9099999999999,37.154299999999999,41.2759,110.86199999999999
211567.0,254.95400000000001,5083.5299999999997,5032.7299999999996,5128.6599999999999,37.102600000000002,48.857999999999997,124.901
211568.0,247.102,-4793.3900000000003,-4840.6899999999996,-4746.1099999999997,33.596899999999998,49.235799999999998,120.681
211569.0,250.28899999999999,6672.1199999999999,6614.3199999999997,6732.9700000000003,26.2178,51.5122,118.407
211570.0,223.93299999999999,8189.6800000000003,8136.0900000000001,8259.7700000000004,15.0839,48.6372,101.367
211571.0,206.898,8832.0200000000004,8782.25,8902.9699999999993,11.322800000000001,45.581600000000002,91.555499999999995
211572.0,189.38999999999999,9215.5400000000009,9170.2299999999996,9285.4799999999996,8.4080399999999997,41.931100000000001,82.194800000000001
211573.0,167.73699999999999,9272.0400000000009,9234.1800000000003,9338.6100000000006,5.6198399999999999,37.015900000000002,71.984300000000005
211574.0,153.226,-9083.9699999999993,-9120.9500000000007,-9019.2199999999993,3.3421400000000001,35.051499999999997,62.729199999999999
211575.0,121.331,9009.9599999999991,8993.4899999999998,9062.7700000000004,2.2947700000000002,25.374500000000001,54.294400000000003
211576.0,74.406999999999996,7844.9899999999998,7860.29,7875.4899999999998,0.39075900000000002,10.4587,38.773299999999999
211577.0,63.920999999999999,7053.5600000000004,7084.7299999999996,7071.0200000000004,-1.3238799999999999,5.0294699999999999,33.027099999999997
211578.0,66.177199999999999,6136.7600000000002,6175.4499999999998,6141.5299999999997,-1.7590600000000001,3.0650599999999999,31.658799999999999
211579.0,74.541899999999998,5154.2600000000002,5194.9700000000003,5143.7200000000003,1.6654800000000001,3.17923,33.267400000000002
211580.0,69.129300000000001,-4786.7200000000003,-4747.3999999999996,-4798.9099999999999,3.8290899999999999,0.52258099999999996,29.213100000000001
211581.0,102.735,2972.7399999999998,3029.3899999999999,2931.3000000000002,15.066800000000001,-3.7437200000000002,29.197800000000001
211582.0,83.254300000000001,812.34199999999998,856.19299999999998,774.24699999999996,12.231999999999999,-0.87775999999999998,21.8748
211583.0,44.374299999999998,198.19999999999999,213.69200000000001,182.73500000000001,5.5142499999999997,4.7937700000000003,19.0625
211584.0,53.590299999999999,27.1861,10.6075,36.438200000000002,0.68487900000000002,13.0379,24.810700000000001
211585.0,52.8035,-2.2551800000000002,-54.275599999999997,-29.433299999999999,-11.9689,-10.447699999999999,-0.080793000000000004
211586.0,138.07300000000001,-383.452,-319.221,-390.36500000000001,43.191699999999997,15.8088,51.9634
211587.0,134.71299999999999,-2457.0799999999999,-2399.0500000000002,-2451.77,37.260100000000001,16.200199999999999,58.0471
211588.0,127.09099999999999,-791.16399999999999,-752.72199999999998,-782.83000000000004,33.0959,18.632100000000001,59.435499999999998
211589.0,143.232,-1981.48,-1956.8599999999999,-1969.26,31.947199999999999,21.984200000000001,71.992800000000003
211590.0,192.184,-3841.1799999999998,-3839.9000000000001,-3819.8800000000001,37.137900000000002,32.026000000000003,98.813400000000001
211591.0,233.791,-4124.1999999999998,-4155.8299999999999,-4091.0799999999999,39.001399999999997,43.587499999999999,117.261
211592.0,244.35599999999999,-5296.0500000000002,-5350.46,-5240.2799999999997,27.213200000000001,50.805799999999998,116.38800000000001
211593.0,234.983,-7685.04,-7741.04,-7623.2700000000004,21.3657,51.010399999999997,108.982
211594.0,222.334,-8370.8500000000004,-8425.1100000000006,-8303.9699999999993,16.001799999999999,49.4968,100.44799999999999
211595.0,208.261,-8216.4200000000001,-8268.4400000000005,-8146.1800000000003,11.797599999999999,47.043900000000001,91.328699999999998
211596.0,192.24199999999999,-8837.9599999999991,-8886.7199999999993,-8767.6100000000006,8.7423400000000004,43.811500000000002,82.082999999999998
211597.0,173.24700000000001,-9070.5799999999999,-9114.7099999999991,-9001.8700000000008,5.7136699999999996,39.791800000000002,71.798199999999994
211598.0,130.02699999999999,-9022.4699999999993,-9049.4200000000001,-8963.9099999999999,1.3502099999999999,29.487200000000001,53.413699999999999
211599.0,104.79300000000001,-8754.4699999999993,-8769.2399999999998,-8704.6800000000003,-0.081441700000000006,23.339600000000001,44.402299999999997
211600.0,78.733999999999995,-8202.6200000000008,-8202.4599999999991,-8164.0299999999997,-1.55568,16.560300000000002,35.989699999999999
211601.0,59.557400000000001,-7504.8900000000003,-7487.0799999999999,-7479.1199999999999,-3.4787699999999999,9.9476700000000005,29.9527
211602.0,57.854999999999997,-6699.0200000000004,-6669.5500000000002,-6686.3599999999997,-3.9297900000000001,5.8970599999999997,29.101800000000001
211603.0,63.545000000000002,-5756.8699999999999,-5722.8599999999997,-5755.2600000000002,-1.81406,3.4958399999999998,31.020700000000001
211604.0,85.853800000000007,-3745.8699999999999,-3694.9699999999998,-3774.8200000000002,11.493,-3.6566700000000001,26.0307
211605.0,103.63500000000001,-2559.8699999999999,-2498.3099999999999,-2600.0900000000001,15.7012,-6.5038299999999998,25.7578
211606.0,104.395,-1408.28,-1352.54,-1452.47,16.590499999999999,-3.28329,28.973600000000001
211607.0,84.490600000000001,-518.58100000000002,-484.93599999999998,-552.00599999999997,13.686999999999999,2.3808400000000001,32.587400000000002
211608.0,69.349800000000002,10.568099999999999,9.1495599999999992,4.5758400000000004,7.7059800000000003,10.5497,37.718000000000004
211609.0,127.41200000000001,1772.78,1836.5699999999999,1758.27,26.463999999999999,20.1404,50.6965
211610.0,138.381,1220.95,1293.96,1220.5599999999999,38.755600000000001,17.527899999999999,52.793300000000002
211611.0,251.17099999999999,6273.29,6216.6899999999996,6321.4099999999999,35.128700000000002,51.910800000000002,119.801
211612.0,134.81100000000001,8896.0499999999993,8875.5499999999993,8950.3199999999997,2.7941400000000001,29.978899999999999,60.486499999999999
211613.0,69.737300000000005,3547.8699999999999,3570.2199999999998,3536.6199999999999,8.47227,7.42178,34.664499999999997
211614.0,102.06,1869.6800000000001,1924.6800000000001,1824.02,16.678699999999999,-8.0225500000000007,24.274100000000001
211615.0,85.222800000000007,8020.2600000000002,8033.4899999999998,8055.6700000000001,-0.89532800000000001,13.5556,43.775599999999997
211616.0,227.93000000000001,6666.6000000000004,6613.3599999999997,6727.04,20.555,50.747999999999998,105.28400000000001
211617.0,138.47300000000001,277.67500000000001,314.54300000000001,282.637,44.140900000000002,20.3276,60.2468
211618.0,142.97999999999999,-243.92699999999999,-188.09,-244.56999999999999,44.189900000000002,16.258400000000002,59.548400000000001
211619.0,142.60300000000001,2921.3499999999999,2931.5300000000002,2928.5100000000002,42.547400000000003,25.956900000000001,65.323400000000007
211620.0,175.22300000000001,745.75599999999997,726.65599999999995,759.72699999999998,42.921399999999998,33.080300000000001,83.798699999999997
211621.0,224.78399999999999,3278.3600000000001,3238.1599999999999,3306.6100000000001,45.845199999999998,44.445099999999996,107.621
211622.0,253.768,3788.21,3735.5700000000002,3829.3000000000002,43.1907,51.0824,121.589
211623.0,244.36600000000001,-4720.5299999999997,-4772.1099999999997,-4679.1800000000003,37.584699999999998,51.785499999999999,116.80200000000001
211624.0,239.298,6728.2799999999997,6673.1599999999999,6783.1899999999996,27.056999999999999,51.444000000000003,112.61799999999999
211625.0,215.59299999999999,8264.2199999999993,8212.7900000000009,8328.2600000000002,15.526400000000001,49.214500000000001,97.384399999999999
211626.0,199.37,8609.6200000000008,8562.3999999999996,8674.5300000000007,11.4054,46.290399999999998,88.359999999999999
211627.0,181.31899999999999,8840.8299999999999,8799.3299999999999,8904.6100000000006,7.9064899999999998,42.343000000000004,79.317499999999995
211628.0,158.40000000000001,9014.75,8982.4300000000003,9074.8700000000008,4.8949299999999996,36.650199999999998,69.250200000000007
211629.0,143.303,-8841.9500000000007,-8873.3400000000001,-8783.7199999999993,2.1664500000000002,34.507899999999999,59.846400000000003
211630.0,109.41500000000001,8547.5200000000004,8542.2800000000007,8594.0100000000002,0.83194400000000002,22.2013,51.8292
211631.0,68.747200000000007,7304.0600000000004,7338.5100000000002,7323.4799999999996,-2.6104500000000002,3.46055,35.471299999999999
211632.0,67.055000000000007,6236.6199999999999,6286.0600000000004,6241.5200000000004,-4.6130199999999997,-4.1462399999999997,26.801500000000001
211633.0,63.226799999999997,5131.6400000000003,5176.3000000000002,5129.9799999999996,-4.4083500000000004,-2.53579,24.820799999999998
211634.0,60.1128,4247.1300000000001,4274.8800000000001,4244.1999999999998,0.22009300000000001,4.7732000000000001,29.917400000000001
211635.0,67.234300000000005,-3870.4299999999998,-3845.7800000000002,-3869.5300000000002,6.1361499999999998,5.8269099999999998,35.210000000000001
211636.0,87.713399999999993,2827.2600000000002,2864.5599999999999,2796.1500000000001,16.016500000000001,0.81467699999999998,33.6768
211637.0,82.348399999999998,851.51300000000003,896.43200000000002,813.18200000000002,11.650600000000001,-6.1251899999999999,18.7318
211638.0,42.339100000000002,198.137,211.24199999999999,182.25999999999999,5.2366000000000001,3.1694200000000001,18.693100000000001
211639.0,53.737200000000001,38.230400000000003,19.736699999999999,45.029400000000003,1.50939,13.575200000000001,24.59
211640.0,54.923400000000001,6.0366,-49.031100000000002,-25.578299999999999,-11.287100000000001,-10.6921,0.37542500000000001
211641.0,142.23400000000001,-623.85799999999995,-559.05899999999997,-630.95299999999997,43.625100000000003,17.271100000000001,54.5199
211642.0,131.523,728.12900000000002,781.22799999999995,729.35699999999997,40.640599999999999,16.043900000000001,54.2072
211643.0,133.899,-1783.05,-1748.21,-1778.8,42.3294,20.771799999999999,58.238100000000003
211644.0,153.90100000000001,-1534.01,-1526.49,-1530.0799999999999,43.6312,25.218299999999999,73.084699999999998
211645.0,194.18199999999999,-1034.0999999999999,-1047.6099999999999,-1021.01,45.484999999999999,34.253500000000003,95.654499999999999
211646.0,233.69,-2871.6599999999999,-2906.48,-2843.3099999999999,45.896500000000003,46.390599999999999,113.771
211647.0,235.19300000000001,-6521.7799999999997,-6576.8100000000004,-6472.9499999999998,28.9633,51.970700000000001,110.447
211648.0,224.36199999999999,-6043.6599999999999,-6097.3199999999997,-5988.4099999999999,21.794499999999999,51.036900000000003,103.605
211649.0,213.60499999999999,-6902.2299999999996,-6954.3400000000001,-6841.75,16.388100000000001,49.762,96.378699999999995
211650.0,200.77500000000001,-8254.6000000000004,-8304.8099999999995,-8190.7799999999997,11.8477,47.749099999999999,88.036299999999997
211651.0,184.858,-8483.4300000000003,-8529.6299999999992,-8419.2900000000009,8.1748600000000007,44.570700000000002,79.162700000000001
211652.0,165.06999999999999,-8737.8600000000006,-8778.0300000000007,-8675.2999999999993,4.7280199999999999,40.131700000000002,69.061700000000002
211653.0,118.07899999999999,-8640.7399999999998,-8659.7900000000009,-8588.9200000000001,-0.39732800000000001,27.5503,50.431699999999999
211654.0,91.526200000000003,-8251.8600000000006,-8255.3299999999999,-8208.5300000000007,-3.0055200000000002,19.577500000000001,41.475000000000001
211655.0,65.602400000000003,-7733.2399999999998,-7717.3599999999997,-7701.7700000000004,-5.6866599999999998,10.4735,32.325899999999997
211656.0,55.069099999999999,-6900.9700000000003,-6863.0600000000004,-6885.8999999999996,-7.0784099999999999,0.68176800000000004,24.4099
211657.0,66.050799999999995,-5743.4499999999998,-5694.9899999999998,-5740.7200000000003,-4.5631300000000001,-2.97864,26.139299999999999
211658.0,69.803899999999999,-4665.6300000000001,-4627.1599999999999,-4665.54,0.87770499999999996,1.41852,33.603499999999997
211659.0,62.214300000000001,-3261.1799999999998,-3233.5700000000002,-3271.0700000000002,10.265499999999999,2.78809,28.2715
211660.0,83.502200000000002,-2560.5900000000001,-2512.1599999999999,-2594.2199999999998,13.418900000000001,-6.4094199999999999,20.034400000000002
211661.0,101.422,-1513.6199999999999,-1459.3099999999999,-1559.3399999999999,15.699400000000001,-8.1968700000000005,24.643899999999999
211662.0,83.140299999999996,-501.596,-470.726,-536.221,13.938800000000001,0.0420378,32.190800000000003
211663.0,68.528999999999996,22.273,17.230599999999999,13.088900000000001,8.81738,11.209300000000001,36.617699999999999
211664.0,129.17699999999999,-2521.9499999999998,-2468.1700000000001,-2543.96,31.986799999999999,20.927600000000002,50.8033
211665.0,140.12299999999999,-809.21600000000001,-737.71299999999997,-806.80999999999995,41.749899999999997,15.200799999999999,54.054600000000001
211666.0,234.779,5077.2600000000002,5023.3100000000004,5118.1199999999999,35.360799999999998,50.031300000000002,111.172
211667.0,122.468,8323.6599999999999,8314.0599999999995,8370.4200000000001,1.4633,27.735499999999998,57.609999999999999
211668.0,67.994299999999996,3296.2800000000002,3299.0599999999999,3295.54,8.6490100000000005,9.4906199999999998,37.050699999999999
211669.0,98.909700000000001,1869.48,1921.0799999999999,1825.45,16.386299999999999,-9.4336800000000007,24.744900000000001
211670.0,74.350700000000003,7276.9799999999996,7304.8599999999997,7301.4499999999998,-2.1304799999999999,7.3548499999999999,39.404200000000003
211671.0,214.774,8103.6400000000003,8054.1499999999996,8157.54,20.236599999999999,49.370699999999999,99.272800000000004
211672.0,141.59200000000001,1922.29,1961.4400000000001,1925.6300000000001,46.154200000000003,21.6751,60.0976
211673.0,147.446,1591.9300000000001,1645.6099999999999,1587.5999999999999,46.552900000000001,19.2212,60.544400000000003
211674.0,147.65299999999999,292.733,305.42599999999999,301.19299999999998,47.134500000000003,28.967300000000002,64.534099999999995
211675.0,188.72999999999999,3944.5300000000002,3922.04,3957.1100000000001,51.0807,38.611199999999997,86.355099999999993
211676.0,230.25299999999999,3437.4899999999998,3393.23,3461.1100000000001,50.539400000000001,46.1554,108.628
211677.0,242.548,5305.8100000000004,5252.1400000000003,5338.1800000000003,44.502200000000002,49.883099999999999,115.11799999999999
211678.0,228.99600000000001,-4964.7799999999997,-5018.25,-4932.9799999999996,38.316400000000002,50.604199999999999,107.675
211679.0,224.93100000000001,6506.9899999999998,6455.1899999999996,6555.3199999999997,26.7666,50.0428,105.52800000000001
211680.0,203.321,7714.4499999999998,7668.3000000000002,7772.4899999999998,14.845000000000001,47.976799999999997,92.370400000000004
211681.0,188.21299999999999,8245.6000000000004,8204.8500000000004,8305.0900000000001,10.295299999999999,45.2746,84.326400000000007
211682.0,170.49100000000001,8531.7900000000009,8498.2199999999993,8590.1599999999999,6.5831,41.354700000000001,75.968599999999995
211683.0,147.679,8488.75,8465.6599999999999,8542.9799999999996,3.53369,35.420699999999997,66.5364
211684.0,132.29900000000001,-8281.6399999999994,-8303.5699999999997,-8229.0699999999997,0.248423,33.030799999999999,57.2468
211685.0,95.873800000000003,7942.1099999999997,7949.1599999999999,7978.9099999999999,-0.34720899999999999,18.274000000000001,48.459200000000003
211686.0,66.918700000000001,6326.6800000000003,6373.3599999999997,6335.0699999999997,-4.3189399999999996,-1.56525,29.196200000000001
211687.0,65.036900000000003,5322.4700000000003,5372.71,5319.1199999999999,-5.5737300000000003,-4.9723499999999996,21.286200000000001
211688.0,49.288499999999999,4357.3599999999997,4387.9300000000003,4355.6300000000001,-4.1196799999999998,0.33329199999999998,21.508099999999999
211689.0,55.778700000000001,3690.9499999999998,3696.0700000000002,3696.1900000000001,1.67624,8.7718100000000003,30.7959
211690.0,66.561300000000003,-3416.8499999999999,-3415.1700000000001,-3407.5500000000002,5.76302,9.7285400000000006,36.392499999999998
211691.0,79.351299999999995,2765.5900000000001,2792.6100000000001,2741.4499999999998,14.845599999999999,1.0013799999999999,34.966200000000001
211692.0,83.603800000000007,880.53099999999995,925.09400000000005,840.25900000000001,12.133800000000001,-9.2649100000000004,17.204999999999998
211693.0,41.341099999999997,225.43199999999999,237.16300000000001,207.82300000000001,6.1502499999999998,1.4123300000000001,17.657399999999999
211694.0,52.374499999999998,45.678400000000003,26.610900000000001,49.683700000000002,2.8547400000000001,12.663500000000001,24.369199999999999
211695.0,61.839599999999997,10.8123,-46.485100000000003,-25.592199999999998,-10.5815,-17.853999999999999,1.7827299999999999
211696.0,143.745,-435.53699999999998,-371.41899999999998,-440.637,44.314900000000002,15.6243,56.494199999999999
211697.0,135.25800000000001,-2532.3400000000001,-2482.27,-2534.7199999999998,43.5931,18.662199999999999,54.518000000000001
211698.0,135.56,-752.548,-711.32899999999995,-746.43700000000001,43.528399999999998,21.770700000000001,57.113799999999998
211699.0,165.67400000000001,-2011.3099999999999,-2000.51,-2008.1300000000001,52.040100000000002,29.3688,74.483500000000006
211700.0,206.76900000000001,-4078.6500000000001,-4099.25,-4068.02,53.174599999999998,39.070700000000002,98.209000000000003
211701.0,229.69999999999999,-4414.2799999999997,-4455.8100000000004,-4389.9899999999998,46.034500000000001,46.962899999999998,110.249
211702.0,220.15700000000001,-5260.04,-5312.25,-5219.6000000000004,29.1419,50.738300000000002,102.836
211703.0,211.41,-7452.5900000000001,-7502.7799999999997,-7404.4399999999996,21.8462,49.956200000000003,97.504300000000001
211704.0,201.399,-7985.0900000000001,-8032.9799999999996,-7931.3900000000003,15.9565,48.7196,91.154700000000005
211705.0,189.35599999999999,-7710.0100000000002,-7754.7399999999998,-7652.4300000000003,10.783300000000001,46.767600000000002,83.7727
211706.0,174.31399999999999,-8231.0300000000007,-8270.6700000000001,-8172.4499999999998,6.6065199999999997,43.697099999999999,75.723600000000005
211707.0,154.93799999999999,-8371.2000000000007,-8403.5300000000007,-8314.0799999999999,2.9588000000000001,39.1691,66.387900000000002
211708.0,105.217,-8088.25,-8095.75,-8043.4099999999999,-2.1053899999999999,24.962199999999999,47.555999999999997
211709.0,76.935900000000004,-7645.2299999999996,-7634.4899999999998,-7610.6599999999999,-4.5130299999999997,15.2202,37.521000000000001
211710.0,57.908299999999997,-6877.3900000000003,-6843.7799999999997,-6855.6800000000003,-7.3526699999999998,4.1287000000000003,27.5002
211711.0,61.453000000000003,-5916.8299999999999,-5867.3199999999997,-5910.75,-6.8094900000000003,-3.8722099999999999,21.641500000000001
211712.0,65.034999999999997,-4877.21,-4831.7299999999996,-4878.7299999999996,-2.1461000000000001,-4.4559300000000004,25.922799999999999
211713.0,65.357699999999994,-3932.9099999999999,-3912.9000000000001,-3928.6900000000001,3.6070700000000002,3.8477800000000002,35.844099999999997
211714.0,50.781199999999998,-3116.8200000000002,-3105.6999999999998,-3119.9000000000001,6.7136500000000003,5.5543300000000002,26.9788
211715.0,71.732100000000003,-2529.9699999999998,-2489.8699999999999,-2560.1700000000001,10.702299999999999,-5.6195899999999996,18.0291
211716.0,98.547799999999995,-1541.3900000000001,-1489.1900000000001,-1587.0599999999999,15.460000000000001,-10.938499999999999,21.922899999999998
211717.0,83.250600000000006,-540.25900000000001,-510.20100000000002,-575.59799999999996,15.6386,-3.3363999999999998,31.353200000000001
211718.0,67.584599999999995,18.222899999999999,12.242900000000001,7.9563499999999996,10.7056,9.7014399999999998,35.8782
211719.0,132.214,1747.1500000000001,1794.5799999999999,1721.0899999999999,36.625500000000002,20.7622,51.6355
211720.0,139.08099999999999,1230.0799999999999,1298.29,1232.4200000000001,43.501399999999997,13.1417,53.692999999999998
211721.0,216.72,6172.6599999999999,6119.8500000000004,6203.1999999999998,36.802399999999999,48.1873,101.002
211722.0,113.565,7613.3100000000004,7615.9899999999998,7655.3900000000003,-0.078717300000000004,26.340699999999998,55.228499999999997
211723.0,74.214200000000005,3161.8000000000002,3158.2600000000002,3160.9400000000001,11.0282,13.490399999999999,39.100999999999999
211724.0,91.956599999999995,1785.29,1834.46,1749.3399999999999,15.645099999999999,-8.0673300000000001,26.138100000000001
211725.0,71.512699999999995,6462.3500000000004,6497.5200000000004,6475.96,-0.060386799999999997,7.9986300000000004,36.417900000000003
211726.0,196.28800000000001,6106.8000000000002,6061.5900000000001,6151.7799999999997,20.521599999999999,46.230899999999998,90.834900000000005
211727.0,143.77199999999999,412.12799999999999,446.29199999999997,411.25599999999997,44.3048,22.736699999999999,63.332299999999996
211728.0,150.506,-212.06899999999999,-158.91200000000001,-213.86199999999999,48.484999999999999,20.004899999999999,61.846600000000002
211729.0,147.096,3013.79,3020.8800000000001,3018.8400000000001,43.319299999999998,29.8125,66.586200000000005
211730.0,195.261,893.85900000000004,868.08500000000004,906.38900000000001,52.545999999999999,40.2986,89.120800000000003
211731.0,231.803,3585.2399999999998,3535.5700000000002,3602.6700000000001,54.8949,46.598100000000002,107.303
211732.0,228.28,3984.5900000000001,3929.54,4006.4000000000001,46.665300000000002,48.293100000000003,106.26300000000001
211733.0,212.512,-4814.0200000000004,-4867.1099999999997,-4792.1300000000001,39.961500000000001,49.027500000000003,97.808099999999996
211734.0,206.911,6376.4200000000001,6326.6000000000004,6414.8299999999999,28.013500000000001,47.5152,96.2881
211735.0,184.904,7517.5699999999997,7478.1400000000003,7567.6199999999999,14.145,44.465000000000003,84.901899999999998
211736.0,171.20699999999999,7697.7399999999998,7666.0699999999997,7750.7700000000004,8.7851800000000004,41.776200000000003,78.208299999999994
211737.0,155.40100000000001,7789.5299999999997,7767.3900000000003,7842.8400000000001,4.5159500000000001,38.116399999999999,71.222700000000003
211738.0,135.88399999999999,7843.4499999999998,7832.79,7893.4899999999998,1.4322999999999999,32.9754,63.363799999999998
211739.0,121.932,-7671.3000000000002,-7680.3599999999997,-7622.5100000000002,-2.0450599999999999,30.760000000000002,55.111499999999999
211740.0,90.483699999999999,7143.6499999999996,7161.6000000000004,7173.7200000000003,-0.55709500000000001,18.0471,46.628300000000003
211741.0,65.044399999999996,5561.8999999999996,5611.2399999999998,5562.5100000000002,0.32934099999999999,-0.52113900000000002,24.667200000000001
211742.0,57.065100000000001,4496.8000000000002,4542.7600000000002,4494.2799999999997,0.852468,-0.74293100000000001,18.422000000000001
211743.0,43.6036,3740.5599999999999,3758.02,3744.5,1.71011,8.2532499999999995,21.882000000000001
211744.0,68.283699999999996,3415.4200000000001,3405.4299999999998,3423.7199999999998,6.1313599999999999,16.628499999999999,34.003799999999998
211745.0,70.965199999999996,-3257.48,-3269.7600000000002,-3247.4200000000001,6.4938700000000003,15.8002,35.520699999999998
211746.0,77.608900000000006,2632.8899999999999,2660.23,2611.5900000000001,14.424899999999999,1.6657999999999999,34.673200000000001
211747.0,78.785200000000003,846.255,889.57399999999996,814.298,13.5091,-8.2724200000000003,19.7667
211748.0,44.371200000000002,218.64599999999999,232.57400000000001,205.65000000000001,9.0421399999999998,0.96921900000000005,19.805599999999998
211749.0,51.308399999999999,39.870199999999997,27.711600000000001,41.061,5.8031600000000001,10.364699999999999,26.111999999999998
211750.0,68.967600000000004,24.421099999999999,-33.796999999999997,-15.6578,-9.7270800000000008,-24.378799999999998,3.01877
211751.0,142.04900000000001,-642.71299999999997,-581.13499999999999,-648.80600000000004,45.550199999999997,14.382400000000001,55.162399999999998
211752.0,141.32900000000001,635.39300000000003,684.255,633.89499999999998,45.530200000000001,19.461400000000001,58.183199999999999
211753.0,132.91900000000001,-1897.97,-1864.5799999999999,-1895.3199999999999,40.302900000000001,21.790600000000001,58.698700000000002
211754.0,168.19499999999999,-1558.96,-1550.9000000000001,-1557.27,51.123100000000001,29.9864,76.805000000000007
211755.0,212.81100000000001,-1240.3099999999999,-1268.29,-1233.0899999999999,56.590699999999998,41.280900000000003,99.216899999999995
211756.0,222.40100000000001,-3223.0500000000002,-3273.0799999999999,-3206.98,48.449199999999998,47.5989,103.372
211757.0,203.28999999999999,-6310.1899999999996,-6360.5500000000002,-6279.54,30.800899999999999,48.590299999999999,93.771600000000007
211758.0,193.93199999999999,-5610.7399999999998,-5657.8299999999999,-5572.3999999999996,22.8767,47.645299999999999,88.948599999999999
211759.0,183.63300000000001,-6280.8199999999997,-6323.46,-6236.29,15.9436,46.057099999999998,83.456000000000003
211760.0,171.99600000000001,-7464.6300000000001,-7501.6400000000003,-7415.21,9.8356300000000001,43.802799999999998,77.234300000000005
211761.0,158.506,-7547.5299999999997,-7577.1199999999999,-7495.3999999999996,4.7640399999999996,40.689799999999998,70.602400000000003
211762.0,141.80699999999999,-7678.2600000000002,-7698.4899999999998,-7626.0100000000002,0.68157900000000005,36.409199999999998,63.0749
211763.0,98.217200000000005,-7357.3699999999999,-7352.6300000000001,-7316.46,-3.6294499999999998,23.475200000000001,46.375599999999999
211764.0,72.379499999999993,-6834.3999999999996,-6812.7200000000003,-6805.3000000000002,-4.2636000000000003,14.2918,35.988999999999997
211765.0,56.713799999999999,-6132.2700000000004,-6090.5799999999999,-6119.0799999999999,-3.1474899999999999,3.75698,24.371300000000002
211766.0,63.179499999999997,-5112.0699999999997,-5059.3100000000004,-5110.7299999999996,0.75486299999999995,-1.9514199999999999,20.527100000000001
211767.0,62.3842,-4063.6900000000001,-4025.8800000000001,-4064.6700000000001,5.8885800000000001,2.34063,27.709299999999999
211768.0,71.044600000000003,-3453.77,-3452.4200000000001,-3447.21,8.35595,13.162699999999999,37.7804
211769.0,48.8352,-3013.8899999999999,-3004.3600000000001,-3015.6900000000001,5.7521399999999998,6.9316599999999999,26.014700000000001
211770.0,69.629499999999993,-2414.2800000000002,-2373.4000000000001,-2437.0799999999999,10.2301,-5.2233499999999999,21.052
211771.0,91.632999999999996,-1469.52,-1418.3,-1503.6800000000001,16.315999999999999,-10.0136,24.203299999999999
211772.0,81.007099999999994,-521.23000000000002,-490.16199999999998,-547.49900000000002,18.079000000000001,-3.3510900000000001,32.023800000000001
211773.0,66.303299999999993,-16.190799999999999,-17.126999999999999,-23.303899999999999,12.302199999999999,7.9886799999999996,35.146500000000003
211774.0,134.423,-2534.1799999999998,-2490.54,-2560.54,40.420400000000001,19.3233,52.592399999999998
211775.0,137.971,-794.98099999999999,-731.29100000000005,-796.17899999999997,45.200200000000002,12.7386,52.553800000000003
211776.0,201.16,4901.8599999999997,4849.9099999999999,4922.5,38.551099999999998,46.190100000000001,92.031800000000004
211777.0,103.78,6650.8400000000001,6666.1000000000004,6690.5600000000004,-1.63106,23.3583,51.383200000000002
211778.0,80.2547,2749.27,2750.5799999999999,2755.71,11.1006,16.9434,41.533700000000003
211779.0,77.443600000000004,1651.9400000000001,1689.7,1627.8499999999999,15.3058,-0.31900200000000001,28.1587
211780.0,75.721500000000006,5646.4700000000003,5682.7299999999996,5662.8900000000003,-0.28801500000000002,12.9565,37.598399999999998
211781.0,174.31700000000001,7425.7299999999996,7383.5699999999997,7458.25,22.183800000000002,42.295099999999998,80.284899999999993
211782.0,147.971,1991.1700000000001,2012.8699999999999,1983.95,50.7286,23.6311,62.769799999999996
211783.0,150.90600000000001,1562.0,1610.73,1558.6500000000001,50.901200000000003,20.5779,61.047899999999998
211784.0,152.68000000000001,486.49599999999998,478.19600000000003,483.63,51.269599999999997,29.520399999999999,65.212100000000007
211785.0,198.53200000000001,4181.8199999999997,4145.8999999999996,4185.6499999999996,58.984000000000002,40.892200000000003,86.638499999999993
211786.0,227.375,3657.5500000000002,3603.6300000000001,3665.71,58.684399999999997,47.375900000000001,102.014
211787.0,215.727,5362.1499999999996,5307.4700000000003,5375.7600000000002,48.497599999999998,47.101700000000001,98.161100000000005
211788.0,199.68899999999999,-4917.9399999999996,-4969.8400000000001,-4903.8900000000003,41.6342,47.688699999999997,89.874700000000004
211789.0,188.01499999999999,6083.8100000000004,6035.6199999999999,6110.5200000000004,29.999199999999998,44.614800000000002,86.325500000000005
211790.0,160.68100000000001,6784.8800000000001,6751.0699999999997,6822.7200000000003,15.108000000000001,39.401600000000002,74.436700000000002
211791.0,146.74100000000001,7073.4499999999998,7050.1800000000003,7115.5799999999999,9.0196000000000005,36.002800000000001,68.563199999999995
211792.0,132.489,7141.6599999999999,7131.04,7186.25,3.9812599999999998,32.085500000000003,62.831499999999998
211793.0,118.557,6924.5600000000004,6927.1400000000003,6969.0600000000004,0.35637400000000002,27.938099999999999,57.275100000000002
211794.0,107.90600000000001,-6727.6499999999996,-6722.1999999999998,-6684.1599999999999,-3.11273,26.6891,50.970199999999998
211795.0,89.331199999999995,6245.7700000000004,6272.1400000000003,6275.79,-1.9222999999999999,18.4009,45.270699999999998
211796.0,67.746399999999994,4862.8000000000002,4907.3199999999997,4868.3000000000002,3.0946600000000002,6.3937499999999998,29.8399
211797.0,61.441800000000001,4075.3699999999999,4121.7200000000003,4079.0799999999999,4.8194800000000004,1.73394,23.8491
211798.0,49.783499999999997,3331.5900000000001,3357.8000000000002,3342.2399999999998,3.59537,7.6779500000000001,24.094999999999999
211799.0,72.855500000000006,2928.1700000000001,2926.4099999999999,2943.27,6.6469300000000002,18.409099999999999,36.059800000000003
211800.0,79.270399999999995,-2775.7399999999998,-2780.6100000000001,-2760.8800000000001,7.8010099999999998,19.946100000000001,39.118699999999997
211801.0,73.758200000000002,2342.0599999999999,2368.3400000000001,2329.6900000000001,13.317399999999999,6.3814299999999999,34.724499999999999
211802.0,71.322100000000006,937.47500000000002,971.75099999999998,914.62800000000004,15.754,-2.30002,24.8093
211803.0,55.316899999999997,380.11000000000001,397.77199999999999,368.66500000000002,13.025399999999999,1.0894699999999999,25.1816
211804.0,53.934600000000003,62.1267,64.7607,55.399999999999999,9.8078099999999999,6.2096099999999996,28.488399999999999
211805.0,69.110100000000003,8.4251699999999996,-45.733400000000003,-24.622800000000002,-8.82315,-27.513200000000001,3.4759699999999998
211806.0,140.70099999999999,-405.50799999999998,-346.20999999999998,-413.88,46.877200000000002,13.9716,53.341500000000003
211807.0,144.23599999999999,-2523.79,-2479.9000000000001,-2528.0500000000002,48.176000000000002,19.939599999999999,59.206600000000002
211808.0,136.679,-923.44899999999996,-906.82299999999998,-928.55200000000002,47.572200000000002,21.799199999999999,57.962600000000002
211809.0,171.39699999999999,-2252.7399999999998,-2258.8299999999999,-2258.1599999999999,56.6678,30.034300000000002,75.284899999999993
211810.0,211.059,-4324.3400000000001,-4359.6199999999999,-4323.8999999999996,59.830100000000002,42.161700000000003,95.242800000000003
211811.0,213.809,-4596.9700000000003,-4650.0100000000002,-4588.8500000000004,51.234299999999998,47.988999999999997,95.9529
211812.0,187.36699999999999,-4979.71,-5028.8299999999999,-4959.0299999999997,32.796199999999999,46.537599999999998,84.707099999999997
211813.0,174.536,-6927.5,-6972.3699999999999,-6900.8199999999997,24.835899999999999,44.721200000000003,78.928899999999999
211814.0,161.631,-7215.6700000000001,-7254.1899999999996,-7183.4399999999996,17.479199999999999,42.276400000000002,73.214399999999998
211815.0,148.42599999999999,-6704.8199999999997,-6734.71,-6667.4700000000003,10.797700000000001,39.209899999999998,67.486900000000006
211816.0,135.06800000000001,-7005.8199999999997,-7025.1599999999999,-6964.4200000000001,4.9779099999999996,35.606499999999997,61.851700000000001
211817.0,121.532,-6958.0699999999997,-6965.1599999999999,-6914.3900000000003,0.28684199999999999,31.3508,56.429699999999997
211818.0,93.470699999999994,-6460.0799999999999,-6442.6700000000001,-6421.1899999999996,-4.7539400000000001,21.490200000000002,45.258000000000003
211819.0,77.046800000000005,-6022.1099999999997,-5993.25,-5992.0500000000002,-4.4752299999999998,15.368,37.853000000000002
211820.0,63.639600000000002,-5337.2299999999996,-5298.5,-5318.9399999999996,-1.08802,8.8128600000000006,29.926300000000001
211821.0,60.764600000000002,-4564.4499999999998,-4517.7700000000004,-4555.5600000000004,3.1119599999999998,2.4145799999999999,24.511399999999998
211822.0,64.751499999999993,-3743.7600000000002,-3701.5700000000002,-3738.0100000000002,7.19963,2.6126200000000002,28.558299999999999
211823.0,76.948800000000006,-3015.6999999999998,-3004.73,-3004.9299999999998,10.237299999999999,14.6181,40.196800000000003
211824.0,55.878,-2664.3099999999999,-2649.6399999999999,-2658.52,5.9610700000000003,10.8148,28.873799999999999
211825.0,63.994300000000003,-2166.0300000000002,-2131.1900000000001,-2177.54,11.1013,0.95050299999999999,25.660299999999999
211826.0,74.857699999999994,-1432.29,-1393.9400000000001,-1452.5599999999999,16.208200000000001,-3.1387800000000001,26.6249
211827.0,73.474199999999996,-739.69000000000005,-713.60799999999995,-758.14200000000005,17.924499999999998,-1.0016799999999999,31.249500000000001
211828.0,64.148200000000003,-244.62299999999999,-235.94499999999999,-254.59999999999999,13.038600000000001,4.48278,33.081899999999997
211829.0,134.863,1708.8199999999999,1749.75,1684.6099999999999,43.957700000000003,17.017199999999999,52.505800000000001
211830.0,138.15799999999999,1247.23,1307.52,1242.25,45.5199,13.7258,52.7455
211831.0,188.273,5972.75,5920.0299999999997,5982.8599999999997,40.907800000000002,44.685000000000002,83.709400000000002
211832.0,83.424999999999997,5680.4399999999996,5705.5,5711.6400000000003,-0.25372,16.742999999999999,42.028500000000001
211833.0,75.875799999999998,2393.5,2393.0599999999999,2394.29,13.408300000000001,18.877500000000001,37.182200000000002
211834.0,68.127600000000001,1561.1199999999999,1583.25,1546.01,15.921200000000001,8.3008199999999999,29.560500000000001
211835.0,74.9773,4641.1700000000001,4676.8900000000003,4663.04,-2.1945100000000002,13.736800000000001,36.823399999999999
211836.0,154.85400000000001,5459.46,5417.1000000000004,5477.5699999999997,25.407800000000002,38.957599999999999,69.763999999999996
211837.0,152.41200000000001,483.334,502.10399999999998,473.77999999999997,57.121899999999997,25.023099999999999,60.385899999999999
211838.0,152.429,-209.005,-162.61199999999999,-213.10900000000001,53.927700000000002,20.279699999999998,60.322899999999997
211839.0,162.20699999999999,3168.96,3158.0100000000002,3163.1500000000001,58.536999999999999,32.607500000000002,65.196200000000005
211840.0,203.38999999999999,1107.8599999999999,1069.49,1106.6600000000001,63.3675,42.8705,86.372
211841.0,220.86099999999999,3750.0,3694.6199999999999,3749.75,60.982999999999997,47.4422,96.293899999999994
211842.0,204.66900000000001,3986.6199999999999,3931.6599999999999,3991.8400000000001,50.546599999999998,46.016800000000003,90.437700000000007
211843.0,188.608,-4721.46,-4773.8100000000004,-4715.7600000000002,43.307600000000001,46.302500000000002,82.548400000000001
211844.0,172.30799999999999,5965.1599999999999,5916.1099999999997,5979.46,32.874600000000001,42.269300000000001,76.974999999999994
211845.0,136.82400000000001,6607.1999999999998,6574.8800000000001,6629.0,18.645,34.744700000000002,62.800800000000002
211846.0,119.491,6504.21,6484.5200000000004,6529.7299999999996,12.6595,30.07,56.399500000000003
211847.0,103.081,6308.8800000000001,6304.75,6337.4499999999998,7.3570200000000003,24.898499999999999,50.505400000000002
211848.0,91.396900000000002,6099.6899999999996,6110.7600000000002,6130.6300000000001,3.1253700000000002,20.2989,46.008400000000002
211849.0,83.212999999999994,-5896.8400000000001,-5880.6999999999998,-5867.0,-0.16314100000000001,20.199400000000001,40.950600000000001
211850.0,79.960999999999999,5161.6099999999997,5195.9399999999996,5189.9700000000003,-2.2214499999999999,14.852399999999999,39.615499999999997
211851.0,69.010900000000007,4168.5500000000002,4199.3199999999997,4179.96,2.0707399999999998,12.532,34.411499999999997
211852.0,61.317100000000003,3579.5100000000002,3607.4299999999998,3581.0599999999999,7.2437500000000004,9.5141399999999994,29.3949
211853.0,52.457900000000002,2996.75,3015.1999999999998,2999.9200000000001,8.5861900000000002,10.5458,25.200399999999998
211854.0,66.978300000000004,2626.8200000000002,2627.1900000000001,2633.77,10.9885,17.709,32.337800000000001
211855.0,74.814800000000005,-2501.8800000000001,-2504.0100000000002,-2494.96,11.563499999999999,19.686299999999999,36.360700000000001
211856.0,68.276200000000003,2033.22,2049.4000000000001,2024.1800000000001,14.015599999999999,12.2204,32.323500000000003
211857.0,70.382099999999994,1053.7,1077.8800000000001,1034.8399999999999,17.813500000000001,4.8768200000000004,29.060099999999998
211858.0,67.804100000000005,545.63999999999999,565.79899999999998,527.87,16.747,3.65754,29.639500000000002
211859.0,62.238,96.697199999999995,111.80800000000001,80.465100000000007,13.2582,4.05619,29.2105
211860.0,61.977400000000003,9.0679700000000008,-39.863399999999999,-13.107699999999999,-8.5185899999999997,-24.494399999999999,2.74566
211861.0,141.63399999999999,-645.98699999999997,-590.44500000000005,-658.33000000000004,48.5749,14.394500000000001,53.031799999999997
211862.0,144.75800000000001,607.00999999999999,648.56600000000003,601.85299999999995,51.007300000000001,19.786200000000001,57.756100000000004
211863.0,144.71299999999999,-1993.9000000000001,-1980.1400000000001,-2003.3099999999999,55.788499999999999,23.846800000000002,56.247700000000002
211864.0,179.56,-1733.23,-1742.23,-1741.1099999999999,62.146299999999997,32.935400000000001,76.001800000000003
211865.0,209.43700000000001,-1446.5699999999999,-1484.5699999999999,-1449.9300000000001,61.487900000000003,43.672199999999997,92.144900000000007
211866.0,204.90000000000001,-3321.8200000000002,-3376.9099999999999,-3321.8899999999999,53.502600000000001,47.544699999999999,88.663399999999996
211867.0,174.12700000000001,-6017.1899999999996,-6067.2399999999998,-6006.7600000000002,35.288600000000002,44.6464,76.308999999999997
211868.0,158.245,-5102.4799999999996,-5147.75,-5087.8500000000004,27.7743,42.186900000000001,69.431799999999996
211869.0,141.47900000000001,-5532.3999999999996,-5570.2799999999997,-5514.1700000000001,20.915400000000002,38.8581,62.492100000000001
211870.0,124.20699999999999,-6454.4499999999998,-6481.6700000000001,-6432.6800000000003,14.633100000000001,34.645200000000003,55.907200000000003
211871.0,107.488,-6263.6999999999998,-6277.7399999999998,-6238.4799999999996,8.7926300000000008,29.976600000000001,49.795900000000003
211872.0,93.456500000000005,-6128.6400000000003,-6127.4200000000001,-6100.8100000000004,4.0622400000000001,24.923100000000002,45.015099999999997
211873.0,79.046999999999997,-5448.46,-5420.1999999999998,-5418.6300000000001,-3.09389,16.6388,38.917000000000002
211874.0,75.771500000000003,-4946.25,-4912.0200000000004,-4919.1599999999999,-3.9680399999999998,13.8933,37.133800000000001
211875.0,70.407399999999996,-4495.1700000000001,-4464.0799999999999,-4473.8900000000003,-1.0488500000000001,12.071400000000001,35.397300000000001
211876.0,60.3446,-3989.5700000000002,-3961.3299999999999,-3976.3800000000001,3.6678000000000002,9.2272300000000005,30.258700000000001
211877.0,57.479199999999999,-3369.77,-3342.5799999999999,-3363.9699999999998,9.0984099999999994,6.9721900000000003,27.653199999999998
211878.0,69.952799999999996,-2791.1100000000001,-2781.0,-2784.4400000000001,13.197699999999999,13.7761,35.2241
211879.0,59.734699999999997,-2307.98,-2299.0500000000002,-2308.21,9.4362999999999992,15.2264,29.004200000000001
211880.0,61.289900000000003,-1923.4000000000001,-1903.4000000000001,-1931.4300000000001,12.9068,9.4498499999999996,28.069600000000001
211881.0,63.6633,-1449.6400000000001,-1427.6400000000001,-1463.5699999999999,15.399900000000001,5.9066099999999997,27.398299999999999
211882.0,68.545699999999997,-954.95100000000002,-934.63099999999997,-973.255,16.985299999999999,3.7789899999999998,29.834399999999999
211883.0,66.808300000000003,-471.93700000000001,-454.97399999999999,-490.26100000000002,14.7898,3.0906899999999999,30.790299999999998
211884.0,135.34200000000001,-2400.6100000000001,-2365.8600000000001,-2429.3899999999999,46.969000000000001,16.160499999999999,51.252699999999997
211885.0,139.304,-835.63,-777.81799999999998,-839.55200000000002,49.984900000000003,13.2973,50.974800000000002
211886.0,180.06800000000001,4710.5799999999999,4655.1099999999997,4710.8000000000002,43.2804,43.927799999999998,77.301400000000001
211887.0,59.280099999999997,4921.4200000000001,4953.2799999999997,4935.8000000000002,6.03247,7.4943499999999998,28.708200000000001
211888.0,67.603399999999993,2314.1199999999999,2308.1900000000001,2303.3499999999999,16.433,18.4971,29.700199999999999
211889.0,67.312700000000007,1577.9400000000001,1590.8199999999999,1561.3900000000001,17.3871,11.7895,29.1797
211890.0,59.042900000000003,3659.4400000000001,3697.8499999999999,3674.0599999999999,-2.1788400000000001,7.81128,26.8416
211891.0,143.34800000000001,6924.3100000000004,6877.6099999999997,6928.0500000000002,30.074100000000001,37.506599999999999,61.224600000000002
211892.0,153.48699999999999,2010.1300000000001,2030.0599999999999,1999.5,57.294899999999998,27.031400000000001,59.9895
211893.0,152.62,1622.0999999999999,1666.79,1616.72,56.124200000000002,19.3141,59.040100000000002
211894.0,170.86000000000001,554.221,542.93399999999997,547.35799999999995,60.949199999999998,35.999200000000002,68.468500000000006
211895.0,205.79300000000001,4364.6899999999996,4323.0799999999999,4358.8800000000001,65.247799999999998,43.132199999999997,86.552700000000002
211896.0,211.57900000000001,3773.1399999999999,3718.5100000000002,3767.4099999999999,60.880600000000001,45.997399999999999,90.543800000000005
211897.0,196.11600000000001,5316.3599999999997,5261.0699999999997,5314.46,51.530200000000001,45.455100000000002,84.344899999999996
211898.0,181.07300000000001,-4804.4899999999998,-4858.5,-4806.2700000000004,44.8611,45.264899999999997,76.981399999999994
211899.0,162.89500000000001,5743.5200000000004,5690.6899999999996,5745.6099999999997,36.497399999999999,41.3277,69.543700000000001
211900.0,121.752,6097.1099999999997,6060.9200000000001,6102.3000000000002,24.1617,32.322499999999998,52.955800000000004
211901.0,100.44799999999999,6162.9700000000003,6139.8900000000003,6169.8100000000004,19.071899999999999,26.5121,45.287300000000002
211902.0,78.908699999999996,5973.0,5967.4899999999998,5981.3999999999996,14.2033,19.691500000000001,37.907499999999999
211903.0,64.878900000000002,5474.3199999999997,5486.2799999999997,5484.8500000000004,10.1921,13.6358,32.719900000000003
211904.0,55.792099999999998,-5187.4099999999999,-5169.3699999999999,-5178.0799999999999,6.5188300000000003,13.4491,27.071300000000001
211905.0,61.076500000000003,4294.8599999999997,4340.2399999999998,4311.3199999999997,0.93349599999999999,4.1479400000000002,26.409400000000002
211906.0,62.652200000000001,3168.7800000000002,3182.8699999999999,3178.4699999999998,1.15588,16.465199999999999,31.369
211907.0,68.358000000000004,2966.1399999999999,2962.6100000000001,2968.6300000000001,8.0350199999999994,20.956199999999999,32.322400000000002
211908.0,65.326800000000006,2788.1199999999999,2779.6799999999998,2786.21,12.9481,20.217199999999998,28.749500000000001
211909.0,65.971999999999994,2566.3699999999999,2556.8899999999999,2560.3899999999999,15.4373,19.3352,28.5593
211910.0,63.9131,-2482.8200000000002,-2491.6799999999998,-2487.96,14.072800000000001,18.5243,28.2958
211911.0,65.379199999999997,1992.3,1997.9400000000001,1978.0899999999999,16.7301,14.7827,28.666699999999999
211912.0,72.168000000000006,1110.45,1132.0999999999999,1090.5999999999999,18.3325,7.4680600000000004,30.224499999999999
211913.0,73.791399999999996,591.23800000000006,614.40800000000002,570.21000000000004,18.0915,5.7111200000000002,31.0867
211914.0,67.757099999999994,101.31999999999999,122.075,80.860299999999995,15.043900000000001,5.0155900000000004,29.226600000000001
211915.0,54.722799999999999,-26.117000000000001,-70.294600000000003,-37.4407,-7.0336999999999996,-20.4588,1.9017900000000001
211916.0,143.63800000000001,-412.53300000000002,-359.50999999999999,-425.29899999999998,52.362499999999997,13.936,52.193600000000004
211917.0,142.24000000000001,-2566.2600000000002,-2524.7800000000002,-2572.3499999999999,50.803699999999999,19.5505,55.774000000000001
211918.0,151.81299999999999,-870.48699999999997,-852.52200000000005,-880.35900000000004,58.215200000000003,26.206199999999999,58.373100000000001
211919.0,186.613,-2337.0300000000002,-2349.3499999999999,-2345.9299999999998,64.030199999999994,35.4193,78.824200000000005
211920.0,203.869,-4515.0200000000004,-4557.7700000000004,-4522.7399999999998,61.023600000000002,43.440800000000003,87.886399999999995
211921.0,195.63999999999999,-4637.0100000000002,-4691.1899999999996,-4643.46,53.799399999999999,46.2926,82.734700000000004
211922.0,165.92500000000001,-4718.4200000000001,-4771.2200000000003,-4717.3900000000003,38.064599999999999,43.584800000000001,69.860900000000001
211923.0,148.57400000000001,-6512.6099999999997,-6561.6599999999999,-6509.46,31.6128,40.842199999999998,61.9178
211924.0,129.35499999999999,-6632.5799999999999,-6674.6000000000004,-6627.8999999999996,25.6373,37.008899999999997,53.751300000000001
211925.0,108.43600000000001,-5926.4799999999996,-5957.3400000000001,-5920.5799999999999,20.3568,31.8687,45.823900000000002
211926.0,86.637600000000006,-5997.2799999999997,-6014.0500000000002,-5990.0699999999997,15.1387,26.049399999999999,37.985900000000001
211927.0,68.306899999999999,-5690.8400000000001,-5690.25,-5682.8199999999997,10.9215,19.5855,32.131
211928.0,55.582099999999997,-4674.0799999999999,-4637.4200000000001,-4662.6400000000003,1.46949,7.6290199999999997,24.851199999999999
211929.0,62.148499999999999,-4059.4099999999999,-4015.5900000000001,-4048.3200000000002,-0.46376099999999998,5.5607899999999999,27.149699999999999
211930.0,66.718699999999998,-3402.6799999999998,-3374.2600000000002,-3392.1999999999998,3.1671399999999998,10.8794,33.895099999999999
211931.0,69.189899999999994,-3034.4099999999999,-3028.2800000000002,-3023.73,7.3801600000000001,17.267099999999999,34.847900000000003
211932.0,64.801000000000002,-2900.4000000000001,-2905.21,-2893.4000000000001,11.125400000000001,18.663699999999999,29.871500000000001
211933.0,64.193600000000004,-2706.3899999999999,-2715.4899999999998,-2704.52,13.5418,18.6496,28.424499999999998
211934.0,58.825899999999997,-2237.8899999999999,-2238.7600000000002,-2248.5799999999999,13.505699999999999,16.321000000000002,25.873799999999999
211935.0,60.488799999999998,-1900.8299999999999,-1892.8,-1914.3499999999999,14.673400000000001,13.0496,26.749099999999999
211936.0,61.819899999999997,-1487.0899999999999,-1471.6900000000001,-1503.3900000000001,14.8727,9.5216499999999993,26.660900000000002
211937.0,69.690100000000001,-1028.6199999999999,-1007.65,-1048.53,16.8751,6.2173999999999996,29.624099999999999
211938.0,71.452299999999994,-515.93799999999999,-493.077,-536.78300000000002,16.4529,4.3959200000000003,30.559799999999999
211939.0,137.51499999999999,1705.6600000000001,1732.3399999999999,1669.4300000000001,51.6995,15.5205,48.917200000000001
211940.0,139.036,1252.9100000000001,1311.46,1254.1300000000001,52.412500000000001,11.726599999999999,49.391500000000001
211941.0,175.69999999999999,5782.0500000000002,5722.4399999999996,5773.7700000000004,46.004600000000003,43.653500000000001,72.284899999999993
211942.0,53.762599999999999,4656.9099999999999,4694.3100000000004,4652.5799999999999,12.195600000000001,-1.0109399999999999,16.948599999999999
211943.0,62.971400000000003,2369.9200000000001,2353.1500000000001,2352.02,15.958299999999999,18.128699999999998,25.258400000000002
211944.0,63.741399999999999,1643.8499999999999,1654.72,1622.51,17.924900000000001,8.2023200000000003,26.406500000000001
211945.0,46.284100000000002,2866.77,2907.9899999999998,2867.2600000000002,1.827,-1.6010500000000001,12.186400000000001
211946.0,141.07400000000001,5151.7200000000003,5098.6099999999997,5144.2299999999996,34.6235,38.045200000000001,56.227200000000003
211947.0,153.55699999999999,470.846,486.05399999999997,458.57400000000001,55.838999999999999,27.6478,61.547199999999997
211948.0,150.458,-188.535,-146.49799999999999,-195.80099999999999,56.476300000000002,18.862300000000001,57.376800000000003
211949.0,175.376,3240.8299999999999,3223.9000000000001,3231.9200000000001,61.769300000000001,35.771000000000001,71.313000000000002
211950.0,202.95400000000001,1263.47,1218.1900000000001,1252.52,66.4756,41.868200000000002,83.665800000000004
211951.0,202.28100000000001,3783.1700000000001,3727.3299999999999,3771.3099999999999,60.906399999999998,44.506500000000003,84.161799999999999
211952.0,189.751,3878.5599999999999,3819.9200000000001,3868.73,52.815899999999999,44.743499999999997,78.893699999999995
211953.0,176.12100000000001,-4566.7700000000004,-4623.6999999999998,-4575.8500000000004,47.044699999999999,44.4557,72.212100000000007
211954.0,159.69300000000001,5713.4399999999996,5655.5900000000001,5705.9499999999998,39.996000000000002,41.491900000000001,64.725099999999998
211955.0,119.095,6236.3000000000002,6192.9099999999999,6228.3400000000001,29.812000000000001,32.753599999999999,47.252299999999998
211956.0,96.832800000000006,6048.2299999999996,6017.3299999999999,6040.0600000000004,25.7348,26.509699999999999,38.781999999999996
211957.0,71.690799999999996,5729.1300000000001,5717.3400000000001,5721.0799999999999,21.430700000000002,18.131,29.813800000000001
211958.0,55.190300000000001,5337.4399999999996,5347.4799999999996,5331.3199999999997,17.694400000000002,9.5712899999999994,23.325700000000001
211959.0,41.9529,-5039.0,-5022.1400000000003,-5045.9700000000003,11.3874,8.0298499999999997,15.5672
211960.0,61.180599999999998,3743.98,3798.2199999999998,3740.5,4.8437900000000003,-7.66587,10.8512
211961.0,45.673000000000002,2433.7600000000002,2437.1599999999999,2436.71,4.5648999999999997,14.5762,21.415199999999999
211962.0,75.125699999999995,2373.6199999999999,2345.0799999999999,2372.9099999999999,8.8497699999999995,26.766300000000001,28.662199999999999
211963.0,81.294300000000007,2502.6799999999998,2466.29,2496.29,12.416399999999999,28.0352,29.752600000000001
211964.0,69.690600000000003,2532.1900000000001,2505.1100000000001,2519.0599999999999,14.260999999999999,22.870799999999999,26.6296
211965.0,60.459699999999998,-2467.5700000000002,-2490.5300000000002,-2478.1900000000001,12.3919,20.3398,22.786899999999999
211966.0,60.348300000000002,2060.52,2058.0,2039.95,17.223299999999998,12.620699999999999,25.143799999999999
211967.0,70.013499999999993,1139.49,1163.3900000000001,1117.0699999999999,17.6999,4.02074,27.7135
211968.0,71.887900000000002,600.91499999999996,626.26099999999997,578.75999999999999,16.570699999999999,3.13063,29.5518
211969.0,66.603999999999999,102.39700000000001,125.181,82.290199999999999,13.523099999999999,3.5701200000000002,28.680599999999998
211970.0,53.817999999999998,-8.9601400000000009,-52.410299999999999,-22.0396,-6.0524500000000003,-20.529499999999999,3.2355
211971.0,142.68000000000001,-669.65200000000004,-615.57100000000003,-679.88400000000001,54.008899999999997,12.894399999999999,50.083799999999997
211972.0,140.80199999999999,608.89099999999996,647.83199999999999,599.90800000000002,51.1188,19.234500000000001,54.555900000000001
211973.0,156.05699999999999,-1968.26,-1954.73,-1979.1400000000001,58.200299999999999,26.450600000000001,62.302300000000002
211974.0,185.96299999999999,-1873.78,-1893.79,-1885.1099999999999,64.070599999999999,34.914900000000003,78.119500000000002
211975.0,195.892,-1604.6600000000001,-1651.48,-1618.55,61.258000000000003,42.2727,81.691400000000002
211976.0,188.095,-3282.3800000000001,-3337.52,-3294.9000000000001,54.125500000000002,44.686500000000002,77.659700000000001
211977.0,162.20099999999999,-5790.8500000000004,-5847.8000000000002,-5797.8800000000001,40.833100000000002,43.147799999999997,65.395200000000003
211978.0,145.857,-4817.4300000000003,-4871.9399999999996,-4823.4399999999996,35.2072,40.720999999999997,57.448399999999999
211979.0,127.04600000000001,-5187.2200000000003,-5236.3000000000002,-5193.1300000000001,30.148599999999998,37.073300000000003,48.7759
211980.0,105.529,-6037.1800000000003,-6076.1099999999997,-6043.6800000000003,25.8688,31.680299999999999,40.053100000000001
211981.0,80.938299999999998,-5746.9899999999998,-5772.2399999999998,-5753.8699999999999,21.080200000000001,25.1234,30.622599999999998
211982.0,58.169600000000003,-5471.1000000000004,-5477.46,-5478.8199999999997,17.2074,16.966999999999999,22.955200000000001
211983.0,52.189999999999998,-4290.1099999999997,-4245.71,-4297.2200000000003,5.2843499999999999,-2.3621300000000001,9.7487899999999996
211984.0,63.805300000000003,-3313.2600000000002,-3259.9499999999998,-3321.5700000000002,6.3739100000000004,-5.1874099999999999,13.0938
211985.0,59.083799999999997,-2538.9699999999998,-2508.8800000000001,-2543.6999999999998,11.7873,5.3148200000000001,25.2944
211986.0,71.212000000000003,-2234.1900000000001,-2242.8699999999999,-2235.1700000000001,13.6935,20.4297,32.602400000000003
211987.0,81.3078,-2301.25,-2334.5599999999999,-2302.3899999999999,12.253,27.667000000000002,30.501200000000001
211988.0,70.987799999999993,-2482.02,-2514.4299999999998,-2485.8200000000002,10.658200000000001,25.148399999999999,24.896599999999999
211989.0,53.181100000000001,-2265.0100000000002,-2276.0,-2280.5599999999999,13.183,15.5648,21.513200000000001
211990.0,54.069000000000003,-1954.24,-1951.48,-1973.28,14.495699999999999,10.7005,22.5581
211991.0,59.114600000000003,-1535.1700000000001,-1518.47,-1555.76,14.537599999999999,6.1569700000000003,23.804099999999998
211992.0,69.293599999999998,-1032.2,-1008.72,-1054.3900000000001,16.265000000000001,3.5629400000000002,28.3155
211993.0,70.654600000000002,-524.45000000000005,-499.798,-545.80999999999995,15.3622,2.3559000000000001,29.871600000000001
211994.0,139.27199999999999,-2422.79,-2399.2600000000002,-2458.96,55.049799999999998,14.3529,48.216299999999997
211995.0,137.31399999999999,-825.96199999999999,-770.26099999999997,-827.197,54.239400000000003,10.671200000000001,46.600299999999997
211996.0,172.749,4518.1800000000003,4455.0500000000002,4503.0200000000004,48.145200000000003,43.375599999999999,68.277900000000002
211997.0,57.784500000000001,4599.21,4636.9200000000001,4582.7700000000004,14.590299999999999,-5.0518599999999996,10.184200000000001
211998.0,65.842699999999994,2365.6900000000001,2329.79,2344.73,11.3148,20.806799999999999,23.640000000000001
211999.0,58.918500000000002,1844.9000000000001,1846.51,1815.25,18.211600000000001,5.1313300000000002,22.121400000000001
212000.0,45.555,2767.3699999999999,2799.5500000000002,2752.3600000000001,7.90238,-6.1957700000000004,3.06812
212001.0,143.18100000000001,6736.7399999999998,6678.1400000000003,6722.3800000000001,37.855600000000003,39.299700000000001,54.065100000000001
212002.0,152.73500000000001,2000.77,2007.6199999999999,1987.1199999999999,59.465899999999998,26.170100000000001,58.702800000000003
212003.0,147.06,1555.95,1593.5599999999999,1546.8299999999999,58.458300000000001,18.007999999999999,53.419199999999996
212004.0,177.52799999999999,650.08299999999997,624.75900000000001,634.59100000000001,66.375900000000001,34.731699999999996,68.777699999999996
212005.0,198.87100000000001,4424.25,4375.0799999999999,4405.6000000000004,68.670100000000005,41.061799999999998,78.519599999999997
212006.0,194.749,3715.5999999999999,3657.8200000000002,3697.4699999999998,61.8232,43.174100000000003,77.993300000000005
212007.0,184.392,5171.4499999999998,5110.04,5155.21,54.428199999999997,43.7408,73.791899999999998
212008.0,172.06899999999999,-4630.5299999999997,-4690.04,-4646.1599999999999,48.8292,43.539900000000003,68.097499999999997
212009.0,159.196,5537.2399999999998,5474.7600000000002,5522.6700000000001,42.767899999999997,41.930399999999999,61.579000000000001
212010.0,123.236,5951.5600000000004,5902.1599999999999,5936.8900000000003,33.408299999999997,34.645499999999998,45.852400000000003
212011.0,102.06100000000001,6062.8100000000004,6025.54,6047.6199999999999,29.567499999999999,28.627199999999998,37.778700000000001
212012.0,75.499600000000001,5893.4499999999998,5876.1999999999998,5877.8299999999999,25.125,19.354199999999999,28.346900000000002
212013.0,56.373199999999997,5345.1000000000004,5352.4399999999996,5329.75,21.0688,8.1432099999999998,20.3719
212014.0,38.821300000000001,-4982.6000000000004,-4966.0,-4996.1999999999998,12.1637,5.0777999999999999,9.9929299999999994
212015.0,67.044399999999996,3651.4899999999998,3703.4400000000001,3634.6300000000001,8.3754899999999992,-11.777100000000001,1.7157100000000001
212016.0,30.8108,2179.6900000000001,2177.5700000000002,2170.5100000000002,10.593,6.7813499999999998,11.6244
212017.0,55.5428,2041.8599999999999,2014.22,2036.1500000000001,9.7737400000000001,19.110800000000001,18.831700000000001
212018.0,74.231499999999997,2166.5100000000002,2123.5599999999999,2156.9099999999999,8.5424000000000007,26.1524,23.9084
212019.0,73.914900000000003,2321.98,2278.5,2307.2600000000002,8.7927199999999992,25.445399999999999,24.644300000000001
212020.0,68.464600000000004,-2234.6100000000001,-2275.3699999999999,-2248.2800000000002,8.1195299999999992,24.184999999999999,21.9406
212021.0,56.935400000000001,2225.0599999999999,2206.1100000000001,2198.3899999999999,14.960599999999999,13.149100000000001,22.261800000000001
212022.0,69.766900000000007,1285.1700000000001,1309.6199999999999,1256.54,19.563099999999999,-2.4176099999999998,22.9802
212023.0,71.780799999999999,654.37900000000002,684.846,626.41399999999999,16.453700000000001,-3.8718400000000002,24.0349
212024.0,63.192599999999999,116.84099999999999,139.447,90.784400000000005,11.720499999999999,-1.5599400000000001,24.459900000000001
212025.0,55.4666,25.753799999999998,-13.720800000000001,12.3347,-5.22445,-23.990100000000002,4.4528699999999999
212026.0,140.054,-359.98599999999999,-306.80099999999999,-372.29599999999999,55.153700000000001,12.043900000000001,46.257899999999999
212027.0,139.35900000000001,-2503.1599999999999,-2469.3000000000002,-2514.9099999999999,54.016300000000001,17.976400000000002,51.691000000000003
212028.0,157.53999999999999,-925.40499999999997,-920.923,-939.87900000000002,61.885599999999997,25.217700000000001,60.901899999999998
212029.0,183.21299999999999,-2466.2800000000002,-2493.1199999999999,-2483.7199999999998,66.276399999999995,34.450499999999998,73.648300000000006
212030.0,189.339,-4541.9300000000003,-4591.0,-4561.21,62.1721,41.281100000000002,75.953599999999994
212031.0,182.05699999999999,-4529.9099999999999,-4586.5699999999997,-4548.1199999999999,55.454999999999998,43.235500000000002,72.573599999999999
212032.0,160.30500000000001,-4510.2700000000004,-4571.1300000000001,-4524.1899999999996,43.1295,42.784199999999998,62.116500000000002
212033.0,146.345,-6302.2700000000004,-6361.8900000000003,-6315.1300000000001,37.922800000000002,41.023699999999998,55.075800000000001
212034.0,129.81700000000001,-6449.04,-6504.3299999999999,-6461.4300000000003,33.034199999999998,38.0595,47.287700000000001
212035.0,109.85299999999999,-5785.5100000000002,-5831.5,-5798.2299999999996,28.8248,33.104599999999998,39.137799999999999
212036.0,84.841200000000001,-5891.3500000000004,-5923.9099999999999,-5904.3299999999999,23.695399999999999,26.424800000000001,29.510400000000001
212037.0,58.817700000000002,-5581.8999999999996,-5594.1499999999996,-5595.7799999999997,19.352599999999999,17.081099999999999,20.7211
212038.0,59.368299999999998,-4193.0200000000004,-4146.4700000000003,-4208.8699999999999,8.2605199999999996,-7.1584300000000001,1.89991
212039.0,67.290999999999997,-3193.23,-3143.8499999999999,-3211.5999999999999,12.789899999999999,-9.4063499999999998,5.4200900000000001
212040.0,53.765799999999999,-2302.3400000000001,-2280.5999999999999,-2320.3699999999999,18.455400000000001,-0.050696600000000001,15.041499999999999
212041.0,54.806399999999996,-1868.9100000000001,-1877.24,-1882.5799999999999,17.2029,13.0739,22.066700000000001
212042.0,71.268600000000006,-1862.99,-1895.6500000000001,-1875.25,13.047499999999999,23.915900000000001,26.050999999999998
212043.0,75.976500000000001,-2061.6599999999999,-2105.7199999999998,-2074.8400000000001,8.9500899999999994,27.111599999999999,24.442900000000002
212044.0,53.494399999999999,-2271.6900000000001,-2300.3699999999999,-2289.8000000000002,9.1858299999999993,18.0106,18.297000000000001
212045.0,45.1935,-2093.02,-2102.8699999999999,-2116.9099999999999,12.0747,10.2201,16.923500000000001
212046.0,52.5289,-1687.78,-1675.55,-1715.6800000000001,14.0585,2.1171500000000001,17.159600000000001
212047.0,69.944299999999998,-1131.5699999999999,-1103.4000000000001,-1161.01,16.562899999999999,-3.1069,22.736999999999998
212048.0,72.894900000000007,-521.50400000000002,-495.97699999999998,-552.19899999999996,15.882099999999999,-2.8315800000000002,26.804600000000001
212049.0,139.59299999999999,1651.5,1671.5599999999999,1616.1600000000001,57.475499999999997,12.797499999999999,47.343499999999999
212050.0,137.08500000000001,1265.8399999999999,1321.0,1263.5799999999999,55.089599999999997,10.5159,45.398600000000002
212051.0,169.31,5566.0900000000001,5500.5799999999999,5545.2799999999997,49.807299999999998,42.552500000000002,64.370199999999997
212052.0,53.456499999999998,4749.3500000000004,4776.0100000000002,4727.7799999999997,16.222000000000001,-1.78074,10.1242
212053.0,73.158699999999996,2250.8600000000001,2199.6599999999999,2228.3499999999999,7.2281199999999997,25.103400000000001,21.049299999999999
212054.0,55.610700000000001,2132.8200000000002,2125.2399999999998,2105.7399999999998,15.779400000000001,8.7568099999999998,22.584299999999999
212055.0,41.894799999999996,3028.2600000000002,3042.3699999999999,3002.8499999999999,13.255699999999999,-2.8332899999999999,0.47891600000000001
212056.0,143.83000000000001,4966.46,4905.3400000000001,4948.3599999999997,39.3521,39.6616,52.805100000000003
212057.0,152.95699999999999,452.67599999999999,457.40300000000002,435.399,64.722399999999993,26.7623,52.528300000000002
212058.0,146.244,-204.28700000000001,-166.315,-214.631,63.104900000000001,17.3719,46.8812
212059.0,180.214,3244.3000000000002,3215.02,3222.71,69.9011,35.446899999999999,66.727199999999996
212060.0,195.786,1262.3800000000001,1211.21,1238.23,70.036000000000001,40.218899999999998,74.829899999999995
212061.0,187.66399999999999,3695.5900000000001,3637.0599999999999,3671.9699999999998,62.5685,41.653500000000001,72.265299999999996
212062.0,178.84,3704.0999999999999,3641.0100000000002,3681.9299999999998,55.637599999999999,42.522399999999998,68.797300000000007
212063.0,167.74799999999999,-4366.96,-4428.54,-4388.5500000000002,50.315300000000001,42.208599999999997,63.955800000000004
212064.0,157.816,5496.1000000000004,5431.1700000000001,5476.71,44.433500000000002,41.678199999999997,58.988700000000001
212065.0,125.762,6112.0200000000004,6059.9499999999998,6094.9099999999999,34.504600000000003,35.632800000000003,45.907899999999998
212066.0,106.03700000000001,6006.0799999999999,5965.8299999999999,5989.3400000000001,30.049199999999999,30.196400000000001,39.043100000000003
212067.0,80.352999999999994,5771.1999999999998,5749.6400000000003,5754.1000000000004,25.065000000000001,21.563800000000001,30.485299999999999
212068.0,59.701099999999997,5439.5,5439.8000000000002,5419.9399999999996,21.398,10.7905,22.006699999999999
212069.0,38.737200000000001,-5124.6599999999999,-5114.3400000000001,-5139.1599999999999,12.7866,7.3056999999999999,11.305999999999999
212070.0,57.436300000000003,3831.98,3868.4699999999998,3809.73,12.4496,-8.0458499999999997,0.684396
212071.0,41.080300000000001,2616.6799999999998,2603.3299999999999,2591.3800000000001,17.7577,5.1708699999999999,7.7644900000000003
212072.0,39.480800000000002,2312.46,2292.9299999999998,2294.21,14.705299999999999,8.5889799999999994,10.4979
212073.0,43.657600000000002,2105.7600000000002,2078.8400000000001,2091.1300000000001,8.6738900000000001,14.411799999999999,13.069100000000001
212074.0,62.719299999999997,2119.77,2076.7600000000002,2102.27,6.0849000000000002,22.126000000000001,17.798200000000001
212075.0,73.3416,-1948.51,-1996.28,-1971.3599999999999,9.0233799999999995,25.437000000000001,22.2181
212076.0,64.285200000000003,2307.1999999999998,2270.46,2281.79,11.576499999999999,19.685400000000001,22.406300000000002
212077.0,71.179199999999994,1649.9100000000001,1676.4100000000001,1623.28,20.1096,-4.1267899999999997,23.697299999999998
212078.0,80.014499999999998,896.79700000000003,941.97799999999995,873.51400000000001,18.0457,-10.298500000000001,22.150300000000001
212079.0,67.774299999999997,189.17099999999999,224.91999999999999,164.55600000000001,11.427,-7.0994200000000003,20.7087
212080.0,50.366599999999998,78.962000000000003,51.359499999999997,77.395600000000002,-4.2301000000000002,-24.1114,2.4440599999999999
212081.0,139.27500000000001,-660.31200000000001,-607.24900000000002,-674.88199999999995,56.456499999999998,11.792299999999999,43.271700000000003
212082.0,138.94900000000001,646.10799999999995,681.779,632.49099999999999,58.822800000000001,17.751200000000001,44.8613
212083.0,161.11600000000001,-1928.3099999999999,-1925.03,-1948.3900000000001,66.608900000000006,26.252500000000001,58.025300000000001
212084.0,183.13399999999999,-1879.6600000000001,-1909.71,-1901.4100000000001,68.261300000000006,35.139299999999999,71.022599999999997
212085.0,183.50200000000001,-1576.4300000000001,-1627.3299999999999,-1600.3299999999999,62.839399999999998,40.224400000000003,70.774600000000007
212086.0,175.84,-3150.7199999999998,-3208.27,-3174.4400000000001,56.353900000000003,41.589399999999998,67.561999999999998
212087.0,157.97300000000001,-5567.8400000000001,-5631.1300000000001,-5587.4899999999998,44.805300000000003,42.025100000000002,59.122799999999998
212088.0,145.96299999999999,-4607.6499999999996,-4669.9099999999999,-4625.4700000000003,39.447200000000002,40.840200000000003,53.381399999999999
212089.0,131.29599999999999,-5020.9899999999998,-5079.0100000000002,-5037.1700000000001,34.187399999999997,38.4726,46.912300000000002
212090.0,113.023,-5939.6999999999998,-5988.4099999999999,-5954.6400000000003,29.306699999999999,34.1402,40.138199999999998
212091.0,89.349100000000007,-5731.0200000000004,-5766.3900000000003,-5744.7799999999997,23.432700000000001,28.0062,31.775700000000001
212092.0,63.3902,-5527.0900000000001,-5543.2399999999998,-5540.8999999999996,18.734200000000001,19.143999999999998,23.363199999999999
212093.0,50.7498,-4322.3999999999996,-4287.1000000000004,-4339.1199999999999,11.449299999999999,-4.15977,2.2005699999999999
212094.0,57.711799999999997,-3344.2800000000002,-3309.9499999999998,-3365.0,16.807200000000002,-6.2837699999999996,3.9010199999999999
212095.0,52.212600000000002,-2646.4099999999999,-2642.6399999999999,-2672.9699999999998,22.771899999999999,1.9231100000000001,10.641400000000001
212096.0,46.181899999999999,-2307.0999999999999,-2319.6999999999998,-2332.29,18.959900000000001,7.4971899999999998,11.686199999999999
212097.0,45.439999999999998,-2014.98,-2032.27,-2036.98,13.9655,11.556800000000001,15.018599999999999
212098.0,60.156100000000002,-1854.26,-1886.47,-1876.97,11.632400000000001,19.312899999999999,20.5898
212099.0,68.490499999999997,-2121.0300000000002,-2167.8600000000001,-2142.9400000000001,6.6765299999999996,24.694700000000001,18.978200000000001
212100.0,46.696199999999997,-2206.9699999999998,-2231.0999999999999,-2228.6100000000001,6.8453099999999996,15.918900000000001,15.8248
212101.0,41.873600000000003,-2007.4000000000001,-2000.5799999999999,-2031.3800000000001,9.4067100000000003,3.59612,14.881600000000001
212102.0,70.062299999999993,-1476.8199999999999,-1439.51,-1502.78,14.6471,-8.0204900000000006,18.6023
212103.0,81.344200000000001,-689.93799999999999,-647.69799999999998,-717.08299999999997,16.935500000000001,-9.3815799999999996,24.662400000000002
212104.0,138.423,-2437.6100000000001,-2420.6199999999999,-2469.21,61.845199999999998,10.8376,42.856000000000002
212105.0,136.91399999999999,-768.78200000000004,-714.76700000000005,-772.55100000000004,56.718400000000003,10.725099999999999,43.259099999999997
212106.0,164.53800000000001,4266.9099999999999,4200.6599999999999,4241.2600000000002,50.710799999999999,41.057200000000002,60.424100000000003
212107.0,50.223599999999998,4847.0699999999997,4851.1000000000004,4821.2200000000003,18.689499999999999,6.49716,13.6518
212108.0,62.503399999999999,2190.0900000000001,2148.5900000000001,2173.8400000000001,6.6764400000000004,22.181699999999999,18.1205
212109.0,54.412300000000002,2121.2199999999998,2118.0700000000002,2106.23,12.425700000000001,10.7729,25.5732
212110.0,39.497,3597.9200000000001,3595.8400000000001,3572.3299999999999,16.888400000000001,3.9332400000000001,4.1711799999999997
212111.0,141.14599999999999,6463.0200000000004,6400.9799999999996,6441.1400000000003,40.030999999999999,38.566600000000001,50.6053
212112.0,151.91900000000001,1890.9100000000001,1900.26,1873.9000000000001,64.177199999999999,28.138000000000002,51.029800000000002
212113.0,146.58799999999999,1533.0,1574.9400000000001,1520.1300000000001,61.987099999999998,17.732600000000001,46.737499999999997
212114.0,180.13499999999999,599.43899999999996,568.80600000000004,574.54999999999995,71.756,35.787799999999997,64.198099999999997
212115.0,192.52799999999999,4379.3299999999999,4326.3800000000001,4350.0900000000001,71.4953,39.214399999999998,70.731800000000007
212116.0,181.39599999999999,3590.0300000000002,3531.27,3561.2800000000002,62.930500000000002,40.131799999999998,67.336500000000001
212117.0,173.01499999999999,4968.1700000000001,4904.4300000000003,4940.9300000000003,56.386600000000001,40.879600000000003,64.0672
212118.0,162.81999999999999,-4404.3299999999999,-4466.5600000000004,-4431.0100000000002,51.268799999999999,40.581800000000001,59.890999999999998
212119.0,154.136,5263.0500000000002,5197.25,5239.1899999999996,45.354399999999998,40.384,55.872799999999998
212120.0,124.473,5699.6800000000003,5645.9799999999996,5679.5100000000002,34.844499999999996,34.978999999999999,44.6218
212121.0,106.45399999999999,5855.8999999999996,5812.5200000000004,5836.3699999999999,30.110099999999999,30.252199999999998,38.520200000000003
212122.0,84.233400000000003,5766.9899999999998,5738.6800000000003,5747.25,25.290800000000001,23.404900000000001,31.094200000000001
212123.0,65.142200000000003,5359.71,5346.9099999999999,5336.9799999999996,22.161000000000001,15.503,23.5212
212124.0,47.181100000000001,-5058.2399999999998,-5062.2200000000003,-5074.8400000000001,15.7584,13.178000000000001,15.650399999999999
212125.0,45.390900000000002,4217.54,4228.0699999999997,4190.9899999999998,16.967400000000001,1.2367999999999999,5.6776900000000001
212126.0,47.380299999999998,3145.9099999999999,3126.79,3118.21,19.697399999999998,8.2248699999999992,9.5705299999999998
212127.0,43.1021,2881.1999999999998,2863.5799999999999,2854.8499999999999,17.079000000000001,6.6561599999999999,10.152100000000001
212128.0,33.361400000000003,2546.46,2532.48,2526.71,11.6587,6.6844299999999999,9.3448499999999992
212129.0,41.343400000000003,2250.4699999999998,2224.4200000000001,2234.4000000000001,7.3745500000000002,13.917400000000001,12.2051
212130.0,60.32,-2000.74,-2034.1300000000001,-2023.0599999999999,11.6107,19.0273,20.654
212131.0,64.488699999999994,2263.71,2229.8800000000001,2247.3899999999999,9.6636399999999991,21.035599999999999,23.7516
212132.0,68.372299999999996,1675.01,1706.1099999999999,1659.9200000000001,16.632999999999999,-1.9452400000000001,26.891500000000001
212133.0,81.982399999999998,983.255,1035.76,970.84799999999996,17.4679,-10.306900000000001,25.3338
212134.0,76.319900000000004,214.30699999999999,269.44,205.327,12.103400000000001,-10.7553,21.777799999999999
212135.0,43.970500000000001,49.996699999999997,30.8706,60.600200000000001,-2.3495200000000001,-20.265999999999998,-1.10511
212136.0,139.97499999999999,-383.88799999999998,-330.05700000000002,-399.61099999999999,57.128100000000003,11.9072,42.368600000000001
212137.0,138.797,-2359.02,-2316.52,-2373.21,57.654800000000002,18.773199999999999,43.301000000000002
212138.0,162.679,-751.73199999999997,-743.71299999999997,-772.83100000000002,67.756799999999998,27.597000000000001,56.944200000000002
212139.0,181.893,-2405.5900000000001,-2438.8200000000002,-2432.9000000000001,70.317300000000003,35.149000000000001,67.336299999999994
212140.0,178.56399999999999,-4468.46,-4520.5,-4497.2299999999996,63.251300000000001,39.311199999999999,66.3523
212141.0,169.983,-4366.5200000000004,-4424.5799999999999,-4394.8500000000004,56.885199999999998,39.835599999999999,62.972499999999997
212142.0,154.077,-4247.3100000000004,-4311.3599999999997,-4271.9399999999996,45.816899999999997,40.6038,55.869700000000002
212143.0,143.15700000000001,-6026.3000000000002,-6089.1899999999996,-6048.6700000000001,40.388800000000003,39.743000000000002,51.031700000000001
212144.0,129.53999999999999,-6182.1999999999998,-6240.54,-6202.1099999999997,34.8506,37.722900000000003,45.566000000000003
212145.0,112.779,-5547.8900000000003,-5597.3800000000001,-5565.8000000000002,29.666599999999999,33.957599999999999,39.733699999999999
212146.0,92.051599999999993,-5708.3800000000001,-5746.0,-5724.6800000000003,23.984400000000001,28.796700000000001,32.620899999999999
212147.0,70.258399999999995,-5494.4499999999998,-5516.6000000000004,-5510.2600000000002,19.8399,21.829499999999999,25.3977
212148.0,40.421999999999997,-4530.9099999999999,-4519.6599999999999,-4549.1999999999998,15.5252,4.7640799999999999,7.6588000000000003
212149.0,44.6327,-3874.0900000000001,-3862.52,-3894.4899999999998,18.846,1.85677,6.5852000000000004
212150.0,49.145600000000002,-3232.8400000000001,-3241.3099999999999,-3256.9200000000001,21.856300000000001,6.7382499999999999,11.5213
212151.0,44.719799999999999,-2906.5599999999999,-2923.9400000000001,-2933.1300000000001,17.634699999999999,8.0400799999999997,10.432700000000001
212152.0,37.696899999999999,-2655.71,-2667.8699999999999,-2680.3400000000001,13.712300000000001,6.2175799999999999,9.7661099999999994
212153.0,42.528799999999997,-2263.1199999999999,-2277.9699999999998,-2284.4699999999998,12.822800000000001,9.7815100000000008,14.9367
212154.0,68.470799999999997,-2050.1900000000001,-2093.3299999999999,-2071.73,7.0733100000000002,24.246200000000002,21.441700000000001
212155.0,50.015799999999999,-2179.0999999999999,-2201.77,-2196.5799999999999,3.5823999999999998,17.8078,19.046800000000001
212156.0,41.212400000000002,-2011.8,-2000.96,-2025.97,5.3113700000000001,5.7813600000000003,18.631499999999999
212157.0,65.832599999999999,-1541.55,-1499.22,-1554.6400000000001,11.564299999999999,-6.3463900000000004,20.7807
212158.0,82.850399999999993,-812.71299999999997,-754.61900000000003,-823.27499999999998,14.777200000000001,-12.021000000000001,23.633099999999999
212159.0,136.971,1658.9200000000001,1673.71,1629.3399999999999,66.0137,9.3884500000000006,36.019199999999998
212160.0,134.99299999999999,1262.46,1316.3399999999999,1260.5999999999999,56.950899999999997,11.130800000000001,41.292299999999997
212161.0,159.05099999999999,5270.2200000000003,5203.3800000000001,5239.6499999999996,51.426099999999998,38.973500000000001,56.116500000000002
212162.0,63.6661,5032.1400000000003,5007.6999999999998,4997.46,23.994299999999999,15.3436,14.918900000000001
212163.0,45.567300000000003,2545.3099999999999,2519.54,2523.1500000000001,12.2598,12.945499999999999,13.396000000000001
212164.0,52.552999999999997,1975.1800000000001,1980.53,1958.5599999999999,13.9031,6.8299799999999999,23.438800000000001
212165.0,54.9788,4183.3999999999996,4160.2799999999997,4147.8999999999996,23.056899999999999,10.2463,6.8115699999999997
212166.0,137.501,4612.0600000000004,4547.8900000000003,4584.3299999999999,41.347799999999999,36.755600000000001,46.965200000000003
212167.0,146.77000000000001,415.62900000000002,423.36700000000002,398.77300000000002,61.925699999999999,25.980499999999999,50.1252
212168.0,144.63,-193.667,-153.76400000000001,-207.28999999999999,60.636299999999999,16.457999999999998,47.445900000000002
212169.0,175.38200000000001,3150.04,3119.5900000000001,3123.04,70.554900000000004,35.002000000000002,61.414999999999999
212170.0,188.10599999999999,1143.71,1090.47,1111.0799999999999,71.350399999999993,38.3598,67.168700000000001
212171.0,175.76400000000001,3523.4499999999998,3464.21,3490.6500000000001,62.895499999999998,38.255099999999999,63.226199999999999
212172.0,167.03200000000001,3463.8899999999999,3399.9400000000001,3432.0,56.684100000000001,38.866999999999997,59.614899999999999
212173.0,157.494,-4102.8599999999997,-4165.3000000000002,-4134.1300000000001,51.921500000000002,38.576000000000001,55.762999999999998
212174.0,149.40000000000001,5162.9300000000003,5095.96,5133.8500000000004,46.347799999999999,38.348100000000002,51.902500000000003
212175.0,122.934,5755.1199999999999,5696.9700000000003,5728.1899999999996,36.626199999999997,33.799100000000003,41.311700000000002
212176.0,107.505,5680.7399999999998,5630.0299999999997,5653.4799999999996,32.412700000000001,30.031199999999998,35.436599999999999
212177.0,90.033199999999994,5532.6400000000003,5491.96,5504.29,28.450700000000001,25.110199999999999,28.758500000000002
212178.0,75.613100000000003,5382.2399999999998,5349.9799999999996,5350.6400000000003,25.927299999999999,20.151900000000001,22.078299999999999
212179.0,64.291799999999995,-5145.0699999999997,-5170.2399999999998,-5171.4399999999996,22.077300000000001,19.311699999999998,17.1996
212180.0,58.173499999999997,4598.8299999999999,4577.5200000000004,4562.3299999999999,23.7759,11.8049,9.3460900000000002
212181.0,54.6892,3845.5799999999999,3818.7399999999998,3809.8400000000001,22.1266,10.021699999999999,7.7976200000000002
212182.0,51.103200000000001,3444.0500000000002,3417.9499999999998,3408.1999999999998,19.466699999999999,9.3553499999999996,7.7761199999999997
212183.0,46.745899999999999,3099.5,3075.25,3065.9200000000001,17.171600000000002,8.6353399999999993,7.6524999999999999
212184.0,42.4876,2814.0999999999999,2790.3000000000002,2786.4899999999998,14.363300000000001,9.6979699999999998,8.8023799999999994
212185.0,46.747199999999999,-2645.3200000000002,-2670.9299999999998,-2672.8299999999999,13.7775,11.087,13.400499999999999
212186.0,49.447800000000001,2297.5599999999999,2280.25,2277.79,12.495100000000001,12.5238,19.6462
212187.0,66.539400000000001,1473.0,1505.1600000000001,1459.6800000000001,16.863,-1.2458899999999999,25.364699999999999
212188.0,76.852900000000005,823.01800000000003,869.79100000000005,811.06799999999998,18.508400000000002,-6.5985300000000002,24.890499999999999
212189.0,78.985399999999998,163.411,219.30099999999999,154.339,16.2409,-10.2456,21.751999999999999
212190.0,40.185200000000002,43.244999999999997,19.110099999999999,49.204500000000003,-1.41422,-16.640899999999998,-2.3270599999999999
212191.0,140.69399999999999,-672.75800000000004,-618.64700000000005,-688.25999999999999,57.672400000000003,11.6454,42.435600000000001
212192.0,134.529,658.78499999999997,698.61300000000006,645.30200000000002,56.149299999999997,17.224900000000002,42.601799999999997
212193.0,156.446,-1832.75,-1824.3800000000001,-1854.05,65.107399999999998,26.049099999999999,54.835099999999997
212194.0,178.02799999999999,-1748.4000000000001,-1780.55,-1779.55,70.378699999999995,34.627000000000002,63.862099999999998
212195.0,174.298,-1433.8299999999999,-1487.3499999999999,-1467.29,63.4221,38.061300000000003,62.645600000000002
212196.0,164.56700000000001,-2948.9899999999998,-3006.9699999999998,-2981.5500000000002,57.146700000000003,38.116999999999997,58.854599999999998
212197.0,149.41999999999999,-5256.6899999999996,-5321.0699999999997,-5286.25,46.887300000000003,38.691600000000001,52.0411
212198.0,139.352,-4266.1499999999996,-4329.71,-4293.7799999999997,41.752400000000002,38.018300000000004,47.628799999999998
212199.0,127.05,-4663.71,-4723.6599999999999,-4689.5200000000004,36.688899999999997,36.322499999999998,42.552799999999998
212200.0,112.495,-5587.8500000000004,-5641.04,-5612.4499999999998,32.064900000000002,33.322400000000002,37.031300000000002
212201.0,95.742099999999994,-5424.1300000000001,-5468.6199999999999,-5448.2200000000003,27.487300000000001,29.384699999999999,30.666699999999999
212202.0,79.379400000000004,-5328.71,-5362.9799999999996,-5353.3100000000004,24.408899999999999,24.507100000000001,24.328499999999998
212203.0,56.146299999999997,-4757.0799999999999,-4776.8400000000001,-4785.6499999999996,22.2193,14.6189,11.3705
212204.0,53.445300000000003,-4330.54,-4349.96,-4361.1300000000001,22.7927,11.2256,8.1796699999999998
212205.0,53.162999999999997,-3983.4699999999998,-4006.9400000000001,-4015.29,22.148499999999999,10.225099999999999,8.6493099999999998
212206.0,49.907200000000003,-3623.9699999999998,-3648.4000000000001,-3657.4000000000001,19.361999999999998,9.4322199999999992,8.1999999999999993
212207.0,46.692300000000003,-3232.1799999999998,-3255.9000000000001,-3265.3000000000002,17.219000000000001,8.7778700000000001,7.8658000000000001
212208.0,43.937600000000003,-2930.7399999999998,-2953.5300000000002,-2961.1999999999998,15.428900000000001,8.5592699999999997,9.0144599999999997
212209.0,49.472299999999997,-2379.8400000000001,-2405.6999999999998,-2405.3299999999999,10.185499999999999,13.823499999999999,17.356200000000001
212210.0,44.618600000000001,-2176.8400000000001,-2186.9299999999998,-2199.4000000000001,7.6670699999999998,10.9816,18.883500000000002
212211.0,47.871899999999997,-1856.28,-1840.0799999999999,-1873.1900000000001,8.6802799999999998,4.0724799999999997,19.946100000000001
212212.0,65.629999999999995,-1341.3399999999999,-1302.03,-1354.3499999999999,13.8786,-3.5087100000000002,22.105599999999999
212213.0,77.0916,-716.26199999999994,-662.17899999999997,-726.798,15.3734,-9.31372,21.353999999999999
212214.0,135.262,-2311.54,-2298.1799999999998,-2341.71,67.960899999999995,8.4076000000000004,30.196200000000001
212215.0,130.59999999999999,-838.19100000000003,-785.92700000000002,-837.92100000000005,57.820900000000002,10.8314,36.317900000000002
212216.0,154.29900000000001,3940.7800000000002,3871.9699999999998,3904.52,52.619399999999999,36.584699999999998,51.417999999999999
212217.0,85.113600000000005,5296.4300000000003,5247.8800000000001,5251.2299999999996,30.532299999999999,22.7926,15.0936
212218.0,50.789999999999999,3038.77,3020.4899999999998,3003.4499999999998,18.5381,9.5969999999999995,10.588800000000001
212219.0,56.860399999999998,2117.8099999999999,2129.0300000000002,2092.1500000000001,19.142199999999999,3.45689,18.488800000000001
212220.0,74.898300000000006,4806.1300000000001,4764.4399999999996,4758.3800000000001,28.260000000000002,17.849399999999999,8.76281
212221.0,136.00299999999999,6098.7399999999998,6029.4399999999996,6063.0100000000002,44.055,35.045099999999998,42.376399999999997
212222.0,144.28999999999999,1880.5799999999999,1885.0999999999999,1859.3800000000001,64.872799999999998,24.086200000000002,44.302799999999998
212223.0,143.679,1522.6800000000001,1559.7,1507.3800000000001,63.905000000000001,15.280799999999999,42.898499999999999
212224.0,168.41999999999999,503.68200000000002,470.90699999999998,472.60700000000003,70.179699999999997,32.351500000000001,56.061199999999999
212225.0,180.40700000000001,4202.2799999999997,4147.9300000000003,4165.9700000000003,70.518000000000001,35.837899999999998,61.849200000000003
212226.0,169.53399999999999,3360.4400000000001,3300.5100000000002,3324.29,62.794400000000003,36.105200000000004,58.506999999999998
212227.0,161.65700000000001,4685.75,4620.4499999999998,4649.1999999999998,57.133099999999999,36.521999999999998,55.151400000000002
212228.0,152.953,-4102.79,-4166.0699999999997,-4138.8999999999996,53.051099999999998,36.468299999999999,51.439399999999999
212229.0,145.876,4906.9799999999996,4836.8599999999997,4871.1300000000001,48.260199999999998,36.1663,47.188499999999998
212230.0,124.83199999999999,5361.6700000000001,5295.29,5325.3900000000003,40.183900000000001,33.142600000000002,37.1023
212231.0,113.53700000000001,5591.9799999999996,5529.4200000000001,5554.0600000000004,36.841999999999999,30.7775,31.608000000000001
212232.0,101.857,5643.6999999999998,5586.4799999999996,5603.5500000000002,33.9724,27.9115,25.730699999999999
212233.0,92.801599999999993,5463.8900000000003,5410.8999999999996,5420.8400000000001,32.082299999999996,25.343,20.143599999999999
212234.0,84.741200000000006,-5235.5299999999997,-5283.46,-5274.79,28.997499999999999,24.8462,16.834700000000002
212235.0,79.910200000000003,5091.0200000000004,5045.8100000000004,5044.1700000000001,29.6327,20.362500000000001,11.350899999999999
212236.0,69.984200000000001,4430.79,4392.5699999999997,4383.3599999999997,26.375299999999999,15.8521,7.282
212237.0,64.671899999999994,4118.6300000000001,4083.5,4073.0599999999999,23.814800000000002,14.691700000000001,6.4177200000000001
212238.0,60.807600000000001,3779.8600000000001,3747.0999999999999,3736.2600000000002,21.888999999999999,13.8543,6.7957299999999998
212239.0,55.781700000000001,3413.2399999999998,3386.46,3373.04,20.306999999999999,11.835599999999999,8.1182700000000008
212240.0,50.166699999999999,-3248.1100000000001,-3272.75,-3286.1700000000001,16.643999999999998,10.5311,8.8528199999999995
212241.0,49.953699999999998,2622.3699999999999,2617.4000000000001,2592.0999999999999,17.805099999999999,6.8026099999999996,14.3142
212242.0,71.633499999999998,1535.47,1568.8499999999999,1516.0899999999999,22.341200000000001,-1.6958899999999999,22.276299999999999
212243.0,79.564599999999999,862.07000000000005,908.52599999999995,847.77599999999995,23.046700000000001,-4.5751600000000003,23.436199999999999
212244.0,82.682500000000005,161.13900000000001,217.50399999999999,150.41399999999999,21.335599999999999,-7.26145,21.7256
212245.0,36.523499999999999,28.985399999999998,4.5018200000000004,34.616300000000003,-2.6205799999999999,-13.3285,-1.9487099999999999
212246.0,140.172,-328.36700000000002,-274.59199999999998,-343.59100000000001,59.101799999999997,10.7182,40.3414
212247.0,133.494,-2372.3899999999999,-2334.4400000000001,-2387.5,58.869900000000001,16.409099999999999,38.183900000000001
212248.0,151.09,-720.32899999999995,-714.27499999999998,-744.69000000000005,65.209500000000006,24.398700000000002,50.0259
212249.0,170.41399999999999,-2264.04,-2297.5100000000002,-2298.52,69.058999999999997,32.107900000000001,59.120899999999999
212250.0,167.81399999999999,-4262.75,-4316.71,-4300.3299999999999,63.4756,35.674399999999999,57.619
212251.0,159.46600000000001,-4113.46,-4172.0500000000002,-4150.0799999999999,57.429400000000001,36.005800000000001,54.824800000000003
212252.0,145.565,-3906.9400000000001,-3972.8800000000001,-3942.21,48.652900000000002,36.561500000000002,47.652299999999997
212253.0,136.916,-5661.8999999999996,-5728.3500000000004,-5696.3299999999999,44.293599999999998,36.122599999999998,43.3292
212254.0,126.908,-5818.8999999999996,-5883.7600000000002,-5852.7399999999998,40.100700000000003,34.982700000000001,38.525199999999998
212255.0,115.80800000000001,-5221.8599999999997,-5283.2700000000004,-5255.8900000000003,36.354599999999998,33.025799999999997,33.340600000000002
212256.0,104.087,-5471.4799999999996,-5528.3999999999996,-5506.5600000000004,32.980400000000003,30.555499999999999,27.663799999999998
212257.0,93.425799999999995,-5416.4499999999998,-5468.2700000000004,-5453.3199999999997,30.7395,27.6296,22.1297
212258.0,78.751300000000001,-5096.04,-5141.0799999999999,-5137.4799999999996,28.114000000000001,22.135100000000001,12.670400000000001
212259.0,73.380300000000005,-4891.9799999999996,-4934.1999999999998,-4935.0799999999999,26.8352,19.415400000000002,9.5396699999999992
212260.0,68.377099999999999,-4557.0,-4595.9099999999999,-4601.1199999999999,25.260000000000002,16.796700000000001,7.5453299999999999
212261.0,63.379300000000001,-4229.1300000000001,-4264.3800000000001,-4273.0100000000002,23.189399999999999,14.779299999999999,6.4949300000000001
212262.0,59.9313,-3934.5900000000001,-3968.1900000000001,-3977.5300000000002,21.242899999999999,13.836399999999999,6.6674100000000003
212263.0,55.667499999999997,-3591.79,-3623.0700000000002,-3633.2600000000002,18.849699999999999,12.654,7.1014099999999996
212264.0,45.570999999999998,-2892.54,-2906.8299999999999,-2926.0100000000002,14.316599999999999,8.4121799999999993,11.596399999999999
212265.0,47.1004,-2469.1799999999998,-2469.4699999999998,-2498.5300000000002,14.038,5.7741600000000002,14.994300000000001
212266.0,54.427599999999998,-1977.23,-1958.76,-2001.53,14.8681,1.62724,17.4236
212267.0,70.985399999999998,-1416.8299999999999,-1377.96,-1435.28,19.266999999999999,-3.3693499999999998,20.997
212268.0,79.649699999999996,-752.92100000000005,-699.60699999999997,-766.06600000000003,19.708500000000001,-6.9700899999999999,20.9528
212269.0,135.072,1694.53,1707.8599999999999,1664.0599999999999,71.023600000000002,8.0445899999999995,21.640499999999999
212270.0,123.89100000000001,1264.6500000000001,1315.6400000000001,1268.49,56.779699999999998,10.215,31.333300000000001
212271.0,151.47800000000001,4947.7700000000004,4875.1999999999998,4905.1199999999999,54.7575,34.265300000000003,46.323599999999999
212272.0,99.384,5620.21,5557.04,5569.9499999999998,33.623899999999999,27.671800000000001,16.7988
212273.0,53.3386,3456.0799999999999,3444.3400000000001,3422.0700000000002,19.3063,11.6304,11.9114
212274.0,60.857399999999998,2378.52,2397.4200000000001,2354.5100000000002,21.814599999999999,2.8041900000000002,16.982299999999999
212275.0,85.458299999999994,5234.21,5182.0600000000004,5184.8100000000004,28.970500000000001,24.1587,12.2582
212276.0,137.78800000000001,4323.0500000000002,4246.5,4278.6099999999997,47.805100000000003,33.7881,37.732100000000003
212277.0,144.71799999999999,358.34199999999998,364.07900000000001,336.47399999999999,65.230000000000004,23.791499999999999,44.134900000000002
212278.0,142.62899999999999,-230.92699999999999,-196.251,-247.14400000000001,62.781100000000002,14.734299999999999,44.119700000000002
212279.0,161.40899999999999,3059.0599999999999,3027.1999999999998,3025.6100000000001,69.864800000000002,30.302399999999999,50.287599999999998
212280.0,171.459,959.495,904.58100000000002,919.15800000000002,69.822500000000005,32.838200000000001,55.106099999999998
212281.0,163.667,3255.1999999999998,3193.3699999999999,3214.04,63.238399999999999,33.489199999999997,53.081499999999998
212282.0,157.24799999999999,3159.3000000000002,3091.3400000000001,3117.3400000000001,58.476700000000001,33.990499999999997,49.917499999999997
212283.0,149.637,-3786.8299999999999,-3852.46,-3828.4000000000001,54.969299999999997,34.136699999999998,46.630099999999999
212284.0,144.98599999999999,4842.6700000000001,4767.2700000000004,4799.21,51.231099999999998,34.208599999999997,42.184899999999999
212285.0,130.08000000000001,5535.3400000000001,5459.1400000000003,5489.6000000000004,44.572099999999999,32.989800000000002,33.0762
212286.0,122.408,5583.0799999999999,5508.4399999999996,5535.7600000000002,41.606299999999997,32.021000000000001,28.494299999999999
212287.0,114.373,5615.8400000000001,5544.3500000000004,5567.1099999999997,38.8155,30.725300000000001,23.993099999999998
212288.0,107.011,5701.25,5633.2200000000003,5651.3199999999997,36.238500000000002,29.3294,20.0562
212289.0,99.159499999999994,-5519.5200000000004,-5583.2200000000003,-5566.4200000000001,32.499499999999998,28.680399999999999,17.565200000000001
212290.0,92.533000000000001,5444.4099999999999,5386.3599999999997,5394.25,31.3569,25.9815,14.300000000000001
212291.0,78.544300000000007,5020.9099999999999,4974.8999999999996,4972.8299999999999,26.697099999999999,22.110499999999998,10.771599999999999
212292.0,71.014899999999997,4669.4799999999996,4630.4099999999999,4623.9899999999998,24.212299999999999,19.783799999999999,9.8601600000000005
212293.0,63.831299999999999,4297.4099999999999,4265.7600000000002,4255.5100000000002,21.8507,17.493099999999998,9.8845500000000008
212294.0,57.554699999999997,3910.6599999999999,3888.4000000000001,3872.75,20.2105,14.770899999999999,10.705
212295.0,51.2119,-3724.1900000000001,-3743.1599999999999,-3760.0900000000001,16.562100000000001,13.148,10.228
212296.0,53.017299999999999,2943.4499999999998,2946.4899999999998,2914.27,19.491800000000001,7.2211400000000001,13.7255
212297.0,78.477400000000003,1707.05,1748.48,1690.5699999999999,26.476500000000001,-2.8215499999999998,21.297899999999998
212298.0,86.545199999999994,924.03599999999994,977.77599999999995,912.947,27.2804,-5.4335100000000001,22.817699999999999
212299.0,89.666600000000003,168.815,232.00200000000001,163.18299999999999,25.825900000000001,-7.5297900000000002,22.277999999999999
212300.0,38.349600000000002,49.728900000000003,30.2547,64.6096,-2.5832199999999998,-13.518800000000001,-1.9936100000000001
212301.0,137.90899999999999,-666.77999999999997,-612.76999999999998,-680.61500000000001,59.324599999999997,9.3021499999999993,38.058500000000002
212302.0,133.79599999999999,715.68100000000004,752.14499999999998,699.58600000000001,59.148600000000002,16.092600000000001,38.528599999999997
212303.0,146.69,-1774.52,-1767.8,-1799.47,64.283199999999994,23.952999999999999,46.777799999999999
212304.0,162.03399999999999,-1631.8399999999999,-1665.53,-1670.1700000000001,68.588800000000006,29.377800000000001,52.407699999999998
212305.0,161.19900000000001,-1207.6300000000001,-1261.72,-1249.8900000000001,63.707900000000002,32.7226,52.188499999999998
212306.0,154.87200000000001,-2660.79,-2720.7800000000002,-2701.96,58.629399999999997,33.5974,49.873399999999997
212307.0,143.791,-4929.1300000000001,-4998.6700000000001,-4971.0100000000002,51.418100000000003,34.442700000000002,42.848500000000001
212308.0,137.16200000000001,-3949.23,-4020.9899999999998,-3991.4499999999998,47.8459,34.369500000000002,38.724499999999999
212309.0,129.84399999999999,-4386.8299999999999,-4459.3400000000001,-4429.6700000000001,44.361800000000002,33.851100000000002,34.311199999999999
212310.0,122.163,-5392.2799999999997,-5464.1099999999997,-5436.0900000000001,41.116300000000003,32.9527,29.793600000000001
212311.0,114.268,-5364.5600000000004,-5434.6300000000001,-5409.5299999999997,37.997399999999999,31.782900000000001,25.265899999999998
212312.0,106.626,-5461.8800000000001,-5529.0299999999997,-5507.9799999999996,35.289499999999997,30.293600000000001,21.146599999999999
212313.0,92.181700000000006,-5394.8999999999996,-5454.1800000000003,-5442.1199999999999,30.156199999999998,26.905200000000001,14.749499999999999
212314.0,84.994699999999995,-5212.3900000000003,-5266.4899999999998,-5259.4499999999998,27.678100000000001,24.966000000000001,12.3802
212315.0,78.135400000000004,-5056.2799999999997,-5104.9300000000003,-5102.7399999999998,25.357199999999999,22.910399999999999,10.590400000000001
212316.0,70.863799999999998,-4805.1199999999999,-4847.7700000000004,-4850.1899999999996,22.843800000000002,20.5702,9.2936899999999998
212317.0,63.754300000000001,-4449.3400000000001,-4485.3400000000001,-4491.8900000000003,20.413499999999999,18.235199999999999,8.9846900000000005
212318.0,56.939399999999999,-4105.7700000000004,-4134.1999999999998,-4145.1099999999997,18.062000000000001,15.9452,9.3706099999999992
212319.0,46.618200000000002,-3270.9000000000001,-3278.1399999999999,-3302.75,15.131399999999999,9.6592500000000001,11.1099
212320.0,48.8767,-2784.5100000000002,-2777.8099999999999,-2811.8400000000001,16.020399999999999,5.6396600000000001,13.525499999999999
212321.0,57.927700000000002,-2227.5799999999999,-2202.75,-2249.1900000000001,17.8278,0.94193400000000005,16.1187
212322.0,77.496899999999997,-1560.5,-1514.03,-1575.0699999999999,23.480399999999999,-4.3539300000000001,20.385300000000001
212323.0,86.243099999999998,-808.048,-748.31299999999999,-816.60599999999999,24.247199999999999,-7.1669900000000002,21.348199999999999
212324.0,135.13200000000001,-2096.7199999999998,-2082.7600000000002,-2131.5900000000001,71.554000000000002,7.9235899999999999,16.482700000000001
212325.0,117.86199999999999,-938.15700000000004,-887.34100000000001,-930.92200000000003,58.409100000000002,9.2979500000000002,19.4116
212326.0,150.95400000000001,3664.21,3586.4099999999999,3614.48,57.794400000000003,32.027799999999999,40.955399999999997
212327.0,105.258,5773.9300000000003,5702.6599999999999,5722.1800000000003,34.193800000000003,29.2029,17.7392
212328.0,49.896299999999997,3658.2800000000002,3650.4099999999999,3628.8800000000001,17.8521,11.2393,12.376899999999999
212329.0,60.368600000000001,2495.0100000000002,2519.27,2476.3200000000002,21.859400000000001,2.3672399999999998,16.360800000000001
212330.0,87.962900000000005,5528.0799999999999,5470.29,5480.1599999999999,27.788,25.595400000000001,14.0085
212331.0,141.148,5916.79,5832.9700000000003,5864.5100000000002,51.6524,32.597799999999999,33.436599999999999
212332.0,145.09299999999999,1881.1600000000001,1881.3699999999999,1855.1600000000001,68.085400000000007,20.7652,41.511600000000001
212333.0,140.39500000000001,1486.51,1514.3699999999999,1465.6500000000001,66.644400000000005,13.5327,36.719200000000001
212334.0,152.922,406.26299999999998,375.71100000000001,371.23899999999998,67.951800000000006,27.151499999999999,45.5745
212335.0,161.68600000000001,3982.6599999999999,3928.9000000000001,3940.0,68.009,30.2654,48.655000000000001
212336.0,159.15899999999999,3090.6399999999999,3026.1100000000001,3045.3299999999999,64.024799999999999,30.9786,47.826599999999999
212337.0,154.857,4399.6599999999999,4327.6499999999996,4351.7299999999996,60.577500000000001,31.453600000000002,44.615099999999998
212338.0,148.23699999999999,-3813.1900000000001,-3882.6999999999998,-3860.8600000000001,57.764800000000001,31.771799999999999,41.411799999999999
212339.0,146.36199999999999,4665.1800000000003,4583.5,4614.0100000000002,54.798699999999997,32.401400000000002,37.209699999999998
212340.0,135.24799999999999,5270.4300000000003,5186.1999999999998,5217.3999999999996,48.300199999999997,32.5944,29.808299999999999
212341.0,128.779,5619.4899999999998,5536.3000000000002,5566.04,44.868899999999996,32.309699999999999,26.3338
212342.0,121.259,5814.4099999999999,5734.0900000000001,5761.1000000000004,41.243400000000001,31.570900000000002,23.087900000000001
212343.0,113.566,5790.0200000000004,5713.4399999999996,5737.21,37.653399999999998,30.577200000000001,20.244599999999998
212344.0,105.511,-5583.3699999999999,-5655.8599999999997,-5633.8500000000004,33.465299999999999,29.738499999999998,18.0322
212345.0,97.028700000000001,5703.8199999999997,5638.6400000000003,5653.5900000000001,31.042000000000002,27.603899999999999,15.712300000000001
212346.0,78.903599999999997,5227.6099999999997,5177.8599999999997,5182.5100000000002,24.7362,23.3505,12.772
212347.0,69.887200000000007,4948.7299999999996,4907.96,4906.9099999999999,22.041499999999999,20.7728,11.914
212348.0,61.5486,4586.1700000000001,4555.0699999999997,4547.9300000000003,19.921199999999999,17.9023,11.492599999999999
212349.0,54.288899999999998,4140.6199999999999,4120.9700000000003,4106.7200000000003,18.548999999999999,14.584099999999999,11.6579
212350.0,47.354599999999998,-3938.8299999999999,-3954.3699999999999,-3970.1599999999999,14.824999999999999,12.934100000000001,10.723599999999999
212351.0,50.579799999999999,3121.1900000000001,3129.0,3097.21,18.509,6.9299200000000001,13.7019
212352.0,80.811499999999995,1791.3,1838.3599999999999,1779.77,28.159600000000001,-3.7306599999999999,20.163799999999998
212353.0,90.016599999999997,983.31200000000001,1041.96,976.94000000000005,30.296299999999999,-6.5869200000000001,21.334299999999999
212354.0,96.082099999999997,171.24700000000001,240.083,169.19300000000001,30.1265,-9.4944500000000005,21.248999999999999
212355.0,40.199300000000001,28.159500000000001,8.6176600000000008,44.575800000000001,-3.0760100000000001,-14.2959,-0.87502599999999997
212356.0,135.773,-223.79400000000001,-166.74199999999999,-237.06299999999999,61.463299999999997,7.9406699999999999,30.133400000000002
212357.0,136.018,-2373.6199999999999,-2344.04,-2393.8800000000001,63.726999999999997,14.636799999999999,35.541600000000003
212358.0,139.42400000000001,-728.73900000000003,-726.721,-754.25699999999995,62.355899999999998,21.759599999999999,43.386200000000002
212359.0,151.57300000000001,-2116.1700000000001,-2147.04,-2155.5100000000002,66.030100000000004,26.545400000000001,46.526800000000001
212360.0,155.279,-4005.23,-4059.0100000000002,-4050.9400000000001,64.2179,29.680599999999998,46.808799999999998
212361.0,151.934,-3833.04,-3895.6399999999999,-3879.0999999999999,60.384,31.127600000000001,45.0229
212362.0,144.18199999999999,-3634.1700000000001,-3708.9499999999998,-3683.2199999999998,54.831299999999999,32.342500000000001,37.862299999999998
212363.0,139.33799999999999,-5429.6000000000004,-5507.9399999999996,-5479.7600000000002,51.646299999999997,32.596899999999998,34.161799999999999
212364.0,133.809,-5654.1300000000001,-5734.3000000000002,-5705.0699999999997,48.207700000000003,32.649000000000001,30.5334
212365.0,127.688,-5153.75,-5234.2299999999996,-5205.1800000000003,44.644599999999997,32.414200000000001,27.0198
212366.0,120.82599999999999,-5526.0600000000004,-5605.2700000000004,-5577.6199999999999,40.886200000000002,31.898399999999999,23.685600000000001
212367.0,113.325,-5613.5100000000002,-5689.8400000000001,-5664.6599999999999,37.151200000000003,30.950700000000001,20.7392
212368.0,97.493200000000002,-5587.9399999999996,-5655.3199999999997,-5637.3199999999997,30.1465,28.1813,15.758900000000001
212369.0,88.746300000000005,-5509.8599999999997,-5570.8999999999996,-5557.5200000000004,26.7178,26.304200000000002,13.7822
212370.0,79.748999999999995,-5273.4799999999996,-5327.1700000000001,-5318.7600000000002,23.491700000000002,24.134899999999998,12.308299999999999
212371.0,70.733800000000002,-5012.1899999999996,-5057.7799999999997,-5054.6199999999999,20.4938,21.761700000000001,11.2281
212372.0,62.038200000000003,-4746.4200000000001,-4783.1800000000003,-4785.6700000000001,18.000599999999999,19.096699999999998,10.5451
212373.0,53.811500000000002,-4370.21,-4397.1599999999999,-4405.8199999999997,15.9366,16.1556,10.2652
212374.0,43.283999999999999,-3477.8899999999999,-3480.5,-3504.4699999999998,13.877800000000001,9.48034,11.2837
212375.0,46.988,-2941.0900000000001,-2929.3899999999999,-2962.9000000000001,15.583299999999999,5.6167600000000002,13.129799999999999
212376.0,57.900100000000002,-2333.3000000000002,-2303.48,-2349.3000000000002,18.5199,0.80100800000000005,15.2616
212377.0,79.719499999999996,-1653.26,-1602.0999999999999,-1662.5,25.898199999999999,-4.9118300000000001,19.112500000000001
212378.0,89.667199999999994,-864.53700000000003,-799.84000000000003,-867.94799999999998,27.2179,-8.2338900000000006,19.969999999999999
212379.0,134.79900000000001,1690.3,1705.4300000000001,1651.8599999999999,70.756600000000006,8.2054100000000005,14.852600000000001
212380.0,112.583,1175.0599999999999,1227.9200000000001,1181.5799999999999,55.548499999999997,8.4458500000000001,15.4018
212381.0,152.11000000000001,4747.3900000000003,4664.0200000000004,4690.75,61.247900000000001,29.776499999999999,35.532200000000003
212382.0,105.01300000000001,5861.29,5787.4399999999996,5809.9799999999996,33.505600000000001,28.3001,17.896899999999999
212383.0,45.767899999999997,3657.9899999999998,3654.1999999999998,3634.71,16.197199999999999,10.8643,12.723000000000001
212384.0,57.686300000000003,2495.3499999999999,2522.4400000000001,2482.21,21.1492,2.6635900000000001,15.303699999999999
212385.0,85.260900000000007,5546.0600000000004,5488.0100000000002,5501.2700000000004,25.8095,24.6417,14.975300000000001
212386.0,143.529,4236.2399999999998,4147.1700000000001,4177.9399999999996,54.616799999999998,30.975000000000001,29.625800000000002
212387.0,148.14599999999999,362.51999999999998,357.93299999999999,332.41399999999999,72.367699999999999,19.3139,37.9801
212388.0,140.84200000000001,-364.79300000000001,-336.98099999999999,-388.04000000000002,68.646600000000007,15.0459,31.936800000000002
212389.0,145.51400000000001,3026.73,2994.8800000000001,2990.23,67.677099999999996,22.744700000000002,39.571899999999999
212390.0,150.904,766.76400000000001,713.00999999999999,721.43799999999999,66.099400000000003,26.351099999999999,41.125399999999999
212391.0,154.994,2996.6900000000001,2927.8899999999999,2946.0900000000001,65.435100000000006,27.929200000000002,40.926600000000001
212392.0,154.822,2919.4699999999998,2841.75,2865.3899999999999,63.769300000000001,28.954000000000001,38.7042
212393.0,149.011,-3552.8699999999999,-3627.46,-3607.0599999999999,61.128700000000002,29.574400000000001,36.110900000000001
212394.0,148.30000000000001,4693.6999999999998,4606.5799999999999,4635.9200000000001,58.1721,30.461500000000001,32.470399999999998
212395.0,137.65700000000001,5514.7299999999996,5425.5,5456.6800000000003,50.672800000000002,31.188400000000001,26.935400000000001
212396.0,130.96600000000001,5633.2399999999998,5545.3800000000001,5575.9499999999998,46.533700000000003,31.124300000000002,24.370200000000001
212397.0,122.852,5735.0900000000001,5650.5600000000004,5679.25,42.097999999999999,30.505299999999998,21.918099999999999
212398.0,114.414,5884.9899999999998,5804.8699999999999,5831.0699999999997,37.757300000000001,29.621700000000001,19.795500000000001
212399.0,105.89700000000001,-5703.7799999999997,-5779.7799999999997,-5755.6400000000003,33.099600000000002,28.590399999999999,17.8005
212400.0,95.493799999999993,5729.2299999999996,5662.6099999999997,5680.9200000000001,29.601700000000001,26.6663,16.367000000000001
212401.0,75.216899999999995,5341.4399999999996,5292.5900000000001,5300.4399999999996,22.484200000000001,22.371200000000002,13.853
212402.0,65.400400000000005,4982.7799999999997,4944.1000000000004,4945.9899999999998,19.6633,19.8398,13.0343
212403.0,56.618600000000001,4587.1999999999998,4559.2799999999997,4554.8199999999997,17.561,17.136399999999998,12.5906
212404.0,49.500100000000003,4161.0799999999999,4145.3199999999997,4133.4200000000001,16.4513,14.030900000000001,12.516500000000001
212405.0,43.154600000000002,-3961.8899999999999,-3973.21,-3987.1700000000001,13.1282,12.6182,11.352399999999999
212406.0,47.328000000000003,3097.8000000000002,3109.23,3079.7199999999998,17.280999999999999,6.8692299999999999,13.3954
212407.0,78.658500000000004,1795.9000000000001,1844.8,1789.5799999999999,28.23,-3.0287500000000001,18.521999999999998
212408.0,89.621300000000005,989.11900000000003,1048.97,986.78499999999997,31.473800000000001,-6.2919200000000002,20.1173
212409.0,96.914299999999997,180.28100000000001,251.458,182.77099999999999,31.959,-8.9984599999999997,19.9176
212410.0,39.737200000000001,38.908299999999997,20.692699999999999,58.834800000000001,-3.4809100000000002,-12.244400000000001,-0.5968
212411.0,136.21899999999999,-458.142,-394.43200000000002,-473.61900000000003,61.2498,7.2956899999999996,24.877400000000002
212412.0,142.459,817.86400000000003,847.00999999999999,793.74900000000002,68.694999999999993,15.3841,33.134799999999998
212413.0,135.21899999999999,-1853.3,-1859.78,-1882.3,63.731999999999999,19.140499999999999,37.880000000000003
212414.0,139.66300000000001,-1574.77,-1605.76,-1613.9200000000001,63.188099999999999,22.612400000000001,39.638199999999998
212415.0,148.15700000000001,-971.15300000000002,-1024.6700000000001,-1019.35,64.6267,25.823,40.051900000000003
212416.0,150.59200000000001,-2398.9899999999998,-2465.8800000000001,-2450.73,63.455300000000001,28.185700000000001,38.836399999999998
212417.0,145.77199999999999,-4737.2799999999997,-4817.7600000000002,-4793.4200000000001,58.273400000000002,30.100000000000001,32.827399999999997
212418.0,141.476,-3811.5500000000002,-3895.54,-3868.5300000000002,54.763500000000001,30.611000000000001,29.9588
212419.0,136.202,-4310.6400000000003,-4396.5200000000004,-4367.8500000000004,50.816099999999999,30.829899999999999,27.1845
212420.0,129.98400000000001,-5381.29,-5467.0500000000002,-5437.9799999999996,46.619100000000003,30.849399999999999,24.5868
212421.0,122.672,-5421.5100000000002,-5505.6199999999999,-5477.1000000000004,42.029200000000003,30.505299999999998,22.1206
212422.0,114.613,-5584.5200000000004,-5665.2299999999996,-5638.5100000000002,37.579599999999999,29.684100000000001,19.8748
212423.0,96.761600000000001,-5632.2600000000002,-5701.9899999999998,-5681.4700000000003,28.998799999999999,27.129300000000001,16.1252
212424.0,86.822599999999994,-5489.21,-5551.3000000000002,-5535.1999999999998,24.9376,25.298200000000001,14.581300000000001
212425.0,76.835700000000003,-5356.6999999999998,-5410.2200000000003,-5399.1300000000001,21.352799999999998,23.1723,13.309200000000001
212426.0,66.916799999999995,-5111.9099999999999,-5156.0900000000001,-5150.4300000000003,18.1694,20.821400000000001,12.2851
212427.0,57.616399999999999,-4748.1099999999997,-4782.1999999999998,-4782.4300000000003,15.667299999999999,18.313700000000001,11.6502
212428.0,49.252699999999997,-4381.3599999999997,-4404.6000000000004,-4411.2399999999998,13.811199999999999,15.6271,11.2865
212429.0,39.869399999999999,-3462.4499999999998,-3460.9200000000001,-3482.9899999999998,12.681100000000001,9.3460199999999993,11.3942
212430.0,44.2684,-2932.3499999999999,-2917.1999999999998,-2948.23,14.843299999999999,5.8013399999999997,12.5906
212431.0,55.632399999999997,-2343.3299999999999,-2311.2399999999998,-2353.71,18.361000000000001,1.4599200000000001,14.220499999999999
212432.0,77.608999999999995,-1653.75,-1601.5999999999999,-1657.6900000000001,26.333100000000002,-3.8325800000000001,17.866800000000001
212433.0,89.312299999999993,-881.69899999999996,-815.15800000000002,-880.37800000000004,28.5595,-7.64574,18.374099999999999
212434.0,133.863,-2061.6900000000001,-2046.26,-2102.0599999999999,69.440200000000004,8.3104999999999993,15.8713
212435.0,107.655,-996.69299999999998,-944.928,-994.25,52.1937,6.3768099999999999,15.663399999999999
212436.0,153.47200000000001,3549.6700000000001,3461.9400000000001,3487.1100000000001,64.432599999999994,27.295100000000001,30.236599999999999
212437.0,100.85899999999999,5778.6000000000004,5705.8100000000004,5728.46,32.310000000000002,25.752700000000001,17.210000000000001
212438.0,42.329599999999999,3482.8600000000001,3483.9400000000001,3465.5999999999999,15.2525,10.1898,12.4453
212439.0,54.817500000000003,2327.8600000000001,2357.54,2320.7600000000002,20.199999999999999,3.4602300000000001,14.180099999999999
212440.0,79.676199999999994,5491.4099999999999,5436.1700000000001,5449.7700000000004,24.066700000000001,22.145499999999998,14.763999999999999
212441.0,143.721,5876.0500000000002,5784.2700000000004,5813.6400000000003,56.411999999999999,28.681899999999999,26.1356
212442.0,149.166,1836.28,1829.46,1802.9100000000001,75.448899999999995,18.590299999999999,32.678100000000001
212443.0,137.72499999999999,1369.9300000000001,1396.8499999999999,1347.1700000000001,68.364800000000002,14.323399999999999,28.730399999999999
212444.0,142.423,378.90699999999998,345.75999999999999,338.029,69.631100000000004,19.837399999999999,32.370199999999997
212445.0,143.98400000000001,3845.46,3790.1999999999998,3795.8299999999999,66.612499999999997,22.148099999999999,32.523400000000002
212446.0,152.41200000000001,2892.4099999999999,2819.8899999999999,2835.1100000000001,67.9131,24.752300000000002,32.496899999999997
212447.0,156.589,4232.6499999999996,4149.5,4171.5600000000004,67.655799999999999,26.580200000000001,32.157400000000003
212448.0,150.98699999999999,-3655.04,-3735.3000000000002,-3716.0700000000002,64.540800000000004,27.1877,30.6297
212449.0,148.97,4592.7799999999997,4502.3100000000004,4529.9200000000001,60.601999999999997,28.0932,28.037400000000002
212450.0,137.14500000000001,5256.8500000000004,5165.7399999999998,5195.6400000000003,51.832299999999996,28.950600000000001,24.244900000000001
212451.0,129.828,5622.5500000000002,5533.1300000000001,5563.0500000000002,47.100700000000003,28.811699999999998,22.314
212452.0,120.613,5827.0,5741.79,5770.0900000000001,41.961300000000001,28.0961,20.390000000000001
212453.0,111.352,5804.0600000000004,5724.0699999999997,5750.1899999999996,37.107900000000001,27.180299999999999,18.804300000000001
212454.0,102.402,-5585.2399999999998,-5660.8699999999999,-5637.1400000000003,32.118499999999997,26.065999999999999,16.983799999999999
212455.0,90.536799999999999,5691.1400000000003,5626.4499999999998,5644.9899999999998,28.067299999999999,24.099900000000002,15.9383
212456.0,69.265000000000001,5163.3999999999996,5118.2299999999996,5126.4399999999996,20.665299999999998,20.0486,13.832700000000001
212457.0,59.400199999999998,4853.3500000000004,4819.0500000000002,4821.29,17.9358,17.751100000000001,13.084199999999999
212458.0,51.009900000000002,4458.7200000000003,4435.6400000000003,4431.5299999999997,16.081900000000001,15.3568,12.5702
212459.0,44.823399999999999,3984.77,3974.0500000000002,3962.7399999999998,15.262,12.7315,12.382899999999999
212460.0,39.427399999999999,-3783.4699999999998,-3789.75,-3803.3299999999999,12.3521,11.632199999999999,11.282500000000001
212461.0,44.911000000000001,2939.8899999999999,2955.4699999999998,2928.0799999999999,16.447399999999998,6.9601199999999999,12.8337
212462.0,73.794200000000004,1662.6900000000001,1711.51,1661.49,26.882999999999999,-1.62948,16.597000000000001
212463.0,84.425799999999995,912.529,970.404,913.58600000000001,30.6249,-4.5928599999999999,17.900600000000001
212464.0,88.241200000000006,156.023,220.41300000000001,159.61099999999999,30.899999999999999,-6.6376299999999997,16.950099999999999
212465.0,40.848799999999997,25.1739,7.4413799999999997,47.606299999999997,-3.33711,-11.7964,-0.87847600000000003
212466.0,135.86699999999999,-50.147199999999998,15.954800000000001,-67.595500000000001,60.617699999999999,5.8497899999999996,22.407299999999999
212467.0,141.61199999999999,-2234.4699999999998,-2206.0999999999999,-2259.71,69.773300000000006,14.1389,29.950800000000001
212468.0,134.369,-733.99099999999999,-743.66999999999996,-768.346,66.576899999999995,17.515799999999999,31.069099999999999
212469.0,133.32599999999999,-2087.3699999999999,-2120.77,-2129.6300000000001,63.516300000000001,19.310099999999998,31.9605
212470.0,143.13200000000001,-3826.4400000000001,-3879.7199999999998,-3877.9200000000001,66.179000000000002,22.555,32.017800000000001
212471.0,151.07400000000001,-3620.4200000000001,-3690.77,-3678.6700000000001,67.366100000000003,25.395199999999999,31.776900000000001
212472.0,146.82900000000001,-3524.8800000000001,-3609.6999999999998,-3587.0300000000002,60.899099999999997,27.583200000000001,28.070799999999998
212473.0,142.00399999999999,-5357.9899999999998,-5445.7200000000003,-5420.1700000000001,56.735100000000003,28.0289,26.104199999999999
212474.0,136.12200000000001,-5612.0500000000002,-5700.79,-5673.4799999999996,52.158999999999999,28.399999999999999,24.162400000000002
212475.0,129.24700000000001,-5135.5600000000004,-5223.54,-5195.46,47.374499999999998,28.395800000000001,22.318100000000001
212476.0,121.029,-5521.7700000000004,-5607.4499999999998,-5579.6700000000001,42.122799999999998,28.008500000000002,20.321200000000001
212477.0,112.14700000000001,-5616.7700000000004,-5698.1199999999999,-5671.9300000000003,37.154600000000002,27.185500000000001,18.6708
212478.0,92.396500000000003,-5579.0100000000002,-5647.4099999999999,-5627.1599999999999,27.632000000000001,24.572600000000001,15.617100000000001
212479.0,81.793999999999997,-5483.29,-5543.1300000000001,-5527.2200000000003,23.3399,22.7944,14.3226
212480.0,71.335099999999997,-5224.2799999999997,-5274.6099999999997,-5263.6700000000001,19.646699999999999,20.819900000000001,13.270300000000001
212481.0,61.2592,-4937.6099999999997,-4977.7600000000002,-4972.2600000000002,16.5244,18.712599999999998,12.400600000000001
212482.0,52.104900000000001,-4643.1099999999997,-4672.5699999999997,-4672.9200000000001,14.241099999999999,16.465900000000001,11.7554
212483.0,44.338500000000003,-4238.3199999999997,-4256.6000000000004,-4263.2399999999998,12.6982,14.122999999999999,11.3146
212484.0,37.651699999999998,-3308.6100000000001,-3302.3400000000001,-3323.3600000000001,12.1981,9.0306999999999995,11.213900000000001
212485.0,42.832299999999996,-2771.5900000000001,-2752.6199999999999,-2781.54,14.5244,6.2340799999999996,12.0783
212486.0,53.518900000000002,-2182.0500000000002,-2147.98,-2186.73,17.963699999999999,2.68554,13.317299999999999
212487.0,73.3352,-1541.72,-1490.3499999999999,-1540.97,25.687000000000001,-1.81389,16.1997
212488.0,84.000399999999999,-810.47699999999998,-748.08000000000004,-806.45299999999997,28.9877,-5.1008899999999997,16.3157
212489.0,133.22,1712.3299999999999,1725.72,1670.3499999999999,68.744900000000001,7.2679099999999996,17.394100000000002
212490.0,106.444,1194.9000000000001,1245.1500000000001,1194.51,52.2622,5.38157,12.9674
212491.0,152.876,4707.7399999999998,4618.75,4641.5600000000004,66.269099999999995,24.758800000000001,25.474499999999999
212492.0,95.157600000000002,5688.1599999999999,5618.1999999999998,5638.96,31.293399999999998,22.403300000000002,15.690099999999999
212493.0,40.299300000000002,3225.9099999999999,3232.4099999999999,3213.1300000000001,15.3802,8.9317100000000007,11.3507
212494.0,52.264299999999999,2088.75,2120.0599999999999,2085.5100000000002,19.637499999999999,3.6698599999999999,12.1419
212495.0,73.268799999999999,5281.8599999999997,5230.8900000000003,5242.4700000000003,23.014199999999999,18.995899999999999,13.5998
212496.0,141.923,4203.0299999999997,4110.8500000000004,4138.1800000000003,57.089599999999997,26.042300000000001,23.132899999999999
212497.0,146.03,329.553,322.178,294.12599999999998,76.130700000000004,16.636399999999998,26.195399999999999
212498.0,135.56999999999999,-350.78500000000003,-325.10199999999998,-374.90600000000001,70.265000000000001,11.6119,20.835899999999999
212499.0,139.815,2964.46,2930.0599999999999,2919.4899999999998,70.472499999999997,17.652899999999999,26.178799999999999
212500.0,143.13200000000001,684.42999999999995,626.61599999999999,629.43799999999999,68.626400000000004,19.667200000000001,25.8872
212501.0,153.93700000000001,2888.6999999999998,2812.9499999999998,2824.98,70.965400000000002,22.4711,26.4634
212502.0,157.727,2845.4400000000001,2759.5300000000002,2778.6700000000001,70.578299999999999,24.031700000000001,26.450299999999999
212503.0,151.36099999999999,-3484.0900000000001,-3567.9000000000001,-3550.5900000000001,66.735799999999998,24.2454,25.251100000000001
212504.0,147.66900000000001,4661.9099999999999,4570.7799999999997,4595.9300000000003,61.7883,25.479399999999998,24.2197
212505.0,134.49000000000001,5466.8100000000004,5375.6999999999998,5403.79,52.096200000000003,25.9331,21.574300000000001
212506.0,126.607,5566.1499999999996,5477.1800000000003,5505.3800000000001,47.050199999999997,25.718900000000001,20.015699999999999
212507.0,116.26600000000001,5639.4300000000003,5555.6000000000004,5582.0900000000001,41.394799999999996,24.847799999999999,18.415199999999999
212508.0,106.44199999999999,5753.0900000000001,5675.0699999999997,5699.4200000000001,36.372100000000003,23.8401,17.083100000000002
212509.0,97.192899999999995,-5556.75,-5630.0500000000002,-5608.3999999999996,31.191700000000001,22.7742,15.452199999999999
212510.0,84.382099999999994,5510.8999999999996,5449.7600000000002,5466.3599999999997,26.987500000000001,20.796900000000001,14.6006
212511.0,62.879399999999997,5031.5100000000002,4991.1800000000003,4997.3100000000004,19.787500000000001,17.094100000000001,12.7279
212512.0,53.419800000000002,4631.3999999999996,4602.4399999999996,4602.6099999999997,17.302199999999999,15.123200000000001,12.0451
212513.0,45.8902,4200.4099999999999,4183.0200000000004,4177.0299999999997,15.715199999999999,13.1439,11.6074
212514.0,41.1922,3746.48,3741.5900000000001,3728.7399999999998,15.177099999999999,10.984999999999999,11.4284
212515.0,36.922400000000003,-3556.1999999999998,-3556.8499999999999,-3572.0999999999999,12.6981,10.169600000000001,10.429600000000001
212516.0,43.817,2664.54,2684.3200000000002,2657.1999999999998,16.479199999999999,6.3589000000000002,11.452400000000001
212517.0,67.278199999999998,1460.45,1506.73,1461.76,25.120999999999999,-0.21856300000000001,13.5427
212518.0,75.589399999999998,784.11099999999999,835.91700000000003,785.95799999999997,28.777999999999999,-2.6392899999999999,14.337899999999999
212519.0,75.292000000000002,135.833,188.483,137.62299999999999,28.384399999999999,-3.5375200000000002,13.3331
212520.0,41.961199999999998,34.393300000000004,17.621600000000001,60.177700000000002,-3.2468499999999998,-10.736499999999999,-1.25468
212521.0,136.27099999999999,-480.63799999999998,-415.12200000000001,-499.553,62.321599999999997,4.4707699999999999,17.968399999999999
212522.0,138.166,826.505,854.00699999999995,798.74400000000003,70.478200000000001,11.2033,22.5183
212523.0,131.39500000000001,-1796.8900000000001,-1806.21,-1834.6700000000001,67.000500000000002,15.3681,25.342700000000001
212524.0,131.87100000000001,-1500.8900000000001,-1534.8299999999999,-1547.0899999999999,65.642600000000002,17.394600000000001,24.7453
212525.0,143.85599999999999,-850.04700000000003,-905.154,-906.351,68.949399999999997,20.664000000000001,26.123100000000001
212526.0,153.11799999999999,-2268.1100000000001,-2341.4699999999998,-2332.3899999999999,70.448300000000003,23.450099999999999,26.512699999999999
212527.0,145.899,-4693.7399999999998,-4780.29,-4759.75,62.129600000000003,24.703600000000002,24.084199999999999
212528.0,140.51900000000001,-3772.79,-3861.6199999999999,-3838.0599999999999,57.554400000000001,25.163499999999999,22.766500000000001
212529.0,134.107,-4266.9799999999996,-4356.5200000000004,-4330.8500000000004,52.509500000000003,25.4849,21.5047
212530.0,126.462,-5321.5299999999997,-5409.54,-5383.3100000000004,47.470199999999998,25.299900000000001,19.888200000000001
212531.0,117.321,-5339.9099999999999,-5424.9200000000001,-5399.0,41.675899999999999,24.863700000000001,18.294799999999999
212532.0,107.776,-5473.2700000000004,-5553.1599999999999,-5528.9099999999999,36.5306,23.936800000000002,16.933399999999999
212533.0,86.707300000000004,-5444.9799999999996,-5510.3000000000002,-5492.2200000000003,26.628299999999999,21.331600000000002,14.2988
212534.0,75.748400000000004,-5259.2399999999998,-5315.2399999999998,-5301.6099999999997,22.343900000000001,19.659500000000001,13.1851
212535.0,65.195999999999998,-5083.6700000000001,-5129.5299999999997,-5120.9099999999999,18.792999999999999,17.8735,12.2555
212536.0,55.276600000000002,-4796.9899999999998,-4832.1700000000001,-4829.0200000000004,15.908300000000001,15.9946,11.4343
212537.0,46.721299999999999,-4396.5100000000002,-4420.5900000000001,-4423.2299999999996,13.914999999999999,14.106299999999999,10.8734
212538.0,40.076500000000003,-3999.1799999999998,-4011.8099999999999,-4020.5300000000002,12.692,12.1944,10.505100000000001
212539.0,36.8962,-3043.3699999999999,-3032.0,-3053.98,12.764699999999999,8.0670400000000004,10.243499999999999
212540.0,42.595700000000001,-2516.4200000000001,-2493.7800000000002,-2522.3400000000001,15.061400000000001,5.9120499999999998,10.765599999999999
212541.0,51.604599999999998,-1959.1800000000001,-1924.3399999999999,-1960.6099999999999,18.0228,3.2429700000000001,11.424799999999999
212542.0,67.113100000000003,-1347.47,-1300.3499999999999,-1345.22,24.8355,-0.0070193399999999998,13.344099999999999
212543.0,75.127600000000001,-706.12900000000002,-652.61000000000001,-702.48699999999997,28.275200000000002,-2.42787,13.483599999999999
212544.0,34.204000000000001,-24.942599999999999,-42.414700000000003,-46.260599999999997,13.232799999999999,5.8695300000000001,7.1642799999999998
212545.0,39.9116,51.316200000000002,12.298,41.236899999999999,6.3222699999999996,8.2435399999999994,3.5788000000000002
212546.0,36.321100000000001,43.454999999999998,11.629300000000001,50.7423,-1.2054100000000001,-2.36686,0.22680400000000001
212547.0,36.433300000000003,38.0334,8.7057599999999997,48.586500000000001,-1.94581,-3.4070499999999999,-0.27823100000000001
212548.0,38.715600000000002,62.167499999999997,22.279299999999999,53.740200000000002,5.2741600000000002,4.7307300000000003,2.7304900000000001
212549.0,38.017099999999999,7.8384200000000002,-24.802399999999999,-14.736499999999999,9.2517499999999995,8.9633099999999999,6.0362
212550.0,38.3538,-80.7577,-96.546199999999999,-105.128,15.6183,6.6870099999999999,6.9915500000000002
212551.0,59.708100000000002,17.706700000000001,-31.812999999999999,-20.2014,18.314,10.6838,8.2540899999999997
212552.0,36.746499999999997,15.201599999999999,-11.2936,1.2978099999999999,11.039400000000001,10.0123,7.2350300000000001
212553.0,37.860599999999998,19.239999999999998,-9.0249799999999993,7.6105600000000004,10.374599999999999,10.9726,6.9254300000000004
212554.0,39.206499999999998,30.044699999999999,-1.91649,17.3828,9.6196999999999999,11.3889,5.5754900000000003
212555.0,43.4435,50.192599999999999,12.3896,35.8506,9.6023999999999994,12.1348,5.0453200000000002
212556.0,42.534599999999998,52.6633,14.6783,40.479900000000001,9.2127300000000005,10.8993,4.8192500000000003
212557.0,36.387500000000003,56.182099999999998,18.386099999999999,50.735300000000002,4.2749699999999997,1.5021599999999999,1.83623
212558.0,35.669199999999996,55.559600000000003,19.297799999999999,53.355200000000004,2.9966900000000001,0.35338999999999998,1.30827
212559.0,35.369900000000001,48.037599999999998,13.395899999999999,48.939599999999999,2.1058500000000002,-0.244452,1.3469800000000001
212560.0,35.489600000000003,44.583100000000002,10.781700000000001,47.540700000000001,0.79659800000000003,-1.0231300000000001,1.0352399999999999
212561.0,35.915100000000002,45.149000000000001,11.985300000000001,49.908099999999997,-0.47470000000000001,-1.61348,0.60582999999999998
212562.0,37.104999999999997,38.365299999999998,11.2562,52.0901,-2.5945,-4.4545399999999997,-0.75651299999999999
212563.0,37.7059,34.761000000000003,10.7308,52.113799999999998,-2.8901300000000001,-5.6971499999999997,-1.1179399999999999
212564.0,39.066499999999998,34.474800000000002,12.974399999999999,55.369399999999999,-3.1097700000000001,-6.9110399999999998,-1.39028
212565.0,40.757300000000001,30.8596,12.0786,55.546900000000001,-2.97499,-8.1980299999999993,-1.54291
212566.0,42.988900000000001,34.853499999999997,18.726199999999999,63.412999999999997,-3.0820099999999999,-9.5496999999999996,-1.79277
212567.0,37.661000000000001,-29.4254,-49.286499999999997,-52.472900000000003,15.7997,6.1908599999999998,5.3722099999999999
212568.0,42.863799999999998,1.53461,-42.232900000000001,-8.9816299999999991,5.8927199999999997,7.1050399999999998,2.29271
212569.0,36.984200000000001,43.109499999999997,11.69,52.053199999999997,-0.84027499999999999,-2.2378300000000002,-0.91455699999999995
212570.0,37.319499999999998,41.166200000000003,11.7014,52.927900000000001,-1.7074800000000001,-2.98021,-1.1946399999999999
212571.0,41.015999999999998,25.683,-16.645900000000001,17.036999999999999,4.7100099999999996,5.9779400000000003,1.6370100000000001
212572.0,44.275599999999997,-10.109400000000001,-45.604599999999998,-38.529200000000003,14.5581,8.2502300000000002,4.5272699999999997
212573.0,35.453800000000001,-69.953100000000006,-85.071200000000005,-92.835700000000003,15.343299999999999,5.5355699999999999,4.1856499999999999
212574.0,56.177599999999998,17.006499999999999,-29.249700000000001,-19.513300000000001,18.782499999999999,8.7766000000000002,5.2416999999999998
212575.0,43.0291,-26.702000000000002,-60.096299999999999,-52.226599999999998,15.3703,7.6406299999999998,4.2156900000000004
212576.0,44.681100000000001,-23.274699999999999,-61.941000000000003,-48.235599999999998,13.9407,8.4028899999999993,4.02339
212577.0,45.474800000000002,-29.508900000000001,-70.387500000000003,-50.078699999999998,12.6295,9.6322100000000006,4.3893300000000002
212578.0,46.400500000000001,-29.502199999999998,-72.659700000000001,-44.955100000000002,11.040100000000001,9.9390499999999999,4.3415999999999997
212579.0,44.291200000000003,-23.643999999999998,-66.540199999999999,-35.311700000000002,8.7124100000000002,8.5684199999999997,3.5598100000000001
212580.0,37.959499999999998,48.150700000000001,8.9623299999999997,42.529699999999998,3.4681500000000001,4.2141700000000002,1.2273099999999999
212581.0,36.511000000000003,53.359900000000003,16.1877,50.978499999999997,2.8361700000000001,1.71143,0.63597400000000004
212582.0,35.423900000000003,52.718400000000003,18.184100000000001,53.9236,2.5161199999999999,-0.20388100000000001,0.120479
212583.0,35.444400000000002,48.8673,15.7118,52.877099999999999,1.1856,-1.07704,-0.31263000000000002
212584.0,36.378999999999998,43.604599999999998,11.0418,50.101999999999997,0.080662999999999999,-1.6471,-0.61822900000000003
212585.0,37.964500000000001,38.3688,11.266,53.478299999999997,-2.4132199999999999,-3.8496000000000001,-1.5285599999999999
212586.0,38.691800000000001,34.3645,10.4625,53.478400000000001,-2.8081399999999999,-4.8444799999999999,-1.7785200000000001
212587.0,40.063200000000002,33.648099999999999,12.600099999999999,56.739400000000003,-3.0202800000000001,-5.8635000000000002,-2.0246499999999998
212588.0,41.767299999999999,28.671099999999999,10.4855,55.809100000000001,-2.92075,-6.9317299999999999,-2.1644999999999999
212589.0,43.9529,26.266300000000001,10.9895,57.610599999999998,-3.0476100000000002,-8.0287699999999997,-2.3042199999999999
212590.0,38.388100000000001,-23.445599999999999,-44.374099999999999,-47.145800000000001,17.296700000000001,4.7567599999999999,1.23149
212591.0,43.596800000000002,15.783899999999999,-31.886500000000002,-4.3126800000000003,7.5624399999999996,-1.8889899999999999,0.15624299999999999
212592.0,37.189900000000002,40.072699999999998,8.9825800000000005,49.763599999999997,-0.57212099999999999,-1.73889,-1.9348099999999999
212593.0,38.119399999999999,37.006500000000003,7.4819800000000001,49.837699999999998,-1.6107199999999999,-2.2910400000000002,-2.1901299999999999
212594.0,41.825400000000002,26.013100000000001,-18.961600000000001,13.0534,6.8471399999999996,-0.21038299999999999,0.50233300000000003
212595.0,46.167000000000002,-15.3706,-52.607799999999997,-47.134500000000003,16.548999999999999,5.6478299999999999,0.66771499999999995
212596.0,33.104700000000001,-62.483800000000002,-76.841200000000001,-83.099199999999996,15.0938,4.8315299999999999,1.55769
212597.0,53.963000000000001,12.9979,-31.4694,-21.513400000000001,19.243500000000001,7.3270499999999998,1.44563
212598.0,44.639600000000002,-24.1906,-59.075400000000002,-53.745199999999997,16.738299999999999,5.4581400000000002,1.0636000000000001
212599.0,43.860799999999998,-28.063600000000001,-68.631100000000004,-57.371000000000002,13.617699999999999,4.0555399999999997,0.89058000000000004
212600.0,45.7864,-14.109,-60.377899999999997,-43.171500000000002,12.3215,0.0087819700000000001,0.24706900000000001
212601.0,47.597000000000001,-0.027820000000000001,-48.271299999999997,-28.249199999999998,12.5197,-3.27616,-0.470526
212602.0,44.894599999999997,6.5790899999999999,-40.167400000000001,-18.0352,10.611599999999999,-3.5094099999999999,-0.31401899999999999
212603.0,37.820399999999999,24.3475,-15.3847,18.724599999999999,3.7120799999999998,0.78814899999999999,0.32814199999999999
212604.0,38.667000000000002,48.5777,8.6532099999999996,45.661700000000003,1.4829699999999999,0.90132000000000001,-0.13047800000000001
212605.0,37.2746,51.860100000000003,15.4689,52.822699999999998,3.05063,0.15894,-0.61313700000000004
212606.0,35.530999999999999,43.593899999999998,10.9086,48.420200000000001,1.38676,-0.60337700000000005,-1.43963
212607.0,36.861899999999999,46.7834,13.821999999999999,53.3504,0.28088099999999999,-1.0981700000000001,-1.7229000000000001
212608.0,38.646299999999997,35.660600000000002,8.7333800000000004,52.039499999999997,-2.26383,-2.9756900000000002,-2.3959000000000001
212609.0,39.356900000000003,33.189900000000002,9.3219600000000007,53.4407,-2.8062999999999998,-3.7686500000000001,-2.5571199999999998
212610.0,40.575400000000002,32.226100000000002,11.3705,56.578499999999998,-3.0089600000000001,-4.5709299999999997,-2.62351
212611.0,42.401499999999999,28.6768,10.7346,57.400500000000001,-3.0127799999999998,-5.36233,-2.7109299999999998
212612.0,44.595599999999997,31.741299999999999,17.006399999999999,65.072000000000003,-3.0952700000000002,-6.2254100000000001,-2.8623500000000002
212613.0,35.589599999999997,-29.999500000000001,-49.064999999999998,-48.558599999999998,16.713000000000001,4.7071300000000003,-1.6413899999999999
212614.0,37.7087,54.209699999999998,14.952199999999999,42.790999999999997,8.1112199999999994,-0.63120100000000001,-0.18627199999999999
212615.0,37.548699999999997,41.6145,10.084099999999999,50.964500000000001,-0.53914600000000001,-1.18153,-3.0791400000000002
212616.0,38.041800000000002,41.5259,11.664,53.6661,-1.5738700000000001,-1.7022999999999999,-3.1309100000000001
212617.0,40.043799999999997,46.738799999999998,5.1277200000000001,37.188600000000001,7.6028599999999997,-1.2066399999999999,-0.38231999999999999
212618.0,39.560299999999998,-13.2577,-46.1008,-36.420900000000003,14.4095,4.8621499999999997,-2.36259
212619.0,32.485500000000002,-66.433000000000007,-80.476500000000001,-85.652699999999996,15.317,4.2357899999999997,-0.56000899999999998
212620.0,53.734299999999998,15.862500000000001,-29.1633,-16.946400000000001,19.5062,6.1471799999999996,-1.41812
212621.0,33.4056,-22.032299999999999,-51.264299999999999,-40.552100000000003,12.065099999999999,1.46245,-2.3592900000000001
212622.0,34.436799999999998,9.6488300000000002,-25.441600000000001,-10.022600000000001,8.4650800000000004,-2.15212,-3.10927
212623.0,36.831699999999998,55.280799999999999,17.7239,34.866300000000003,9.1722099999999998,-2.6165799999999999,-2.7734399999999999
212624.0,36.536200000000001,74.758200000000002,38.4328,57.031999999999996,10.6111,-1.1611100000000001,-1.0361199999999999
212625.0,35.821300000000001,61.566000000000003,25.8293,48.025599999999997,10.092700000000001,-0.57851799999999998,-0.036461100000000003
212626.0,38.6691,39.944800000000001,-0.0488139,33.8446,5.4206099999999999,-1.7055400000000001,-1.3777200000000001
212627.0,39.5259,46.411200000000001,5.5998200000000002,42.6036,2.5465800000000001,-0.79222700000000001,-2.3303699999999998
212628.0,38.800800000000002,56.706299999999999,18.1541,56.126100000000001,3.0933099999999998,-0.20511199999999999,-2.03566
212629.0,36.753599999999999,46.168399999999998,11.6675,49.761099999999999,1.54352,-0.56944099999999997,-2.2757399999999999
212630.0,37.7042,43.903599999999997,10.167199999999999,50.303800000000003,0.29716900000000002,-0.74480000000000002,-2.867
212631.0,38.607999999999997,37.040199999999999,9.8035399999999999,53.026600000000002,-2.2899400000000001,-2.18282,-3.0403500000000001
212632.0,39.575200000000002,33.546900000000001,9.5039800000000003,54.071199999999997,-2.8666399999999999,-2.6388099999999999,-3.04847
212633.0,41.010800000000003,31.386099999999999,10.469200000000001,56.498600000000003,-3.1175899999999999,-3.1205599999999998,-3.16675
212634.0,42.741900000000001,27.241900000000001,9.2931600000000003,56.777999999999999,-3.1499100000000002,-3.6721300000000001,-3.2647499999999998
212635.0,44.893700000000003,24.069299999999998,9.3620099999999997,58.351999999999997,-3.2936200000000002,-4.2378900000000002,-3.3271899999999999
212636.0,30.560199999999998,-24.1845,-40.869799999999998,-36.984499999999997,14.7408,1.4480999999999999,-3.9622999999999999
212637.0,33.979900000000001,60.049799999999998,29.4513,61.165399999999998,7.4518500000000003,-0.114105,-2.3350399999999998
212638.0,38.094900000000003,40.174100000000003,9.2960799999999999,50.846699999999998,-0.59708300000000003,-0.95331399999999999,-4.1035899999999996
212639.0,38.6768,34.505899999999997,5.9377399999999998,48.958500000000001,-1.49895,-0.98610799999999998,-4.0140200000000004
212640.0,37.485999999999997,62.314500000000002,25.857600000000001,59.907400000000003,6.7512299999999996,0.29339500000000002,-2.6490999999999998
212641.0,30.523299999999999,-9.4749999999999996,-37.291200000000003,-22.381900000000002,9.5162300000000002,-0.97245599999999999,-5.0284500000000003
212642.0,33.105899999999998,-69.040499999999994,-83.285899999999998,-87.420500000000004,15.8947,3.7326600000000001,-2.4047900000000002
212643.0,54.066899999999997,15.622299999999999,-30.886199999999999,-16.281300000000002,19.345199999999998,4.2941099999999999,-4.0045999999999999
212644.0,25.208400000000001,17.718599999999999,-5.3135700000000003,11.143700000000001,5.7296500000000004,-2.8193800000000002,-5.5031400000000001
212645.0,26.442299999999999,68.444000000000003,44.162999999999997,64.448099999999997,5.2193800000000001,-1.6010899999999999,-5.8100699999999996
212646.0,24.744599999999998,77.095500000000001,58.734299999999998,80.656099999999995,6.7446599999999997,0.61053599999999997,-4.4541199999999996
212647.0,26.309899999999999,67.531000000000006,48.576000000000001,74.414199999999994,6.5007000000000001,0.86491399999999996,-2.9466000000000001
212648.0,30.107399999999998,66.488799999999998,42.4071,71.508300000000006,7.4008700000000003,0.053872400000000001,-2.3183600000000002
212649.0,39.031500000000001,60.171700000000001,21.268899999999999,56.999000000000002,5.7251399999999997,0.40497300000000003,-2.86178
212650.0,39.5336,53.9041,14.992900000000001,52.954700000000003,4.1000500000000004,0.27670499999999998,-3.37656
212651.0,39.6175,44.116100000000003,6.7174399999999999,46.617899999999999,2.7334299999999998,0.30535600000000002,-4.0153400000000001
212652.0,38.7254,44.914099999999998,9.77806,49.961599999999997,1.39716,-0.19739499999999999,-4.3327099999999996
212653.0,38.014800000000001,44.639899999999997,11.589399999999999,51.927599999999998,0.39738400000000001,-0.829125,-4.3313699999999997
212654.0,39.382899999999999,35.135199999999998,8.9241200000000003,53.151299999999999,-2.2618100000000001,-1.18272,-3.9852599999999998
212655.0,40.063499999999998,31.6784,8.1687600000000007,53.299399999999999,-2.8270499999999998,-1.5295700000000001,-3.8993500000000001
212656.0,41.202100000000002,32.293100000000003,11.553900000000001,57.877499999999998,-3.1837300000000002,-1.8327899999999999,-3.7350300000000001
212657.0,43.104799999999997,27.409199999999998,9.3091799999999996,57.435200000000002,-3.2807599999999999,-2.0109400000000002,-3.69523
212658.0,45.305700000000002,30.880099999999999,15.920999999999999,65.682000000000002,-3.5346799999999998,-2.2450000000000001,-3.8491900000000001
212659.0,27.464099999999998,-17.711600000000001,-33.814,-29.976700000000001,12.703099999999999,1.6942699999999999,-4.0554899999999998
212660.0,34.945500000000003,58.802999999999997,31.436299999999999,65.728899999999996,6.3987400000000001,2.0050599999999998,-5.7692500000000004
212661.0,39.675400000000003,43.804200000000002,14.297700000000001,57.615099999999998,-0.83240000000000003,-0.66969900000000004,-5.8260899999999998
212662.0,39.413200000000003,42.511800000000001,15.4907,58.990000000000002,-1.44171,-1.18103,-5.6584399999999997
212663.0,38.435499999999998,51.204599999999999,18.5578,55.971499999999999,6.2120699999999998,1.7364299999999999,-6.0087200000000003
212664.0,28.526,41.189500000000002,12.2341,26.461099999999998,5.8368399999999996,-0.750112,-5.1950399999999997
212665.0,33.719000000000001,-75.719300000000004,-90.693399999999997,-93.328500000000005,16.3552,3.0293299999999999,-3.4800499999999999
212666.0,54.412599999999998,19.831299999999999,-27.576599999999999,-11.074999999999999,19.270399999999999,3.0625800000000001,-5.1978600000000004
212667.0,24.390499999999999,73.876400000000004,52.051099999999998,69.210700000000003,5.1363000000000003,-1.1264700000000001,-6.2092000000000001
212668.0,24.0397,89.3125,73.782600000000002,95.307599999999994,5.5200899999999997,0.023535299999999999,-6.2253699999999998
212669.0,24.52,70.159000000000006,60.538699999999999,84.067099999999996,5.3042999999999996,0.043952699999999997,-5.6871600000000004
212670.0,27.1629,67.826899999999995,54.119,81.210599999999999,5.2965999999999998,0.485039,-5.8441200000000002
212671.0,30.723800000000001,60.028300000000002,39.983499999999999,70.441599999999994,6.2600600000000002,1.74725,-5.7232599999999998
212672.0,40.062800000000003,47.917499999999997,12.2791,51.395400000000002,5.2803599999999999,1.4087499999999999,-6.0356899999999998
212673.0,40.205300000000001,50.005400000000002,12.9626,52.636600000000001,3.7540300000000002,0.22190799999999999,-5.7003300000000001
212674.0,40.366700000000002,55.744,18.774799999999999,59.222999999999999,2.6768900000000002,-1.15618,-5.6722999999999999
212675.0,39.914299999999997,49.442399999999999,14.797800000000001,56.270499999999998,1.64808,-0.84681499999999998,-5.7567899999999996
212676.0,39.517800000000001,42.621499999999997,10.969900000000001,53.510100000000001,0.16857900000000001,-0.216303,-5.6686199999999998
212677.0,39.528599999999997,38.916600000000003,14.436999999999999,58.599699999999999,-2.0926999999999998,-1.1651,-5.0591600000000003
212678.0,40.833100000000002,33.432299999999998,10.934699999999999,56.827500000000001,-2.6950699999999999,-0.74589799999999995,-4.6213499999999996
212679.0,42.326799999999999,31.329799999999999,11.5084,58.869300000000003,-3.1654800000000001,-0.44809500000000002,-4.6084800000000001
212680.0,43.923900000000003,27.008199999999999,9.2260299999999997,58.060099999999998,-3.31488,-0.389019,-4.5933000000000002
212681.0,45.863500000000002,23.997900000000001,8.6851599999999998,59.042499999999997,-3.7243200000000001,-0.36882100000000001,-4.5535800000000002
212682.0,27.3141,-22.372,-38.186900000000001,-33.0002,12.4871,3.7764899999999999,-3.6746500000000002
212683.0,36.417000000000002,59.053699999999999,32.341500000000003,65.027000000000001,5.8942800000000002,0.51157200000000003,-10.204599999999999
212684.0,40.923200000000001,41.940600000000003,12.6958,56.998100000000001,-0.67935599999999996,0.73172000000000004,-7.0563500000000001
212685.0,41.796300000000002,33.846299999999999,7.9422800000000002,53.700600000000001,-2.1610499999999999,1.58775,-6.9723199999999999
212686.0,38.622700000000002,64.719200000000001,32.737000000000002,67.863200000000006,6.0134299999999996,-0.280167,-9.1231899999999992
212687.0,31.1113,23.795100000000001,-7.0773900000000003,9.5868099999999998,6.1788299999999996,5.54176,-3.8689499999999999
212688.0,33.443300000000001,-72.186499999999995,-87.638199999999998,-89.615799999999993,16.116599999999998,2.18553,-4.1499600000000001
212689.0,53.697400000000002,17.204599999999999,-29.433,-12.6698,19.176100000000002,1.80416,-5.6628999999999996
212690.0,28.875599999999999,62.510399999999997,37.001800000000003,54.738399999999999,6.7595299999999998,6.9558099999999996,-3.5933899999999999
212691.0,26.8568,74.192999999999998,53.231200000000001,72.117199999999997,7.1633800000000001,6.1399600000000003,-4.2447100000000004
212692.0,25.055700000000002,70.981300000000005,53.956800000000001,74.470200000000006,5.69299,5.1529100000000003,-5.4619099999999996
212693.0,29.9101,69.2941,47.783200000000001,74.833200000000005,5.2061799999999998,3.4008400000000001,-7.4398299999999997
212694.0,34.708300000000001,63.616700000000002,40.1691,70.988399999999999,6.7545000000000002,1.6539200000000001,-9.7058400000000002
212695.0,40.328299999999999,60.562399999999997,25.0852,62.706600000000002,5.2323399999999998,-0.63439900000000005,-8.2408300000000008
212696.0,42.233699999999999,54.768999999999998,16.3261,56.048099999999998,4.7037899999999997,0.88014300000000001,-7.8806500000000002
212697.0,40.872100000000003,43.920000000000002,6.9756999999999998,46.722299999999997,3.1072099999999998,2.7895699999999999,-6.8788200000000002
212698.0,41.7958,45.941299999999998,8.5332299999999996,51.068899999999999,-0.20322000000000001,1.5671200000000001,-6.3751899999999999
212699.0,42.203400000000002,48.193399999999997,13.3024,57.596899999999998,-0.044137099999999999,0.12731799999999999,-7.0040300000000002
212700.0,42.550600000000003,36.189300000000003,13.9056,60.476199999999999,-2.62649,1.78057,-7.1350199999999999
212701.0,43.207900000000002,31.527699999999999,11.194599999999999,58.5227,-2.80464,1.27881,-7.0086700000000004
212702.0,43.469900000000003,34.577300000000001,17.033100000000001,64.558000000000007,-3.0777800000000002,0.93928299999999998,-6.4790900000000002
212703.0,45.0852,27.765999999999998,11.116199999999999,60.4465,-3.2599800000000001,1.2417899999999999,-5.9668200000000002
212704.0,47.075699999999998,31.920000000000002,16.642499999999998,67.733199999999997,-3.80592,1.52125,-5.8482200000000004
212705.0,30.671800000000001,-29.355399999999999,-46.171900000000001,-41.2346,14.3996,1.7549300000000001,-5.3333000000000004
212706.0,38.376399999999997,57.4559,25.5532,56.191899999999997,5.2172200000000002,5.3679100000000002,-10.4178
212707.0,41.587699999999998,31.481000000000002,-4.2241,36.994399999999999,-0.59739600000000004,2.9203199999999998,-8.1807599999999994
212708.0,41.122599999999998,34.328299999999999,3.93763,47.051099999999998,-4.3604700000000003,1.3363499999999999,-7.2238800000000003
212709.0,41.3371,55.452300000000001,21.076000000000001,55.374899999999997,5.13924,5.8744100000000001,-10.753500000000001
212710.0,34.347000000000001,-8.1241800000000008,-38.558700000000002,-22.3657,11.033200000000001,2.4746999999999999,-5.7879199999999997
212711.0,32.649000000000001,-70.172700000000006,-85.438400000000001,-87.020899999999997,15.400399999999999,1.5833299999999999,-5.3917299999999999
212712.0,52.3506,18.308399999999999,-26.322700000000001,-10.7814,18.630199999999999,0.069046200000000002,-7.2911700000000002
212713.0,32.534399999999998,-15.415900000000001,-43.141399999999997,-24.405000000000001,9.6902299999999997,5.6711999999999998,-5.1645700000000003
212714.0,36.078699999999998,7.2097699999999998,-23.615500000000001,-0.64898199999999995,9.3459099999999999,7.7707499999999996,-5.43973
212715.0,34.386600000000001,8.2503100000000007,-21.110600000000002,3.1464500000000002,6.89907,7.4231800000000003,-6.7350099999999999
212716.0,38.613399999999999,48.545699999999997,12.7967,41.280200000000001,5.46448,5.4275799999999998,-8.9813500000000008
212717.0,39.563600000000001,68.798199999999994,35.067300000000003,63.596600000000002,7.7363099999999996,5.1070200000000003,-10.2974
212718.0,41.538400000000003,48.0548,12.379300000000001,48.384,3.7315800000000001,5.4134900000000004,-10.184100000000001
212719.0,44.924199999999999,46.421599999999998,6.1067900000000002,46.136400000000002,4.7490500000000004,3.8325900000000002,-9.8757300000000008
212720.0,42.864600000000003,14.3146,-22.7652,17.116900000000001,4.4922199999999997,3.1764999999999999,-9.3075899999999994
212721.0,44.799999999999997,22.2697,-19.586200000000002,22.5808,-1.6932799999999999,2.8828,-8.3361400000000003
212722.0,46.844000000000001,45.928400000000003,1.2304999999999999,44.808100000000003,-0.85682100000000005,3.1274299999999999,-8.4406300000000005
212723.0,43.178400000000003,42.960099999999997,16.062000000000001,62.647300000000001,-4.3032399999999997,0.33269300000000002,-7.4797500000000001
212724.0,43.771799999999999,39.709800000000001,18.650400000000001,65.847999999999999,-2.8464,1.60846,-8.3014899999999994
212725.0,44.912100000000002,31.854199999999999,15.3386,62.927900000000001,-3.4935,3.1777199999999999,-8.1374099999999991
212726.0,46.910600000000002,30.8596,15.326700000000001,64.917000000000002,-3.81365,3.32172,-8.0350099999999998
212727.0,48.509900000000002,24.573699999999999,9.7960399999999996,61.070099999999996,-3.8015400000000001,3.3311500000000001,-7.8923500000000004
212728.0,33.611899999999999,-22.535499999999999,-40.882399999999997,-36.127099999999999,15.327500000000001,1.1675599999999999,-7.0449599999999997
212729.0,44.473999999999997,22.156199999999998,-19.0154,16.8644,3.2595999999999998,3.7896299999999998,-11.5144
212730.0,48.272399999999998,-14.241099999999999,-54.929200000000002,-8.1392100000000003,-1.2394799999999999,5.9073099999999998,-9.6591100000000001
212731.0,46.589399999999998,-9.6849399999999992,-45.921300000000002,-1.9420599999999999,-5.7431599999999996,6.8243600000000004,-9.6315100000000005
212732.0,45.788600000000002,40.1447,2.6895899999999999,41.255899999999997,4.61259,1.98251,-13.847200000000001
212733.0,39.967700000000001,-14.132400000000001,-46.273299999999999,-33.067500000000003,14.302099999999999,-0.61258900000000005,-8.1579499999999996
212734.0,31.8733,-62.402000000000001,-77.458399999999997,-77.543099999999995,14.5609,1.2169099999999999,-7.0102099999999998
212735.0,50.510599999999997,15.3416,-26.7652,-11.3469,17.632999999999999,-0.82499199999999995,-9.2197899999999997
212736.0,40.369100000000003,-22.8842,-53.878100000000003,-39.764499999999998,14.7029,-0.87715600000000005,-9.24573
212737.0,44.183100000000003,-23.9282,-61.531799999999997,-42.252499999999998,13.8218,-1.2775300000000001,-10.2204
212738.0,45.4009,-9.5993200000000005,-51.810099999999998,-28.578700000000001,11.447900000000001,-0.057062099999999998,-10.444100000000001
212739.0,49.370899999999999,9.0846300000000006,-38.377000000000002,-10.117699999999999,10.430400000000001,3.33081,-11.0733
212740.0,45.8202,7.8136400000000004,-34.783000000000001,-4.367,8.1077300000000001,5.8734900000000003,-10.875
212741.0,43.051299999999998,26.175699999999999,-5.7062200000000001,31.933800000000002,3.5905,2.2406299999999999,-13.7415
212742.0,44.320399999999999,28.067900000000002,-8.6821099999999998,31.193300000000001,2.56121,1.89706,-12.3644
212743.0,44.270400000000002,15.5853,-21.73,17.774999999999999,4.7151199999999998,1.97716,-11.5831
212744.0,44.754100000000001,-8.9546700000000001,-48.197200000000002,-5.8779500000000002,0.20418900000000001,2.68859,-10.1807
212745.0,50.578299999999999,-3.85745,-49.714100000000002,-1.26407,-1.4876199999999999,3.9950999999999999,-9.5770900000000001
212746.0,45.4758,22.6694,-10.492000000000001,32.444699999999997,-6.7871800000000002,7.0853799999999998,-9.3067299999999999
212747.0,43.531999999999996,32.5,8.3595900000000007,52.448500000000003,-6.6364599999999996,5.80084,-8.1586400000000001
212748.0,46.853099999999998,37.8506,17.213899999999999,66.198499999999996,-4.78878,4.2865799999999998,-9.2521599999999999
212749.0,48.734200000000001,33.0002,17.265000000000001,66.7363,-4.4292299999999996,5.1392300000000004,-10.3338
212750.0,50.381999999999998,33.189700000000002,18.879000000000001,69.765299999999996,-4.6272399999999996,5.6542399999999997,-10.201599999999999
212751.0,33.961500000000001,-24.944700000000001,-42.672899999999998,-36.319499999999998,14.468,1.4067499999999999,-9.6169700000000002
212752.0,52.639600000000002,10.525,-42.522100000000002,-8.0149100000000004,4.22309,-0.34748499999999999,-13.451499999999999
212753.0,52.093499999999999,-2.7056,-38.442399999999999,15.935,-1.1696500000000001,-2.68472,-11.507300000000001
212754.0,52.101100000000002,-17.823,-50.102400000000003,4.8152600000000003,-1.03868,0.27613799999999999,-11.914400000000001
212755.0,48.864400000000003,46.881100000000004,-0.74492499999999995,34.034599999999998,3.5873300000000001,0.74149900000000002,-13.2418
212756.0,40.476500000000001,-7.0063000000000004,-39.162500000000001,-24.670999999999999,13.474399999999999,-0.29487000000000002,-10.2532
212757.0,31.4359,-63.433900000000001,-78.591800000000006,-76.059799999999996,13.866199999999999,1.36181,-8.3275699999999997
212758.0,49.258400000000002,17.575199999999999,-22.598600000000001,-5.3814200000000003,16.506399999999999,-1.02172,-11.3605
212759.0,42.751600000000003,-22.083400000000001,-54.862000000000002,-40.411200000000001,15.183299999999999,0.60191099999999997,-10.4152
212760.0,47.797600000000003,-21.0822,-61.903799999999997,-43.365000000000002,14.811299999999999,1.1371199999999999,-11.0951
212761.0,52.828800000000001,-29.349399999999999,-77.572800000000001,-53.364400000000003,14.1685,1.7637499999999999,-12.044
212762.0,56.518799999999999,-29.523299999999999,-81.710999999999999,-52.103299999999997,14.088200000000001,1.1426799999999999,-13.416399999999999
212763.0,52.797400000000003,-30.9834,-81.419300000000007,-49.909599999999998,9.5934100000000004,-0.0223019,-13.7118
212764.0,43.888599999999997,49.8399,12.068,48.366100000000003,2.0429300000000001,0.80269500000000005,-13.398300000000001
212765.0,44.767099999999999,43.408799999999999,10.7302,50.578200000000002,1.63887,1.20225,-14.5845
212766.0,44.719200000000001,22.016500000000001,-6.7121000000000004,34.7883,2.8725999999999998,2.0070999999999999,-14.231400000000001
212767.0,44.927900000000001,2.9247100000000001,-26.605699999999999,18.351700000000001,0.36052099999999998,0.094599600000000006,-12.2814
212768.0,50.138199999999998,7.3092899999999998,-28.8764,22.452100000000002,-0.83833899999999995,-2.3411300000000002,-11.6708
212769.0,52.055700000000002,-44.044600000000003,-71.948700000000002,-18.2988,-6.3145899999999999,4.0035999999999996,-11.286899999999999
212770.0,51.164499999999997,2.19109,-22.813600000000001,27.253900000000002,-9.4339600000000008,5.8878899999999996,-11.0564
212771.0,48.495699999999999,32.863500000000002,9.0053099999999997,56.813200000000002,-6.1458500000000003,6.7651599999999998,-11.3581
212772.0,49.459600000000002,33.932600000000001,15.881600000000001,64.485299999999995,-7.4059400000000002,6.6020099999999999,-10.6479
212773.0,52.6282,31.096299999999999,13.933,65.801599999999993,-5.27041,6.92279,-12.219099999999999
212774.0,35.339700000000001,-20.790700000000001,-39.1006,-30.597799999999999,13.632300000000001,2.50576,-11.8416
212775.0,54.129600000000003,-31.865300000000001,-82.927300000000002,-44.310699999999997,6.2241,2.68567,-14.8933
212776.0,49.418599999999998,41.241300000000003,2.8433899999999999,48.700600000000001,-1.86233,2.4985900000000001,-14.1021
212777.0,47.524799999999999,28.4482,-8.4485299999999999,37.443600000000004,-2.0517599999999998,0.73300600000000005,-12.519
212778.0,50.171399999999998,-12.486000000000001,-58.631100000000004,-17.677700000000002,0.048954900000000003,5.1612,-13.171799999999999
212779.0,40.908000000000001,-11.446,-42.058199999999999,-25.504100000000001,11.752800000000001,0.53233699999999995,-13.587300000000001
212780.0,32.337899999999998,-60.623800000000003,-76.277100000000004,-71.622699999999995,14.0205,1.4326399999999999,-9.2380399999999998
212781.0,50.859000000000002,16.213100000000001,-24.6584,-4.9827000000000004,16.501899999999999,-1.09504,-13.0724
212782.0,40.145699999999998,-17.337700000000002,-45.245100000000001,-27.587,11.5594,-0.026776600000000001,-14.2943
212783.0,45.488,-17.4131,-51.946300000000001,-25.7439,11.0412,-2.9154599999999999,-15.315300000000001
212784.0,52.130699999999997,-16.411000000000001,-55.306399999999996,-24.127600000000001,13.3553,-4.1921900000000001,-16.9069
212785.0,54.972900000000003,-26.576699999999999,-70.355999999999995,-37.631300000000003,13.801,-3.2672500000000002,-16.9679
212786.0,54.821899999999999,-33.479599999999998,-82.719200000000001,-47.483899999999998,10.4422,-0.89199300000000004,-15.7569
212787.0,49.070700000000002,41.210000000000001,-0.27437,43.280200000000001,-2.9259300000000001,4.71035,-12.9688
212788.0,44.870199999999997,66.306100000000001,36.328400000000002,77.576800000000006,0.28645100000000001,4.8483799999999997,-13.8925
212789.0,43.104599999999998,48.680799999999998,27.076699999999999,67.519900000000007,0.55998000000000003,5.0602099999999997,-13.559799999999999
212790.0,45.998800000000003,45.775799999999997,19.5791,64.337800000000001,-1.65263,4.2434200000000004,-13.374000000000001
212791.0,50.2029,52.307200000000002,16.784400000000002,64.531800000000004,-1.0954600000000001,3.0649600000000001,-14.639900000000001
212792.0,51.288699999999999,17.622900000000001,-16.939599999999999,34.127800000000001,-8.4856400000000001,-2.0440299999999998,-11.023400000000001
212793.0,54.520299999999999,34.722900000000003,1.8814,55.956899999999997,-7.2345499999999996,1.34501,-13.943
212794.0,53.107300000000002,-12.6348,-37.160200000000003,12.4832,-4.9863499999999998,8.2883800000000001,-15.179600000000001
212795.0,54.274999999999999,20.720600000000001,3.2325300000000001,50.807200000000002,-12.509600000000001,10.098599999999999,-12.0162
212796.0,56.322099999999999,45.749899999999997,23.871400000000001,77.315100000000001,-7.6117400000000002,9.2996700000000008,-13.823600000000001
212797.0,38.671999999999997,-24.735600000000002,-45.604300000000002,-35.793900000000001,14.308999999999999,2.5100799999999999,-13.358700000000001
212798.0,52.265799999999999,-10.188599999999999,-46.565800000000003,-2.8034400000000002,6.2192299999999996,-3.2999000000000001,-17.668399999999998
212799.0,54.514800000000001,-16.936800000000002,-60.754800000000003,-17.923500000000001,-2.3386,10.4572,-15.807600000000001
212800.0,56.822000000000003,-24.7788,-70.583100000000002,-26.510999999999999,-8.2235200000000006,11.009399999999999,-14.6122
212801.0,50.674599999999998,3.8314300000000001,-31.574000000000002,15.3254,0.43325799999999998,-2.5472299999999999,-15.867000000000001
212802.0,43.949800000000003,-6.2807300000000001,-38.845300000000002,-20.655100000000001,12.1858,1.21411,-15.0854
212803.0,34.774000000000001,-67.628799999999998,-84.393600000000006,-78.962199999999996,15.2622,1.19977,-9.7741799999999994
212804.0,55.816000000000003,18.107800000000001,-25.955500000000001,-4.2110599999999998,18.137699999999999,-1.91536,-14.8462
212805.0,37.997500000000002,-16.441199999999998,-44.7331,-26.3553,7.9463200000000001,1.7221500000000001,-14.4597
212806.0,43.977400000000003,33.839199999999998,-3.2157800000000001,22.700199999999999,6.1296799999999996,-1.1511199999999999,-15.6303
212807.0,48.126899999999999,53.907200000000003,18.3032,45.489899999999999,10.1731,-1.49075,-17.890799999999999
212808.0,50.048000000000002,31.264600000000002,-3.1291199999999999,28.364100000000001,10.7239,-1.8150900000000001,-18.782299999999999
212809.0,52.512500000000003,2.5308199999999998,-33.971299999999999,4.5977399999999999,9.3516200000000005,-2.6060500000000002,-18.821100000000001
212810.0,49.507199999999997,46.382300000000001,11.3733,58.398899999999998,-2.4342299999999999,1.50319,-14.556699999999999
212811.0,45.237000000000002,64.185400000000001,36.008400000000002,77.360399999999998,-0.77387300000000003,7.15726,-13.566599999999999
212812.0,43.724299999999999,66.896000000000001,41.711500000000001,80.5458,-1.77094,8.7130600000000005,-13.0425
212813.0,48.128100000000003,67.548000000000002,34.254199999999997,76.382400000000004,-1.99298,7.1214199999999996,-14.962199999999999
212814.0,54.299599999999998,46.804099999999998,4.4274100000000001,47.992600000000003,0.81537999999999999,7.9653999999999998,-17.4026
212815.0,58.987699999999997,-2.8143099999999999,-48.084800000000001,-2.5799400000000001,-13.980499999999999,10.2098,-13.170500000000001
212816.0,56.734900000000003,47.040399999999998,8.2187300000000008,57.923499999999997,-12.3405,7.6120299999999999,-13.4176
212817.0,56.5548,12.371,-17.2334,34.902000000000001,-4.2622799999999996,6.9097,-17.791599999999999
212818.0,56.927300000000002,-8.3741099999999999,-22.5456,24.900099999999998,-11.782,10.441700000000001,-15.4666
212819.0,60.291499999999999,25.604500000000002,5.7069000000000001,58.396900000000002,-12.065099999999999,11.270200000000001,-15.205
212820.0,43.783499999999997,-25.2882,-50.035699999999999,-41.272599999999997,16.643699999999999,0.96052000000000004,-14.2691
212821.0,46.264299999999999,54.797499999999999,20.0152,57.205300000000001,3.0966900000000002,3.8133900000000001,-16.006599999999999
212822.0,57.560299999999998,-63.065800000000003,-111.199,-62.267299999999999,-4.9361899999999999,1.7478800000000001,-17.0791
212823.0,59.419600000000003,-56.795000000000002,-101.13800000000001,-47.789400000000001,-8.1266700000000007,-0.160639,-17.182600000000001
212824.0,47.383099999999999,70.8001,33.544499999999999,72.551400000000001,0.67645,4.3690199999999999,-15.6015
212825.0,48.638800000000003,-13.5944,-49.9527,-32.045000000000002,13.9253,-0.38785500000000001,-16.2483
212826.0,39.639600000000002,-69.293999999999997,-87.488600000000005,-84.0642,17.797799999999999,-0.698793,-10.631399999999999
212827.0,63.882899999999999,15.9064,-32.769799999999996,-11.0045,21.5198,-4.8800600000000003,-16.6996
212828.0,38.0184,-12.7842,-42.796799999999998,-24.089700000000001,6.33812,1.41069,-14.487299999999999
212829.0,44.517699999999998,39.2254,0.43226300000000001,29.443100000000001,3.01363,1.9757199999999999,-15.5108
212830.0,44.435200000000002,62.256500000000003,29.569800000000001,58.302999999999997,5.4705000000000004,5.6589200000000002,-16.671500000000002
212831.0,43.490699999999997,64.147800000000004,33.516100000000002,64.663499999999999,4.8486799999999999,5.5848599999999999,-16.0518
212832.0,45.781700000000001,64.246300000000005,31.682200000000002,66.388900000000007,5.6552300000000004,4.3525099999999997,-16.415500000000002
212833.0,45.862099999999998,68.5214,34.746899999999997,73.174099999999996,-0.91479500000000002,6.2863800000000003,-14.863300000000001
212834.0,45.957000000000001,66.691400000000002,35.555799999999998,73.845100000000002,-1.60745,7.4304899999999998,-15.2242
212835.0,48.069200000000002,54.743899999999996,20.321200000000001,58.182099999999998,-2.08405,7.5362600000000004,-16.453299999999999
212836.0,52.956899999999997,39.142600000000002,-3.9466199999999998,34.152999999999999,-0.23704800000000001,7.7256499999999999,-17.875800000000002
212837.0,56.217599999999997,-15.9335,-64.500699999999995,-22.259699999999999,0.061693199999999997,6.0989100000000001,-17.863
212838.0,60.099800000000002,-51.954900000000002,-90.551000000000002,-35.497100000000003,-13.1151,1.27474,-15.224500000000001
212839.0,57.854799999999997,22.160299999999999,-11.227399999999999,40.309899999999999,-14.980700000000001,5.0566000000000004,-13.504300000000001
212840.0,56.079900000000002,43.945599999999999,9.8742199999999993,60.903799999999997,-8.6654199999999992,7.0591999999999997,-15.7476
212841.0,54.935600000000001,27.4617,5.4478400000000002,53.4129,-9.1086500000000008,9.7591599999999996,-15.8528
212842.0,59.544800000000002,19.150200000000002,2.35717,50.107399999999998,-12.092700000000001,13.8634,-16.021699999999999
212843.0,50.1374,-31.6037,-58.535200000000003,-52.995600000000003,19.523499999999999,-3.1217000000000001,-15.6442
212844.0,46.644199999999998,76.146000000000001,41.625999999999998,76.081800000000001,2.1373000000000002,5.3682699999999999,-17.186299999999999
212845.0,60.609400000000001,-14.2148,-62.598399999999998,-10.258599999999999,-6.7218600000000004,-4.0963000000000003,-17.697299999999998
212846.0,55.977600000000002,-9.7932500000000005,-54.587600000000002,-6.93682,-7.1837600000000004,-2.4134699999999998,-16.5183
212847.0,48.580599999999997,68.259,31.059699999999999,68.133300000000006,0.97090399999999999,5.3510600000000004,-17.2455
212848.0,54.712800000000001,-11.2463,-51.142800000000001,-34.825699999999998,16.676500000000001,-4.7327300000000001,-17.1755
212849.0,46.496299999999998,-82.722499999999997,-102.58199999999999,-102.374,20.974599999999999,-3.4305699999999999,-11.782500000000001
212850.0,73.781099999999995,14.116400000000001,-39.228299999999997,-18.796099999999999,25.113700000000001,-9.2262299999999993,-19.347799999999999
212851.0,40.601500000000001,-17.573,-51.315199999999997,-33.8705,8.3699399999999997,-1.5942400000000001,-13.8619
212852.0,45.124499999999998,48.309399999999997,7.3050600000000001,36.335000000000001,3.6995499999999999,-1.8149,-14.737
212853.0,43.5274,76.641499999999994,44.626899999999999,71.677599999999998,5.6856400000000002,2.3891,-17.222799999999999
212854.0,40.724600000000002,72.367000000000004,44.255800000000001,71.136899999999997,3.0230800000000002,5.3263299999999996,-16.2151
212855.0,44.366599999999998,79.677700000000002,47.344900000000003,78.637500000000003,2.74457,5.5141400000000003,-16.750299999999999
212856.0,47.086799999999997,60.109000000000002,24.293700000000001,59.700000000000003,-0.21968799999999999,5.9108099999999997,-16.772500000000001
212857.0,48.154200000000003,59.905200000000001,22.0579,58.746099999999998,-2.9671699999999999,4.7114700000000003,-16.692599999999999
212858.0,53.377800000000001,53.502699999999997,12.2339,52.069499999999998,-1.22732,3.9339599999999999,-19.5977
212859.0,53.530299999999997,-7.8192700000000004,-45.703400000000002,-5.1435300000000002,0.29852600000000001,3.9238,-20.617999999999999
212860.0,55.902900000000002,-32.271500000000003,-74.389899999999997,-26.390999999999998,-5.0009100000000002,-0.80805499999999997,-18.183499999999999
212861.0,56.568899999999999,5.9847400000000004,-38.449300000000001,9.5446799999999996,-12.305999999999999,-0.66721299999999995,-14.132099999999999
212862.0,54.101799999999997,24.668900000000001,-12.309200000000001,33.264800000000001,-12.040800000000001,5.5620700000000003,-14.6073
212863.0,57.668999999999997,23.233000000000001,-10.522600000000001,37.3202,-13.6777,10.517200000000001,-14.367000000000001
212864.0,59.872500000000002,41.3352,9.3826499999999999,59.254199999999997,-11.232799999999999,13.3766,-15.861599999999999
212865.0,59.494900000000001,8.7853499999999993,-9.0193499999999993,35.651200000000003,-10.411199999999999,17.6372,-15.9597
212866.0,53.781300000000002,-36.8904,-63.001300000000001,-60.046199999999999,21.366099999999999,-5.3586,-16.567
212867.0,49.660200000000003,58.126800000000003,11.7669,39.033099999999997,3.4026299999999998,2.4282599999999999,-16.177
212868.0,56.416899999999998,43.814100000000003,0.67625199999999996,47.756799999999998,-6.7705000000000002,-0.90724800000000005,-18.224299999999999
212869.0,53.725299999999997,18.852900000000002,-19.270299999999999,26.405899999999999,-6.6900000000000004,4.1976000000000004,-17.3293
212870.0,52.929600000000001,62.310499999999998,12.6905,45.040399999999998,1.9151899999999999,1.0187600000000001,-17.165500000000002
212871.0,55.305999999999997,-21.8325,-62.697099999999999,-44.863999999999997,16.389099999999999,-7.5513700000000004,-16.559699999999999
212872.0,52.484400000000001,-88.740399999999994,-107.797,-109.86,23.008700000000001,-7.2492799999999997,-14.166
212873.0,81.419399999999996,10.099,-44.290900000000001,-23.293399999999998,27.295400000000001,-14.3093,-22.528700000000001
212874.0,44.524999999999999,-8.6129099999999994,-44.131599999999999,-23.691099999999999,10.0541,-4.9910399999999999,-14.7323
212875.0,45.223300000000002,45.911299999999997,5.2674899999999996,30.459099999999999,5.7782799999999996,-3.46326,-14.678100000000001
212876.0,44.210999999999999,82.523700000000005,44.307400000000001,67.322999999999993,6.87059,0.42423899999999998,-15.295199999999999
212877.0,43.887099999999997,73.903499999999994,38.167400000000001,59.806899999999999,6.4823000000000004,2.6783100000000002,-16.395800000000001
212878.0,46.027900000000002,64.374300000000005,25.028099999999998,47.383200000000002,4.9614799999999999,3.3748300000000002,-16.755800000000001
212879.0,53.523800000000001,53.149000000000001,5.9077200000000003,39.580300000000001,0.54267200000000004,0.80084999999999995,-19.036300000000001
212880.0,52.903700000000001,45.8889,0.53395000000000004,35.659500000000001,-2.7528199999999998,0.26860499999999998,-18.956900000000001
212881.0,53.520499999999998,47.021799999999999,2.1846700000000001,40.657499999999999,-2.7494000000000001,-1.4062300000000001,-18.888400000000001
212882.0,50.621499999999997,35.771999999999998,-2.04501,36.551299999999998,-2.6387200000000002,-2.2837800000000001,-18.848500000000001
212883.0,53.329000000000001,38.484900000000003,-0.80889299999999997,42.727499999999999,-7.7290299999999998,-3.1150600000000002,-17.3872
212884.0,57.572600000000001,2.0768399999999998,-38.511099999999999,11.988899999999999,-10.469799999999999,7.1495600000000001,-15.104799999999999
212885.0,57.455800000000004,5.8658900000000003,-29.860600000000002,19.728899999999999,-11.395,10.207800000000001,-14.551
212886.0,59.163800000000002,20.714700000000001,-10.255100000000001,39.777000000000001,-13.6953,11.7972,-14.2279
212887.0,61.110399999999998,30.627600000000001,1.9874400000000001,52.937800000000003,-12.394500000000001,14.343299999999999,-15.2691
212888.0,60.972000000000001,31.327500000000001,11.5908,57.4405,-10.9556,18.9542,-15.197699999999999
212889.0,51.313600000000001,-32.140500000000003,-52.486499999999999,-45.219999999999999,19.411300000000001,-6.5176299999999996,-18.764700000000001
212890.0,53.109999999999999,11.6456,-33.779699999999998,-1.88795,3.1954099999999999,-2.3952900000000001,-19.501899999999999
212891.0,53.715000000000003,64.831699999999998,21.625299999999999,63.079300000000003,-7.7000700000000002,5.4291499999999999,-16.581600000000002
212892.0,51.207700000000003,36.370399999999997,-0.045793800000000003,40.856099999999998,-7.2356600000000002,7.3746099999999997,-16.252099999999999
212893.0,57.834699999999998,23.295400000000001,-27.9831,8.7879199999999997,1.57097,-4.4705899999999996,-19.844899999999999
212894.0,52.348799999999997,-2.8582700000000001,-36.484299999999998,-13.9511,12.516,-10.4465,-18.817599999999999
212895.0,52.233400000000003,-96.758099999999999,-114.361,-114.962,21.587499999999999,-7.0907900000000001,-16.9176
212896.0,79.071799999999996,18.569199999999999,-32.054099999999998,-8.3047799999999992,24.636199999999999,-15.256600000000001,-24.554400000000001
212897.0,48.402000000000001,30.9557,-0.25847599999999998,20.256799999999998,10.858599999999999,-8.3414599999999997,-18.488299999999999
212898.0,44.905799999999999,54.6905,22.632300000000001,43.494799999999998,8.4409600000000005,-5.9398200000000001,-17.347300000000001
212899.0,45.146999999999998,61.358400000000003,25.994199999999999,49.617800000000003,6.95465,-3.9682200000000001,-17.055199999999999
212900.0,49.899700000000003,67.755399999999995,29.653500000000001,53.805700000000002,8.9392300000000002,-2.2044700000000002,-19.329000000000001
212901.0,49.058500000000002,21.051300000000001,-16.7347,7.7297900000000004,7.2067500000000004,-0.61258400000000002,-19.561199999999999
212902.0,58.893599999999999,36.291699999999999,-15.893000000000001,21.398099999999999,1.60599,-4.8509099999999998,-20.184699999999999
212903.0,55.110399999999998,27.6981,-21.747,14.0002,-0.67763399999999996,-3.1522800000000002,-18.715499999999999
212904.0,53.506599999999999,28.2834,-20.857199999999999,14.513999999999999,-4.2861599999999997,-1.06603,-17.0946
212905.0,51.511499999999998,41.169499999999999,-5.5848000000000004,28.608000000000001,-6.6125100000000003,1.8912899999999999,-15.864800000000001
212906.0,51.905999999999999,52.500300000000003,7.5987900000000002,45.709800000000001,-9.548,3.7172399999999999,-14.398300000000001
212907.0,53.832700000000003,37.460299999999997,0.88910100000000003,48.303199999999997,-10.016999999999999,6.1644500000000004,-14.507199999999999
212908.0,56.433700000000002,33.097200000000001,-2.6629499999999999,47.664099999999998,-11.439399999999999,7.4687999999999999,-14.293799999999999
212909.0,56.983600000000003,45.779800000000002,13.1884,61.241500000000002,-12.529299999999999,11.6355,-13.721500000000001
212910.0,58.593899999999998,43.152999999999999,14.7712,60.814100000000003,-13.416600000000001,15.911,-13.1029
212911.0,61.2532,52.768900000000002,29.426500000000001,73.381200000000007,-11.6303,20.500900000000001,-14.542199999999999
212912.0,48.323099999999997,19.291399999999999,2.23597,11.8078,15.4908,-7.0728900000000001,-20.378900000000002
212913.0,57.931699999999999,44.0379,3.6760799999999998,37.153700000000001,4.99688,-10.6494,-22.674099999999999
212914.0,50.800400000000003,58.933,18.0945,60.399799999999999,-7.4449699999999996,4.5168299999999997,-14.4148
212915.0,49.721600000000002,44.604399999999998,6.3744500000000004,45.949300000000001,-7.5708500000000001,7.5299500000000004,-14.322800000000001
212916.0,60.047800000000002,46.295400000000001,0.544265,38.0854,3.1727500000000002,-10.324199999999999,-22.142099999999999
212917.0,50.828400000000002,65.078999999999994,35.099899999999998,54.771599999999999,11.198600000000001,-10.4832,-19.8462
212918.0,51.1066,-66.265600000000006,-76.75,-73.034700000000001,18.599599999999999,-6.6733099999999999,-21.2577
212919.0,71.891400000000004,43.338200000000001,2.3005399999999998,29.841000000000001,19.171700000000001,-14.239599999999999,-26.739799999999999
212920.0,46.923699999999997,62.857199999999999,34.939300000000003,49.776400000000002,11.783200000000001,-6.1039399999999997,-19.045500000000001
212921.0,45.1068,63.033499999999997,30.739999999999998,49.058399999999999,8.7911900000000003,-5.4168200000000004,-17.5867
212922.0,49.133600000000001,72.527900000000002,36.292499999999997,57.311900000000001,8.1989099999999997,-5.84213,-19.294899999999998
212923.0,52.928699999999999,61.602600000000002,23.582699999999999,47.829900000000002,8.3167500000000008,-6.74716,-21.180199999999999
212924.0,55.084499999999998,51.523600000000002,13.9251,42.369199999999999,7.3940999999999999,-8.7190799999999999,-22.278300000000002
212925.0,59.0869,38.386099999999999,-9.6332199999999997,29.1066,2.4675199999999999,-7.9458299999999999,-21.112500000000001
212926.0,55.701300000000003,25.609200000000001,-21.083400000000001,19.5183,-0.532142,-5.7882199999999999,-18.871300000000002
212927.0,54.286499999999997,21.266400000000001,-23.078900000000001,19.190100000000001,-2.70004,-3.3684799999999999,-18.370000000000001
212928.0,50.407200000000003,13.789899999999999,-26.0044,15.1379,-5.7261800000000003,0.38617499999999999,-16.360800000000001
212929.0,50.552599999999998,37.612299999999998,-2.7582900000000001,39.955100000000002,-8.9665499999999998,2.4014000000000002,-13.750400000000001
212930.0,53.852699999999999,46.014800000000001,3.0726900000000001,44.842300000000002,-10.8386,8.2334499999999995,-13.531000000000001
212931.0,55.933199999999999,42.376199999999997,-2.4402599999999999,39.7179,-11.4468,9.91709,-13.465299999999999
212932.0,55.856000000000002,41.262500000000003,3.0641400000000001,44.799999999999997,-13.0633,14.3238,-11.3383
212933.0,60.201799999999999,45.103099999999998,11.3858,55.330399999999997,-14.579599999999999,18.574200000000001,-11.0344
212934.0,62.4148,67.990200000000002,40.587699999999998,81.168899999999994,-12.224,23.4297,-13.0992
212935.0,46.786900000000003,56.2714,39.164900000000003,41.837800000000001,14.075699999999999,-4.3397399999999999,-20.688800000000001
212936.0,57.106999999999999,69.4405,22.430900000000001,51.456600000000002,4.2130700000000001,-8.4504800000000007,-20.863099999999999
212937.0,48.115600000000001,59.978499999999997,18.707899999999999,57.490200000000002,-7.5982900000000004,2.8122600000000002,-13.056699999999999
212938.0,48.730400000000003,56.217300000000002,16.3492,56.688299999999998,-8.3775899999999996,5.1239299999999997,-12.607799999999999
212939.0,57.079500000000003,61.510300000000001,14.2408,47.485700000000001,2.81568,-8.1845400000000001,-20.535900000000002
212940.0,47.064,88.686099999999996,56.592599999999997,72.149299999999997,9.7071199999999997,-6.9649999999999999,-18.385300000000001
212941.0,49.781599999999997,-26.463799999999999,-40.204599999999999,-38.249000000000002,18.058599999999998,-7.0352100000000002,-19.879799999999999
212942.0,71.957499999999996,114.265,72.460400000000007,98.646500000000003,17.835899999999999,-14.8085,-27.245999999999999
212943.0,45.628799999999998,65.063599999999994,38.210000000000001,50.210500000000003,10.8863,-4.3316299999999996,-19.384599999999999
212944.0,47.633499999999998,68.9649,36.681699999999999,55.1203,8.0841999999999992,-6.0859899999999998,-19.789200000000001
212945.0,51.921199999999999,60.319299999999998,24.2898,45.065100000000001,8.3525799999999997,-6.5871599999999999,-21.409700000000001
212946.0,53.768000000000001,64.831000000000003,24.7073,48.604199999999999,6.6247400000000001,-7.7746899999999997,-21.2592
212947.0,56.841700000000003,68.563000000000002,23.5778,50.096499999999999,5.6654099999999996,-8.5914199999999994,-21.4421
212948.0,55.753300000000003,53.706200000000003,8.2792300000000001,45.142899999999997,1.4861800000000001,-7.4752799999999997,-19.884899999999998
212949.0,54.535400000000003,50.752200000000002,5.3569000000000004,45.442999999999998,-0.57921299999999998,-6.8092600000000001,-18.129999999999999
212950.0,52.832000000000001,54.6175,9.5790000000000006,50.419899999999998,-1.8638399999999999,-5.4925100000000002,-16.666
212951.0,49.313299999999998,53.585999999999999,11.505800000000001,51.069400000000002,-3.9966499999999998,-3.0949499999999999,-15.099299999999999
212952.0,47.905799999999999,53.773699999999998,12.752599999999999,51.7104,-6.7934400000000004,-0.17064699999999999,-13.5901
212953.0,53.0398,48.548000000000002,6.3790300000000002,51.682600000000001,-8.1983700000000006,6.8832100000000001,-13.5303
212954.0,55.775199999999998,15.1731,-28.374400000000001,18.788799999999998,-9.35473,9.5171500000000009,-13.034599999999999
212955.0,55.660699999999999,20.313300000000002,-22.027799999999999,23.3337,-12.0236,11.8064,-10.2707
212956.0,55.436100000000003,34.569000000000003,-4.8080999999999996,37.669800000000002,-13.230600000000001,14.620100000000001,-8.6505299999999998
212957.0,58.065899999999999,53.8003,19.742999999999999,60.968699999999998,-13.8383,19.773399999999999,-7.50054
212958.0,47.656500000000001,51.124699999999997,33.521700000000003,30.9297,14.402799999999999,-4.0602200000000002,-20.307200000000002
212959.0,56.114199999999997,53.213900000000002,10.771800000000001,43.232399999999998,3.1337899999999999,-8.4046699999999994,-21.833500000000001
212960.0,46.7181,52.822699999999998,12.494400000000001,50.715499999999999,-7.2591700000000001,2.70777,-12.3378
212961.0,47.3782,56.183599999999998,15.259499999999999,54.481900000000003,-8.6732200000000006,4.2336099999999997,-10.912000000000001
212962.0,55.058799999999998,57.120399999999997,13.069599999999999,47.5989,1.9365600000000001,-7.7381900000000003,-20.2392
212963.0,48.786700000000003,79.818299999999994,48.592199999999998,64.438400000000001,8.702,-8.7349300000000003,-19.9392
212964.0,50.676400000000001,-41.061999999999998,-62.637599999999999,-62.494799999999998,17.035799999999998,-6.7361000000000004,-19.1387
212965.0,77.508700000000005,130.96199999999999,80.745699999999999,104.678,18.299299999999999,-15.6191,-28.157
212966.0,48.355200000000004,64.734800000000007,38.490299999999998,48.172800000000002,10.178800000000001,-6.4450500000000002,-21.4038
212967.0,51.559199999999997,67.474299999999999,34.234499999999997,51.3996,8.3348499999999994,-9.0629500000000007,-21.4054
212968.0,55.2119,64.252799999999993,28.851299999999998,48.5182,8.3024699999999996,-9.6298999999999992,-23.2346
212969.0,56.417400000000001,59.875100000000003,20.9922,45.655500000000004,6.1146500000000001,-9.98813,-23.168099999999999
212970.0,57.188699999999997,56.404000000000003,15.4207,44.252699999999997,4.7867199999999999,-9.2801299999999998,-23.196000000000002
212971.0,53.733400000000003,60.238599999999998,14.787100000000001,50.434399999999997,0.385212,-6.9788600000000001,-18.4786
212972.0,52.6096,60.926400000000001,14.9459,51.704700000000003,-1.0343800000000001,-5.6895100000000003,-17.2455
212973.0,51.169800000000002,56.7742,11.0924,49.160400000000003,-2.9851899999999998,-3.9256099999999998,-15.794499999999999
212974.0,49.865400000000001,57.142899999999997,12.129,50.699300000000001,-4.3824300000000003,-1.8641399999999999,-14.615
212975.0,47.503300000000003,54.201900000000002,11.940200000000001,49.977499999999999,-5.9222999999999999,0.55331799999999998,-13.2294
212976.0,47.2928,59.139400000000002,17.552199999999999,57.346499999999999,-7.1147799999999997,5.6194800000000003,-10.517799999999999
212977.0,51.8581,51.241500000000002,5.8995800000000003,52.8626,-8.3757699999999993,5.3551099999999998,-9.3228399999999993
212978.0,56.898400000000002,26.942299999999999,-24.429500000000001,24.138500000000001,-8.0177800000000001,6.0245699999999998,-12.011100000000001
212979.0,53.545999999999999,-12.115399999999999,-60.1282,-20.863299999999999,-10.838200000000001,10.164999999999999,-9.0009899999999998
212980.0,57.668199999999999,22.665700000000001,-25.1938,14.3948,-17.708600000000001,11.7401,-1.65734
212981.0,51.716200000000001,28.527799999999999,9.8040599999999998,10.076499999999999,13.816700000000001,-8.87256,-22.510300000000001
212982.0,57.238700000000001,60.4497,18.578299999999999,49.845300000000002,3.96529,-11.736800000000001,-21.557600000000001
212983.0,46.117699999999999,58.565100000000001,17.428699999999999,55.4955,-6.8756199999999996,1.1656500000000001,-11.6274
212984.0,45.775599999999997,57.213900000000002,17.0884,55.036299999999997,-8.1979699999999998,3.57063,-10.4581
212985.0,55.733600000000003,55.9818,13.2784,46.985799999999998,2.18499,-10.317399999999999,-20.430499999999999
212986.0,55.755499999999998,87.9589,57.992699999999999,72.650000000000006,9.7731200000000005,-13.381500000000001,-23.175899999999999
212987.0,58.516100000000002,-66.373900000000006,-83.762299999999996,-87.155000000000001,17.3109,-10.688700000000001,-24.559699999999999
212988.0,81.311700000000002,90.832400000000007,45.985300000000002,69.342399999999998,17.6126,-19.137699999999999,-32.0047
212989.0,52.301200000000001,53.958199999999998,30.506499999999999,38.2866,10.3109,-10.237299999999999,-23.6221
212990.0,54.867400000000004,65.912700000000001,34.854900000000001,52.299799999999998,7.9986300000000004,-12.1213,-23.456399999999999
212991.0,57.796900000000001,56.081899999999997,22.0563,42.251399999999997,8.4732199999999995,-12.054399999999999,-24.567799999999998
212992.0,58.5017,59.8155,21.885100000000001,47.382399999999997,6.9277499999999996,-12.571099999999999,-23.6831
212993.0,58.674500000000002,57.926699999999997,17.595099999999999,46.1693,5.8409000000000004,-12.433999999999999,-22.991700000000002
212994.0,53.932000000000002,53.898600000000002,10.7349,46.879300000000001,0.44989800000000002,-8.5148100000000007,-18.983799999999999
212995.0,52.501899999999999,52.671599999999998,9.00169,47.063899999999997,-1.0322800000000001,-6.8678400000000002,-17.4941
212996.0,51.121699999999997,55.428400000000003,11.450799999999999,50.744599999999998,-2.4391400000000001,-5.2557299999999998,-15.944900000000001
212997.0,49.771900000000002,54.893799999999999,11.197100000000001,51.210799999999999,-3.9182100000000002,-3.4079100000000002,-14.540900000000001
212998.0,47.708399999999997,54.034700000000001,11.530799999999999,50.936300000000003,-5.4914800000000001,-1.15036,-12.8733
212999.0,43.672899999999998,56.027999999999999,19.081499999999998,54.167400000000001,-8.2854200000000002,6.7100900000000001,-9.4258600000000001
213000.0,48.5702,60.084499999999998,16.320499999999999,58.278599999999997,-8.6575299999999995,5.9842300000000002,-7.9005999999999998
213001.0,55.324100000000001,44.123199999999997,-6.7818699999999996,43.665700000000001,-5.7953400000000004,4.9177400000000002,-10.3149
213002.0,55.066000000000003,-23.223500000000001,-72.201700000000002,-22.9633,-5.8550700000000004,7.2255700000000003,-10.971399999999999
213003.0,58.259500000000003,-50.1736,-103.02500000000001,-56.835799999999999,-14.488200000000001,8.4260900000000003,-4.6852299999999998
213004.0,62.095599999999997,48.989100000000001,30.155000000000001,35.43,14.1012,-15.1419,-27.618200000000002
213005.0,57.709600000000002,50.368499999999997,11.412100000000001,44.306800000000003,3.8757799999999998,-12.529500000000001,-22.332100000000001
213006.0,46.502299999999998,56.080599999999997,13.775399999999999,53.156700000000001,-6.12432,-0.249915,-11.1829
213007.0,45.247100000000003,52.419899999999998,11.1325,49.221899999999998,-7.4877399999999996,2.3039100000000001,-9.66676
213008.0,56.111499999999999,53.075899999999997,12.7271,47.903300000000002,2.5752299999999999,-11.5908,-20.651900000000001
213009.0,59.064,66.417900000000003,42.379399999999997,53.975000000000001,10.4739,-15.3186,-25.960799999999999
213010.0,67.840900000000005,-58.813400000000001,-70.5976,-78.450800000000001,18.922699999999999,-15.5383,-28.9297
213011.0,81.655000000000001,47.441600000000001,12.383599999999999,33.839300000000001,15.933199999999999,-23.4955,-33.229500000000002
213012.0,55.254199999999997,61.339300000000001,38.232500000000002,48.363999999999997,9.9247499999999995,-13.296799999999999,-24.661999999999999
213013.0,57.005499999999998,60.261299999999999,32.286700000000003,49.130699999999997,8.4075100000000003,-14.0327,-24.8444
213014.0,58.987000000000002,57.625300000000003,26.3004,47.194600000000001,7.9832700000000001,-13.9613,-25.431000000000001
213015.0,59.6128,54.585099999999997,19.683599999999998,45.789299999999997,6.60825,-14.024100000000001,-24.793600000000001
213016.0,59.160499999999999,52.888100000000001,15.706,45.404600000000002,5.3567099999999996,-13.408099999999999,-23.904599999999999
213017.0,54.395400000000002,53.702100000000002,12.279500000000001,49.119999999999997,1.1982299999999999,-10.511200000000001,-18.9391
213018.0,52.975700000000003,55.056199999999997,12.571999999999999,51.088700000000003,-0.311888,-9.1172500000000003,-17.365300000000001
213019.0,51.399900000000002,51.5032,8.3732500000000005,48.032299999999999,-1.7038599999999999,-7.2868500000000003,-15.8262
213020.0,50.111600000000003,54.191499999999998,10.436400000000001,51.094999999999999,-3.2790400000000002,-5.4417200000000001,-14.1594
213021.0,48.010599999999997,52.984900000000003,9.8754100000000005,49.968899999999998,-4.7204199999999998,-2.9542099999999998,-12.5762
213022.0,42.487499999999997,64.8001,27.263400000000001,61.128799999999998,-8.5040300000000002,5.6729599999999998,-8.3069000000000006
213023.0,44.701700000000002,55.508200000000002,16.2044,52.419800000000002,-8.2631499999999996,6.7310299999999996,-8.6514199999999999
213024.0,48.160200000000003,58.945399999999999,16.041599999999999,59.377899999999997,-8.3513800000000007,5.8915300000000004,-6.9893299999999998
213025.0,53.807400000000001,39.620800000000003,-7.8769999999999998,44.131799999999998,-5.1341200000000002,4.54779,-9.3712099999999996
213026.0,56.277799999999999,-13.069900000000001,-59.145899999999997,-3.23034,-6.3244300000000004,7.1632300000000004,-8.5650399999999998
213027.0,67.375,60.709299999999999,41.576099999999997,49.202199999999998,13.834300000000001,-17.489799999999999,-30.382200000000001
213028.0,58.061300000000003,54.215600000000002,17.874199999999998,51.014800000000001,3.76492,-13.648,-22.7682
213029.0,46.810499999999998,56.6432,13.9092,54.895200000000003,-5.0192899999999998,-2.0563400000000001,-10.7766
213030.0,45.484699999999997,54.475299999999997,12.114000000000001,51.792200000000001,-6.3631799999999998,0.57168399999999997,-9.2804800000000007
213031.0,56.267099999999999,51.4529,13.692399999999999,49.243499999999997,2.3559700000000001,-12.4879,-21.0886
213032.0,59.450200000000002,61.949199999999998,42.799599999999998,52.359000000000002,10.5214,-15.7538,-26.973099999999999
213033.0,71.767799999999994,-45.531199999999998,-50.530200000000001,-57.730800000000002,18.756900000000002,-17.369,-32.027500000000003
213034.0,79.898099999999999,29.600000000000001,0.82716500000000004,22.348299999999998,14.132400000000001,-23.996099999999998,-33.591999999999999
213035.0,56.8035,57.095999999999997,35.738500000000002,48.450200000000002,8.7994400000000006,-14.5846,-25.8842
213036.0,57.7104,57.772399999999998,32.747399999999999,49.893999999999998,7.9624600000000001,-14.4443,-25.9693
213037.0,59.450000000000003,53.715299999999999,24.8508,46.8264,7.22865,-14.6958,-26.127099999999999
213038.0,60.015500000000003,54.194899999999997,22.058900000000001,48.618899999999996,6.2068899999999996,-14.7058,-25.5139
213039.0,59.507300000000001,52.923999999999999,18.334199999999999,48.608400000000003,5.0814700000000004,-14.389099999999999,-24.335899999999999
213040.0,54.400700000000001,50.669899999999998,11.7096,49.238399999999999,1.0553300000000001,-11.0336,-19.3795
213041.0,52.8703,50.045000000000002,9.7986599999999999,49.209099999999999,-0.17612800000000001,-9.6387099999999997,-17.603400000000001
213042.0,51.314,52.007300000000001,10.8376,51.365000000000002,-1.30067,-8.0933499999999992,-15.944100000000001
213043.0,50.210000000000001,52.471899999999998,10.1205,51.980899999999998,-2.6137700000000001,-6.3990900000000002,-14.1965
213044.0,48.1372,51.541699999999999,9.0585100000000001,50.520699999999998,-3.7440199999999999,-4.1720199999999998,-12.3886
213045.0,42.728999999999999,59.18,19.294799999999999,54.863799999999998,-7.5625400000000003,3.99946,-7.5033700000000003
213046.0,43.041899999999998,57.714599999999997,18.097200000000001,52.021999999999998,-8.1343099999999993,5.9437699999999998,-7.5653600000000001
213047.0,44.357900000000001,65.357399999999998,24.960999999999999,59.132399999999997,-9.4753399999999992,7.41981,-6.1635600000000004
213048.0,48.276299999999999,59.2303,13.1579,52.887599999999999,-8.1568299999999994,6.6767799999999999,-6.4958799999999997
213049.0,49.644300000000001,48.813099999999999,2.6930399999999999,48.5777,-6.8231299999999999,6.5674700000000001,-5.1394799999999998
213050.0,65.049999999999997,50.5595,38.871000000000002,42.518000000000001,11.8597,-16.031700000000001,-31.258099999999999
213051.0,57.598199999999999,48.7121,15.169499999999999,48.746699999999997,3.04949,-13.5129,-23.206299999999999
213052.0,47.029400000000003,53.4238,11.257300000000001,53.381,-4.1968899999999998,-3.3889399999999998,-10.7744
213053.0,45.540900000000001,50.1447,7.6826999999999996,48.768000000000001,-5.1579499999999996,-1.3069900000000001,-8.9920799999999996
213054.0,55.894300000000001,50.799300000000002,15.6549,51.602499999999999,1.98207,-12.5297,-21.427499999999998
213055.0,59.736600000000003,60.145899999999997,41.966999999999999,54.5702,9.2681400000000007,-16.1615,-27.4893
213056.0,68.724599999999995,-48.234999999999999,-53.532200000000003,-57.160299999999999,16.604399999999998,-17.195,-31.350200000000001
213057.0,83.622200000000007,53.488700000000001,27.750599999999999,51.555599999999998,13.415900000000001,-23.628900000000002,-37.243899999999996
213058.0,57.676099999999998,57.644300000000001,39.240499999999997,51.926499999999997,8.4645399999999995,-14.8226,-26.9956
213059.0,58.610199999999999,55.546999999999997,32.769500000000001,50.985199999999999,7.1503100000000002,-15.1799,-26.8003
213060.0,60.023000000000003,54.179699999999997,28.099299999999999,50.560600000000001,6.4898899999999999,-15.1495,-27.0122
213061.0,60.018099999999997,51.403700000000001,22.156099999999999,49.227699999999999,5.3174299999999999,-15.0093,-26.108699999999999
213062.0,59.261800000000001,50.811799999999998,19.163699999999999,49.7849,4.25122,-14.402100000000001,-24.935400000000001
213063.0,54.050899999999999,50.703400000000002,14.2395,52.005099999999999,0.89538099999999998,-11.408300000000001,-19.5778
213064.0,52.5212,51.998899999999999,14.091900000000001,53.6068,-0.21228,-10.125299999999999,-17.797999999999998
213065.0,50.9056,49.523200000000003,10.3889,51.072200000000002,-1.2033700000000001,-8.5794800000000002,-16.038499999999999
213066.0,49.782600000000002,51.656599999999997,11.0845,53.081800000000001,-2.2236400000000001,-7.1079800000000004,-14.2121
213067.0,47.9724,50.742199999999997,9.5812799999999996,51.475999999999999,-3.1640899999999998,-5.2554499999999997,-12.4297
213068.0,43.1126,60.714399999999998,19.447099999999999,57.337899999999998,-6.2896900000000002,1.2397899999999999,-7.3109900000000003
213069.0,42.648899999999998,54.411499999999997,13.468299999999999,48.938699999999997,-7.4665299999999997,3.6684299999999999,-6.5596899999999998
213070.0,42.470399999999998,63.927199999999999,23.8172,56.756799999999998,-8.4629799999999999,6.4382400000000004,-5.5346099999999998
213071.0,44.322099999999999,57.615600000000001,15.835599999999999,48.273400000000002,-8.7615499999999997,7.8889100000000001,-5.9138500000000001
213072.0,47.3172,64.997200000000007,19.907,54.454000000000001,-10.060700000000001,8.7085100000000004,-3.59884
213073.0,62.668900000000001,37.557000000000002,32.1053,30.951899999999998,11.668200000000001,-14.895899999999999,-30.6374
213074.0,57.490900000000003,51.261200000000002,20.738,54.590600000000002,2.5235400000000001,-13.7971,-23.598299999999998
213075.0,46.746299999999998,52.660200000000003,12.2593,54.745100000000001,-3.7896299999999998,-4.5397299999999996,-10.9467
213076.0,45.434199999999997,52.235300000000002,11.1433,52.976999999999997,-4.6055000000000001,-2.8071299999999999,-9.2630800000000004
213077.0,55.648200000000003,48.872300000000003,16.613399999999999,52.684699999999999,1.47651,-12.685499999999999,-21.827000000000002
213078.0,60.785600000000002,66.206900000000005,49.545499999999997,65.124099999999999,7.7005400000000002,-16.892800000000001,-28.2852
213079.0,66.307299999999998,-59.7376,-61.8523,-62.705399999999997,12.350300000000001,-16.4254,-32.262900000000002
213080.0,87.813400000000001,91.590800000000002,68.764899999999997,92.923199999999994,12.748799999999999,-23.782599999999999,-40.716700000000003
213081.0,58.900300000000001,49.597299999999997,34.109400000000001,46.443100000000001,7.8475599999999996,-14.9962,-28.336500000000001
213082.0,59.506900000000002,56.043900000000001,35.686399999999999,55.200699999999998,6.1823600000000001,-15.622299999999999,-27.6663
213083.0,60.605699999999999,49.322899999999997,26.219200000000001,49.094000000000001,5.7198000000000002,-15.4612,-27.864000000000001
213084.0,60.156199999999998,51.624600000000001,25.387699999999999,53.035600000000002,4.5343799999999996,-15.248699999999999,-26.659199999999998
213085.0,59.327500000000001,49.232599999999998,20.667999999999999,51.625999999999998,3.6705100000000002,-14.665699999999999,-25.456199999999999
213086.0,53.613399999999999,49.415100000000002,15.6126,53.490299999999998,0.42377500000000001,-11.394299999999999,-19.8947
213087.0,51.9711,48.594200000000001,13.243600000000001,52.742600000000003,-0.495085,-10.1432,-18.0562
213088.0,50.364800000000002,50.589100000000002,13.9381,54.568100000000001,-1.3556299999999999,-8.8379100000000008,-16.246099999999998
213089.0,49.1999,50.411499999999997,12.262499999999999,54.105699999999999,-2.23122,-7.4965200000000003,-14.4588
213090.0,47.661299999999997,50.241700000000002,11.061,53.149000000000001,-2.9832000000000001,-5.9521600000000001,-12.6639
213091.0,43.8827,53.9009,12.5557,52.752699999999997,-5.4792800000000002,-0.83728400000000003,-7.5331900000000003
213092.0,42.657200000000003,53.518599999999999,12.197100000000001,50.116500000000002,-6.36165,1.06043,-6.2286099999999998
213093.0,41.469900000000003,60.796700000000001,20.018999999999998,54.6965,-7.4823500000000003,3.1986699999999999,-4.8244400000000001
213094.0,42.2059,56.923900000000003,15.488799999999999,48.259,-8.0836000000000006,5.06454,-5.0146100000000002
213095.0,43.594900000000003,55.692500000000003,13.623900000000001,45.990099999999998,-8.9567399999999999,7.43886,-3.5633499999999998
213096.0,62.741,42.388599999999997,38.488,38.256500000000003,10.5959,-14.9718,-31.150099999999998
213097.0,57.295400000000001,46.6509,19.122299999999999,53.280500000000004,1.8670500000000001,-13.5831,-24.045300000000001
213098.0,46.367600000000003,50.645000000000003,12.343299999999999,54.747900000000001,-3.93167,-5.1073899999999997,-11.3184
213099.0,45.253900000000002,49.039999999999999,9.7065999999999999,51.8232,-4.5684500000000003,-3.7353200000000002,-9.6454900000000006
213100.0,55.417000000000002,48.669899999999998,19.2942,55.613999999999997,0.96375500000000003,-12.554399999999999,-22.213200000000001
213101.0,61.963700000000003,57.236499999999999,43.996499999999997,59.999699999999997,6.9201499999999996,-17.069600000000001,-29.451699999999999
213102.0,69.302000000000007,-21.5991,-19.848800000000001,-22.9908,11.992000000000001,-17.5307,-33.872
213103.0,85.688999999999993,80.713700000000003,63.090699999999998,83.826499999999996,11.386900000000001,-22.8553,-40.871400000000001
213104.0,60.566200000000002,51.848399999999998,39.270299999999999,52.387900000000002,7.0320999999999998,-15.705299999999999,-29.522099999999998
213105.0,60.8491,50.926099999999998,33.755899999999997,54.0505,5.4618099999999998,-16.099799999999998,-28.7361
213106.0,61.283999999999999,49.903599999999997,30.059799999999999,53.634399999999999,4.90496,-15.7476,-28.623100000000001
213107.0,60.43,47.977699999999999,25.035,53.186100000000003,3.7809599999999999,-15.3163,-27.277200000000001
213108.0,59.230499999999999,48.198599999999999,22.833300000000001,54.144500000000001,2.8941300000000001,-14.544600000000001,-25.941700000000001
213109.0,53.443600000000004,48.421100000000003,17.394200000000001,55.473199999999999,0.036750199999999997,-11.4491,-20.263000000000002
213110.0,51.694200000000002,49.863199999999999,17.223199999999999,56.747199999999999,-0.86237399999999997,-10.264699999999999,-18.407499999999999
213111.0,50.0334,48.267299999999999,14.102,54.709299999999999,-1.6973400000000001,-8.9859200000000001,-16.569099999999999
213112.0,48.697000000000003,49.823,14.134,55.727499999999999,-2.4757400000000001,-7.7504400000000002,-14.7593
213113.0,47.319099999999999,49.556100000000001,12.6348,54.6173,-3.1984900000000001,-6.4366099999999999,-13.0185
213114.0,44.145800000000001,54.319899999999997,14.2507,55.548299999999998,-5.30091,-2.3236500000000002,-8.00183
213115.0,42.981900000000003,51.681199999999997,11.172700000000001,50.8339,-6.1175899999999999,-0.66986699999999999,-6.4934099999999999
213116.0,41.848500000000001,56.134799999999998,15.494400000000001,52.728299999999997,-6.8980100000000002,1.1778299999999999,-5.1505599999999996
213117.0,41.496200000000002,55.0518,13.971500000000001,48.905999999999999,-7.5325499999999996,2.80138,-4.2925500000000003
213118.0,41.280099999999997,64.547200000000004,23.317799999999998,55.889000000000003,-8.2296800000000001,4.3029700000000002,-3.0255200000000002
213119.0,64.772499999999994,36.514800000000001,35.889600000000002,37.033799999999999,9.2116299999999995,-15.825200000000001,-32.601700000000001
213120.0,57.482100000000003,47.980600000000003,23.622900000000001,58.228099999999998,1.31586,-13.4117,-24.572800000000001
213121.0,46.116199999999999,50.4283,14.229200000000001,56.564900000000002,-4.2986300000000002,-5.4649099999999997,-11.7118
213122.0,45.115400000000001,51.404699999999998,13.9596,56.107500000000002,-4.9633700000000003,-4.2329800000000004,-10.1225
213123.0,55.482999999999997,46.333500000000001,19.9255,56.596299999999999,0.41097099999999998,-12.3584,-22.700500000000002
213124.0,63.920900000000003,57.671399999999998,48.187600000000003,64.472700000000003,6.3322000000000003,-17.345300000000002,-30.8886
213125.0,69.532499999999999,-20.5761,-17.3736,-21.3691,11.596299999999999,-17.4955,-34.154800000000002
213126.0,84.098500000000001,77.462999999999994,65.6404,84.989599999999996,9.9962300000000006,-21.7593,-41.097299999999997
213127.0,62.225099999999998,44.875599999999999,35.6706,49.8583,6.1525100000000004,-16.085100000000001,-30.696300000000001
213128.0,61.995399999999997,50.421300000000002,36.697800000000001,57.805900000000001,4.7244700000000002,-16.165800000000001,-29.711099999999998
213129.0,61.8782,45.272399999999998,28.886399999999998,53.200299999999999,4.1257900000000003,-15.6632,-29.3291
213130.0,60.792700000000004,47.692700000000002,28.1402,56.892000000000003,3.0953900000000001,-15.111800000000001,-27.8994
213131.0,59.419499999999999,45.8187,23.777200000000001,55.601199999999999,2.2793399999999999,-14.334099999999999,-26.467199999999998
213132.0,53.448399999999999,47.505499999999998,19.182099999999998,57.553400000000003,-0.49374400000000002,-11.2279,-20.736799999999999
213133.0,51.610900000000001,46.9208,16.8294,56.553600000000003,-1.3232600000000001,-10.101699999999999,-18.834
213134.0,49.953400000000002,48.9238,17.209399999999999,57.9694,-2.1167500000000001,-8.9773300000000003,-16.9864
213135.0,48.503599999999999,48.786900000000003,15.4764,57.063400000000001,-2.8973499999999999,-7.8131700000000004,-15.171099999999999
213136.0,47.174900000000001,49.262500000000003,14.4787,56.495899999999999,-3.59836,-6.6188900000000004,-13.433299999999999
213137.0,44.318399999999997,50.873399999999997,12.1744,53.941200000000002,-5.6517999999999997,-2.9539,-8.4925899999999999
213138.0,43.190199999999997,51.816099999999999,12.358000000000001,52.799999999999997,-6.2829699999999997,-1.5916699999999999,-6.8950899999999997
213139.0,42.253300000000003,55.391500000000001,15.3592,53.999200000000002,-6.9834699999999996,-0.23086100000000001,-5.4800500000000003
213140.0,41.508499999999998,53.776400000000002,13.373699999999999,49.5991,-7.7325699999999999,1.20068,-4.4044699999999999
213141.0,41.530299999999997,55.067799999999998,14.064500000000001,48.1008,-8.6758900000000008,2.8150900000000001,-3.2164899999999998
213142.0,455.012,16583.5,16927.799999999999,16832.700000000001,-166.75,-19.3354,95.972899999999996
213143.0,470.40800000000002,-17701.900000000001,-17355.0,-17443.900000000001,-171.499,-14.1744,108.05200000000001
213144.0,477.62400000000002,16540.099999999999,16884.599999999999,16794.900000000001,-173.726,-19.445499999999999,116.346
213145.0,493.755,-16983.099999999999,-16642.099999999999,-16731.299999999999,-175.92400000000001,-26.683700000000002,135.43000000000001
213146.0,509.47199999999998,16453.400000000001,16792.0,16707.900000000001,-176.99700000000001,-24.049099999999999,153.37299999999999
213147.0,532.81200000000001,-17445.599999999999,-17111.799999999999,-17186.099999999999,-177.62799999999999,-15.7051,179.20099999999999
213148.0,550.86500000000001,15907.5,16235.200000000001,16169.700000000001,-177.023,-5.55246,199.262
213149.0,573.18299999999999,-17010.900000000001,-16691.0,-16745.0,-173.97900000000001,-1.2649600000000001,223.417
213150.0,588.69000000000005,15890.4,16203.1,16158.9,-169.81399999999999,1.39768,240.93799999999999
213151.0,602.28499999999997,-16864.400000000001,-16560.900000000001,-16596.400000000001,-164.74000000000001,6.7525300000000001,257.29199999999997
213152.0,607.33600000000001,15932.5,16228.6,16197.799999999999,-160.41900000000001,10.897,265.72899999999998
213153.0,612.61599999999999,-16554.799999999999,-16267.200000000001,-16292.799999999999,-155.06899999999999,14.860300000000001,274.77800000000002
213154.0,608.17200000000003,15901.5,16183.799999999999,16157.799999999999,-152.75899999999999,17.304400000000001,274.44099999999997
213155.0,604.66399999999999,-16284.700000000001,-16007.5,-16032.9,-149.80699999999999,18.921500000000002,274.935
213156.0,594.69399999999996,15844.5,16121.0,16091.0,-150.922,18.628499999999999,267.84500000000003
213157.0,586.52999999999997,-16022.200000000001,-15746.799999999999,-15780.799999999999,-151.72200000000001,18.295100000000001,262.23500000000001
213158.0,576.09000000000003,15790.200000000001,16067.799999999999,16025.1,-156.81899999999999,16.626899999999999,251.81800000000001
213159.0,567.64599999999996,-15839.1,-15559.4,-15612.0,-163.03999999999999,14.6945,241.90000000000001
213160.0,561.15999999999997,15662.200000000001,15948.200000000001,15879.6,-174.858,10.8217,227.99600000000001
213161.0,559.07899999999995,-15669.700000000001,-15379.0,-15462.5,-185.84399999999999,6.9041800000000002,217.279
213162.0,563.36500000000001,15482.9,15782.9,15680.0,-201.875,0.899559,204.441
213163.0,570.95399999999995,-15547.5,-15239.700000000001,-15358.4,-215.09800000000001,-4.6369199999999999,195.65799999999999
213164.0,585.81500000000005,15272.700000000001,15593.4,15457.0,-231.73099999999999,-11.3775,186.154
213165.0,599.649,-15450.700000000001,-15118.299999999999,-15266.9,-243.624,-16.220500000000001,180.334
213166.0,622.16999999999996,15037.200000000001,15388.9,15225.4,-260.02199999999999,-21.740400000000001,173.149
213167.0,653.85199999999998,-15583.799999999999,-15205.200000000001,-15386.700000000001,-280.01299999999998,-27.974399999999999,165.72200000000001
213168.0,133.10499999999999,-1944.8099999999999,-1935.1300000000001,-1986.79,69.258099999999999,5.8596199999999996,17.906500000000001
213169.0,108.941,-888.49199999999996,-839.18499999999995,-893.29499999999996,54.168100000000003,4.8899299999999997,10.0467
213170.0,150.06399999999999,3578.29,3490.48,3510.0,66.513599999999997,22.106000000000002,21.628
213171.0,89.656400000000005,5506.8699999999999,5439.8299999999999,5457.6700000000001,30.756900000000002,18.641999999999999,13.430199999999999
213172.0,39.354799999999997,2957.5100000000002,2968.1300000000001,2946.8000000000002,16.300899999999999,7.1587699999999996,9.2497500000000006
213173.0,50.139699999999998,1836.21,1867.9300000000001,1834.6300000000001,19.645099999999999,3.3847999999999998,9.3648900000000008
213174.0,67.612499999999997,5122.9200000000001,5075.7799999999997,5084.1899999999996,22.7759,15.52,11.489599999999999
213175.0,138.99600000000001,5743.29,5651.5500000000002,5676.6000000000004,57.251600000000003,22.702200000000001,19.955400000000001
213176.0,143.422,1759.8299999999999,1756.96,1720.01,76.810900000000004,14.5579,15.859299999999999
213177.0,139.423,1333.54,1364.1400000000001,1306.0999999999999,73.025800000000004,10.8208,13.669
213178.0,138.899,403.27100000000002,367.68799999999999,350.23399999999998,71.871099999999998,15.082599999999999,17.533100000000001
213179.0,149.18100000000001,3666.2800000000002,3604.29,3601.79,73.291799999999995,17.977699999999999,19.709599999999998
213180.0,157.208,2887.3400000000001,2809.4499999999998,2818.9499999999998,74.393600000000006,20.5565,21.811299999999999
213181.0,155.262,4194.6300000000001,4110.0,4125.6800000000003,71.222899999999996,21.232600000000001,22.023599999999998
213182.0,148.376,-3646.4899999999998,-3729.6300000000001,-3715.4899999999998,66.974699999999999,20.8767,20.932300000000001
213183.0,145.042,4553.2399999999998,4462.7399999999998,4485.6000000000004,61.9069,22.608699999999999,21.316600000000001
213184.0,130.99700000000001,5164.6099999999997,5074.5,5100.3400000000001,52.046100000000003,22.5458,18.711300000000001
213185.0,122.676,5484.3400000000001,5396.5900000000001,5422.4700000000003,46.8294,22.1175,17.3583
213186.0,111.538,5643.3100000000004,5561.3999999999996,5585.3000000000002,40.933500000000002,21.089700000000001,15.879200000000001
213187.0,101.449,5581.46,5505.75,5527.4099999999999,35.927199999999999,20.070900000000002,14.7234
213188.0,92.055800000000005,-5350.5500000000002,-5421.2299999999996,-5402.5299999999997,30.6828,19.133400000000002,13.2714
213189.0,78.75,5369.25,5311.5,5325.0699999999997,26.564800000000002,17.164000000000001,12.452299999999999
213190.0,57.441299999999998,4756.3299999999999,4720.2799999999997,4723.21,19.763999999999999,13.894399999999999,10.734
213191.0,48.485700000000001,4404.9200000000001,4380.5699999999997,4377.5600000000004,17.534600000000001,12.203200000000001,10.1122
213192.0,41.922499999999999,3975.5799999999999,3962.9499999999998,3953.9000000000001,16.232399999999998,10.5166,9.6534600000000008
213193.0,38.802100000000003,3475.9299999999998,3475.73,3460.1500000000001,15.964,8.7437299999999993,9.4112600000000004
213194.0,35.441299999999998,-3285.5799999999999,-3281.8400000000001,-3299.71,13.8109,8.1537000000000006,8.52257
213195.0,43.409999999999997,2415.1500000000001,2437.8299999999999,2409.8600000000001,17.223500000000001,5.2139499999999996,9.1398499999999991
213196.0,60.963900000000002,1255.71,1298.7,1258.23,23.585000000000001,0.69914900000000002,10.0016
213197.0,66.123500000000007,662.01499999999999,707.16099999999994,664.18200000000002,26.460999999999999,-0.93854499999999996,10.394399999999999
213198.0,62.940800000000003,103.804,145.34800000000001,103.71599999999999,25.517299999999999,-1.2286999999999999,9.5586699999999993
213199.0,43.379800000000003,22.135000000000002,6.4222799999999998,51.321199999999997,-3.0589,-9.7740100000000005,-1.8093699999999999
213200.0,139.18899999999999,-91.049800000000005,-25.986000000000001,-112.788,64.841399999999993,3.6787299999999998,14.137
213201.0,139.453,-2099.3899999999999,-2065.9899999999998,-2132.3800000000001,70.993200000000002,10.195499999999999,15.3855
213202.0,129.65899999999999,-671.10199999999998,-674.61500000000001,-714.43100000000004,67.671499999999995,13.1723,16.484400000000001
213203.0,137.0,-1926.4000000000001,-1959.3599999999999,-1980.98,70.019599999999997,15.949299999999999,18.545100000000001
213204.0,150.173,-3635.6100000000001,-3695.4299999999998,-3699.27,73.441199999999995,19.7606,21.429099999999998
213205.0,152.72200000000001,-3573.6100000000001,-3650.2199999999998,-3641.3800000000001,71.231399999999994,21.0519,22.373699999999999
213206.0,143.399,-3539.4699999999998,-3625.8099999999999,-3607.3099999999999,62.290999999999997,21.6465,20.959
213207.0,137.91900000000001,-5245.3000000000002,-5333.7700000000004,-5312.2299999999996,57.649500000000003,22.1279,19.9772
213208.0,131.11799999999999,-5477.6000000000004,-5566.7200000000003,-5543.1700000000001,52.573900000000002,22.1568,18.5275
213209.0,122.91500000000001,-5027.7299999999996,-5114.6800000000003,-5090.7299999999996,47.299100000000003,21.9131,17.358499999999999
213210.0,113.095,-5364.4200000000001,-5447.9799999999996,-5424.54,41.257100000000001,21.286300000000001,15.831
213211.0,103.166,-5421.2399999999998,-5499.0900000000001,-5477.54,36.133499999999998,20.303799999999999,14.628500000000001
213212.0,81.361900000000006,-5295.46,-5357.6899999999996,-5342.6700000000001,26.213899999999999,17.763300000000001,12.223800000000001
213213.0,70.313500000000005,-5152.3599999999997,-5204.8299999999999,-5194.3900000000003,22.086600000000001,16.241099999999999,11.184100000000001
213214.0,59.842500000000001,-4854.6400000000003,-4896.5699999999997,-4891.2399999999998,18.761099999999999,14.639699999999999,10.3101
213215.0,50.241900000000001,-4530.2399999999998,-4561.1099999999997,-4561.25,16.121600000000001,13.046200000000001,9.5983699999999992
213216.0,42.336799999999997,-4197.1700000000001,-4216.6800000000003,-4222.5600000000004,14.425599999999999,11.4291,9.0577500000000004
213217.0,36.847499999999997,-3762.5599999999999,-3770.5999999999999,-3782.3499999999999,13.5138,9.8025300000000009,8.6466499999999993
213218.0,36.828600000000002,-2797.3600000000001,-2782.27,-2806.1199999999999,13.9956,6.5057700000000001,8.2696199999999997
213219.0,42.6447,-2266.3699999999999,-2241.4699999999998,-2270.5900000000001,16.18,4.9213199999999997,8.5201700000000002
213220.0,49.671500000000002,-1714.78,-1680.3800000000001,-1714.98,18.424800000000001,3.0851700000000002,8.7599699999999991
213221.0,60.8932,-1164.4200000000001,-1122.0999999999999,-1161.8099999999999,23.9238,1.0458400000000001,10.004799999999999
213222.0,65.928299999999993,-591.51999999999998,-547.11900000000003,-589.09699999999998,26.880600000000001,-0.48556500000000002,10.1388
213223.0,134.22300000000001,1508.76,1514.3199999999999,1467.05,71.496499999999997,4.3983699999999999,14.374000000000001
213224.0,113.8,1195.49,1245.0599999999999,1186.5699999999999,56.994399999999999,5.6384400000000001,6.6100500000000002
213225.0,146.785,4619.3199999999997,4532.9099999999999,4549.75,66.0595,19.153700000000001,18.782900000000001
213226.0,85.7286,5392.8999999999996,5327.7399999999998,5342.6199999999999,30.814599999999999,14.891,10.620200000000001
213227.0,39.216500000000003,2771.96,2784.71,2761.54,17.497900000000001,5.3252199999999998,6.5900999999999996
213228.0,48.664200000000001,1670.73,1702.22,1669.71,19.975899999999999,2.7043400000000002,6.4445399999999999
213229.0,63.947000000000003,4924.5,4879.6599999999999,4884.9899999999998,23.172799999999999,12.162000000000001,8.8343900000000009
213230.0,136.08600000000001,4147.4300000000003,4056.4299999999998,4079.4699999999998,57.2898,19.263400000000001,16.780899999999999
213231.0,141.87899999999999,328.49799999999999,332.24299999999999,284.04599999999999,74.350300000000004,14.058,16.291799999999999
213232.0,142.22200000000001,-228.86500000000001,-191.75200000000001,-257.08699999999999,73.239199999999997,11.016299999999999,13.5379
213233.0,142.30099999999999,2752.8699999999999,2718.2600000000002,2691.8499999999999,72.581299999999999,15.908799999999999,17.0992
213234.0,156.00399999999999,770.35900000000004,706.53399999999999,700.91399999999999,76.893299999999996,18.513400000000001,19.212599999999998
213235.0,156.97499999999999,2946.8899999999999,2870.3400000000001,2876.7399999999998,75.442300000000003,18.5609,19.3337
213236.0,150.804,2913.7600000000002,2832.2399999999998,2844.4200000000001,70.252200000000002,18.767299999999999,18.959299999999999
213237.0,144.47999999999999,-3484.0500000000002,-3564.9000000000001,-3553.0700000000002,66.188699999999997,18.085899999999999,18.532399999999999
213238.0,142.17400000000001,4573.3900000000003,4483.6099999999997,4504.4099999999999,61.929499999999997,19.326000000000001,17.899000000000001
213239.0,127.742,5307.6000000000004,5218.5500000000002,5241.8299999999999,52.084299999999999,18.808199999999999,15.488
213240.0,119.18899999999999,5381.8599999999997,5295.21,5318.6099999999997,46.806699999999999,18.2502,14.219799999999999
213241.0,107.697,5422.3900000000003,5341.9799999999996,5363.1899999999996,40.829900000000002,17.2027,12.9015
213242.0,97.665700000000001,5492.8900000000003,5418.79,5437.6000000000004,35.967599999999997,16.205200000000001,11.806699999999999
213243.0,88.282399999999996,-5287.9200000000001,-5356.8299999999999,-5341.0600000000004,30.727799999999998,15.4399,10.574199999999999
213244.0,74.927599999999998,5184.0,5128.3199999999997,5138.8400000000001,26.796600000000002,13.576000000000001,9.7031600000000005
213245.0,54.075499999999998,4641.96,4608.3500000000004,4608.1800000000003,20.374400000000001,10.757899999999999,8.0912500000000005
213246.0,45.618099999999998,4219.8699999999999,4198.0799999999999,4192.0799999999999,18.3461,9.3381399999999992,7.4821099999999996
213247.0,39.883800000000001,3769.4200000000001,3759.3800000000001,3747.54,17.2334,7.97506,7.05084
213248.0,37.875799999999998,3299.3499999999999,3301.6700000000001,3283.6599999999999,17.114899999999999,6.5541600000000004,6.8035399999999999
213249.0,34.975200000000001,-3119.3299999999999,-3113.3600000000001,-3133.4099999999999,15.1126,6.0870100000000003,6.0264499999999996
213250.0,43.346800000000002,2217.4200000000001,2241.46,2212.6500000000001,18.203900000000001,3.8896799999999998,6.4294399999999996
213251.0,56.411900000000003,1113.9000000000001,1154.1900000000001,1116.9400000000001,22.618600000000001,1.0105200000000001,6.6892699999999996
213252.0,58.9514,568.30899999999997,608.59799999999996,570.99000000000001,24.587599999999998,0.14214199999999999,6.8102299999999998
213253.0,53.704999999999998,90.959900000000005,125.2,90.565899999999999,22.981000000000002,0.27533400000000002,6.15306
213254.0,44.3551,30.690899999999999,15.849500000000001,62.734400000000001,-3.0145300000000002,-8.1933299999999996,-2.3158699999999999
213255.0,143.714,-552.08299999999997,-486.45800000000003,-576.66399999999999,67.450299999999999,4.0399700000000003,12.000400000000001
213256.0,139.28800000000001,768.72699999999998,810.06299999999999,734.01999999999998,68.156000000000006,10.9702,15.880100000000001
213257.0,133.14400000000001,-1539.3299999999999,-1532.9000000000001,-1588.77,67.2667,13.568099999999999,16.305499999999999
213258.0,146.07400000000001,-1317.01,-1349.6800000000001,-1379.0999999999999,74.277299999999997,16.717199999999998,18.7454
213259.0,153.953,-951.49400000000003,-1015.42,-1020.25,75.266099999999994,18.706499999999998,20.3172
213260.0,149.102,-2385.02,-2461.6599999999999,-2454.4699999999998,70.433099999999996,17.761299999999999,18.514399999999998
213261.0,140.64400000000001,-4589.1700000000001,-4674.5500000000002,-4658.0500000000002,62.272100000000002,18.6113,17.8385
213262.0,135.279,-3731.1900000000001,-3819.0,-3799.4200000000001,57.751800000000003,18.875800000000002,16.843299999999999
213263.0,128.20699999999999,-4187.0100000000002,-4275.21,-4254.0100000000002,52.593000000000004,18.727699999999999,15.577199999999999
213264.0,119.676,-5151.9399999999996,-5237.8000000000002,-5216.3699999999999,47.326700000000002,18.226500000000001,14.308299999999999
213265.0,109.526,-5148.4799999999996,-5230.7399999999998,-5209.8999999999996,41.154600000000002,17.540800000000001,12.9696
213266.0,99.530900000000003,-5244.4499999999998,-5320.7299999999996,-5301.9799999999996,36.165599999999998,16.5547,11.839399999999999
213267.0,77.659700000000001,-5145.6199999999999,-5205.9099999999999,-5193.9099999999999,26.420100000000001,14.203900000000001,9.5865500000000008
213268.0,66.710800000000006,-4931.3699999999999,-4981.7299999999996,-4974.3400000000001,22.4527,12.8597,8.6209500000000006
213269.0,56.448,-4723.7399999999998,-4763.3999999999996,-4761.1400000000003,19.319600000000001,11.483499999999999,7.8036399999999997
213270.0,47.165799999999997,-4410.4399999999996,-4438.9499999999998,-4442.0900000000001,16.8855,10.100300000000001,7.0864099999999999
213271.0,39.846600000000002,-3991.3899999999999,-4008.5,-4017.2199999999998,15.3911,8.74803,6.5685700000000002
213272.0,35.262,-3575.7800000000002,-3581.4400000000001,-3595.7800000000002,14.6579,7.4205100000000002,6.1825900000000003
213273.0,37.028100000000002,-2602.75,-2585.8499999999999,-2611.2199999999998,15.2971,4.7790499999999998,5.7677800000000001
213274.0,42.655099999999997,-2084.1900000000001,-2058.3800000000001,-2087.98,17.289899999999999,3.6349999999999998,5.90639
213275.0,48.123100000000001,-1559.3,-1525.6500000000001,-1559.04,18.869900000000001,2.4076300000000002,5.9591200000000004
213276.0,56.234699999999997,-1023.67,-984.98400000000004,-1021.01,23.249400000000001,1.2391700000000001,6.7153700000000001
213277.0,58.826300000000003,-513.57299999999998,-475.334,-511.42500000000001,25.392399999999999,0.48789500000000002,6.8511199999999999
213278.0,138.971,-1927.1600000000001,-1925.73,-1972.78,75.123699999999999,0.54856300000000002,8.8220600000000005
213279.0,117.557,-882.46699999999998,-830.85799999999995,-891.76900000000001,58.755699999999997,8.2882899999999999,2.9825499999999998
213280.0,144.37299999999999,3471.5599999999999,3385.5700000000002,3401.1599999999999,65.950000000000003,15.961600000000001,15.655799999999999
213281.0,83.9405,5259.3299999999999,5194.6300000000001,5207.0900000000001,31.349599999999999,11.3811,7.6343300000000003
213282.0,39.412100000000002,2685.1999999999998,2698.0700000000002,2674.0500000000002,18.516100000000002,3.7748599999999999,4.0134699999999999
213283.0,47.936599999999999,1594.21,1625.1199999999999,1593.23,20.442900000000002,2.0296699999999999,3.8725499999999999
213284.0,62.733400000000003,4856.25,4811.7399999999998,4814.8100000000004,23.966100000000001,9.1248100000000001,6.0129400000000004
213285.0,133.78,5585.8900000000003,5495.5100000000002,5516.4099999999999,57.514600000000002,15.649800000000001,13.194800000000001
213286.0,138.75,1712.48,1712.1500000000001,1669.3499999999999,72.440600000000003,12.2994,20.0748
213287.0,139.417,1375.3699999999999,1412.1099999999999,1348.73,71.697999999999993,9.5486900000000006,15.309100000000001
213288.0,142.24700000000001,338.88200000000001,301.51299999999998,279.964,72.313900000000004,16.010200000000001,19.2456
213289.0,153.476,3674.5799999999999,3610.5799999999999,3608.27,76.122500000000002,17.4373,18.345099999999999
213290.0,151.77699999999999,2887.7800000000002,2813.5100000000002,2819.3400000000001,73.422300000000007,16.600300000000001,17.505600000000001
213291.0,147.41900000000001,4130.1800000000003,4049.7399999999998,4060.3899999999999,69.230099999999993,16.206399999999999,16.712900000000001
213292.0,142.27799999999999,-3566.2199999999998,-3646.23,-3635.6599999999999,66.047399999999996,15.519500000000001,15.983700000000001
213293.0,139.88399999999999,4419.4399999999996,4330.3100000000004,4349.0900000000001,62.096299999999999,15.8803,14.367100000000001
213294.0,125.32899999999999,4989.2299999999996,4900.8000000000002,4922.04,52.273099999999999,15.0776,12.051
213295.0,116.95099999999999,5287.2600000000002,5201.1700000000001,5222.2799999999997,47.1008,14.4467,10.888199999999999
213296.0,105.45999999999999,5426.8100000000004,5347.0200000000004,5365.8500000000004,41.152700000000003,13.4336,9.6791199999999993
213297.0,95.718299999999999,5348.6800000000003,5275.04,5291.4899999999998,36.438200000000002,12.532,8.6823099999999993
213298.0,86.442300000000003,-5116.1499999999996,-5184.54,-5171.1499999999996,31.236999999999998,11.926,7.6842899999999998
213299.0,73.438999999999993,5110.9799999999996,5055.6899999999996,5063.8500000000004,27.476199999999999,10.2819,6.7949799999999998
213300.0,53.1539,4484.79,4451.4799999999996,4449.2200000000003,21.269600000000001,7.9979899999999997,5.3645800000000001
213301.0,45.014600000000002,4129.9700000000003,4108.46,4100.5500000000002,19.32,6.8685499999999999,4.8306100000000001
213302.0,39.610999999999997,3698.8899999999999,3689.1199999999999,3675.6399999999999,18.2669,5.7850799999999998,4.4262899999999998
213303.0,37.941200000000002,3199.8200000000002,3202.3899999999999,3183.0799999999999,18.1722,4.69313,4.1978099999999996
213304.0,35.0214,-3017.1900000000001,-3011.1500000000001,-3032.1599999999999,16.1434,4.3065699999999998,3.5542199999999999
213305.0,43.351399999999998,2152.1700000000001,2176.1500000000001,2147.0799999999999,19.0502,2.7451099999999999,3.88584
213306.0,54.313200000000002,1056.3900000000001,1095.4400000000001,1060.0799999999999,22.377199999999998,1.15527,4.0655599999999996
213307.0,55.636899999999997,538.99800000000005,577.50300000000004,542.93299999999999,23.769200000000001,0.97346299999999997,4.1252599999999999
213308.0,49.541899999999998,79.168999999999997,111.066,80.218999999999994,21.805399999999999,1.23943,3.5759799999999999
213309.0,44.974499999999999,19.512899999999998,5.20892,53.523800000000001,-3.0593699999999999,-6.3747499999999997,-2.8796200000000001
213310.0,146.37,-101.846,-33.388199999999998,-126.523,68.093599999999995,6.3447500000000003,11.6676
213311.0,135.57900000000001,-2077.4099999999999,-2036.74,-2109.71,66.142200000000003,9.7095900000000004,17.926500000000001
213312.0,131.58000000000001,-552.23199999999997,-548.91499999999996,-599.23599999999999,66.6083,13.1854,19.196300000000001
213313.0,144.30699999999999,-1871.9000000000001,-1908.8399999999999,-1931.97,73.581299999999999,15.4208,19.278600000000001
213314.0,148.31700000000001,-3677.3499999999999,-3742.2600000000002,-3744.3299999999999,72.962500000000006,15.426299999999999,17.8963
213315.0,145.024,-3562.6900000000001,-3636.48,-3631.8800000000001,69.262500000000003,15.122299999999999,16.602799999999998
213316.0,138.565,-3422.98,-3507.52,-3492.98,62.436599999999999,15.6235,14.6533
213317.0,133.114,-5103.4499999999998,-5190.54,-5173.1000000000004,57.988700000000001,15.4895,13.4428
213318.0,125.962,-5314.1199999999999,-5401.7200000000003,-5382.5,52.7926,15.2028,12.280900000000001
213319.0,117.437,-4846.1000000000004,-4931.2399999999998,-4912.0500000000002,47.592700000000001,14.606400000000001,11.1637
213320.0,107.33199999999999,-5162.4799999999996,-5244.1199999999999,-5225.6199999999999,41.463999999999999,13.838800000000001,9.8406400000000005
213321.0,97.551299999999998,-5202.0699999999997,-5277.7600000000002,-5261.3699999999999,36.623100000000001,12.9397,8.8205799999999996
213322.0,76.103700000000003,-5048.4700000000003,-5108.3800000000001,-5098.6899999999996,27.070799999999998,10.8613,6.7639399999999998
213323.0,65.408900000000003,-4896.0500000000002,-4946.1199999999999,-4940.9399999999996,23.2102,9.7323400000000007,5.8868200000000002
213324.0,55.415599999999998,-4591.8599999999997,-4631.3100000000004,-4631.0900000000001,20.176300000000001,8.6062100000000008,5.1496300000000002
213325.0,46.392699999999998,-4263.8299999999999,-4292.1599999999999,-4297.1800000000003,17.817399999999999,7.49092,4.5283300000000004
213326.0,39.348199999999999,-3928.2399999999998,-3945.21,-3955.5700000000002,16.384599999999999,6.3977599999999999,4.0463399999999998
213327.0,35.036900000000003,-3492.6700000000001,-3498.2199999999998,-3513.8899999999999,15.6831,5.3367199999999997,3.6914600000000002
213328.0,37.107300000000002,-2533.3699999999999,-2516.4699999999998,-2542.3699999999999,16.244399999999999,3.2993899999999998,3.3580899999999998
213329.0,42.496899999999997,-2012.6199999999999,-1987.02,-2016.5699999999999,18.07,2.4925899999999999,3.46197
213330.0,47.206099999999999,-1483.28,-1450.3,-1482.8199999999999,19.238900000000001,1.7085399999999999,3.5072199999999998
213331.0,53.975499999999997,-977.83900000000006,-940.61500000000001,-974.53099999999995,22.991299999999999,1.2425200000000001,4.0612000000000004
213332.0,55.445999999999998,-481.529,-445.43099999999998,-478.32499999999999,24.626100000000001,1.12521,4.2189300000000003
213333.0,145.89500000000001,1387.9000000000001,1386.1199999999999,1339.1900000000001,79.2303,-1.6958599999999999,7.1903300000000003
213334.0,116.205,1189.3,1240.0799999999999,1182.6099999999999,58.445700000000002,8.1488899999999997,5.5985500000000004
213335.0,142.566,4461.5500000000002,4376.04,4390.21,66.133799999999994,12.831300000000001,11.6747
213336.0,84.027900000000002,5224.9200000000001,5159.4700000000003,5170.3599999999997,32.167200000000001,8.1836699999999993,4.7111099999999997
213337.0,39.529699999999998,2694.8299999999999,2706.3600000000001,2682.5799999999999,19.186199999999999,2.7814700000000001,1.9009499999999999
213338.0,47.674300000000002,1616.45,1646.6099999999999,1615.4000000000001,20.8993,1.7622,1.88304
213339.0,63.388399999999997,4779.7200000000003,4734.0600000000004,4735.9700000000003,24.8675,6.5050299999999996,3.4354900000000002
213340.0,132.30799999999999,3977.9699999999998,3887.9499999999998,3907.0300000000002,57.882300000000001,12.030200000000001,9.4902700000000006
213341.0,139.435,349.13900000000001,343.43599999999998,305.923,75.535399999999996,9.5522299999999998,11.517899999999999
213342.0,137.08699999999999,-274.87799999999999,-242.54900000000001,-302.43299999999999,71.826899999999995,7.4211499999999999,12.317600000000001
213343.0,138.63399999999999,2812.3600000000001,2774.8600000000001,2756.4699999999998,73.077600000000004,12.5006,9.9336599999999997
213344.0,145.221,767.63400000000001,706.89099999999996,702.78099999999995,73.667500000000004,12.874700000000001,10.878
213345.0,146.05600000000001,2840.1700000000001,2767.5799999999999,2771.8899999999999,71.573700000000002,13.130000000000001,12.5337
213346.0,144.74199999999999,2762.77,2682.5999999999999,2692.48,68.885599999999997,12.930400000000001,12.6539
213347.0,140.601,-3331.3400000000001,-3410.4400000000001,-3401.8499999999999,66.3459,12.532999999999999,12.120200000000001
213348.0,138.309,4409.6700000000001,4320.9799999999996,4338.1099999999997,62.392400000000002,12.520300000000001,10.6469
213349.0,124.098,5130.2299999999996,5042.0100000000002,5061.3000000000002,52.7545,11.3582,8.3907600000000002
213350.0,116.02,5202.2700000000004,5116.0900000000001,5135.3699999999999,47.663499999999999,10.7159,7.3851899999999997
213351.0,104.84999999999999,5243.0799999999999,5163.0299999999997,5180.04,41.8078,9.8494499999999992,6.4010499999999997
213352.0,95.501499999999993,5317.1199999999999,5242.9499999999998,5257.6599999999999,37.209299999999999,9.0846900000000002,5.5348899999999999
213353.0,86.377300000000005,-5116.1800000000003,-5185.21,-5173.3900000000003,32.042499999999997,8.6116600000000005,4.7987500000000001
213354.0,73.858999999999995,5026.25,4969.9899999999998,4976.7700000000004,28.361000000000001,7.3617699999999999,4.0399700000000003
213355.0,53.996400000000001,4510.6199999999999,4476.0100000000002,4472.8400000000001,22.1768,5.6887699999999999,2.9211
213356.0,45.901699999999998,4102.8800000000001,4079.96,4071.4400000000001,20.195699999999999,4.88605,2.50841
213357.0,40.398000000000003,3666.73,3655.4899999999998,3641.6900000000001,19.098099999999999,4.1420300000000001,2.2087500000000002
213358.0,38.408499999999997,3210.02,3211.1399999999999,3191.8099999999999,18.929500000000001,3.3957700000000002,2.0418099999999999
213359.0,35.152799999999999,-3034.3200000000002,-3029.77,-3050.5100000000002,16.773599999999998,3.0714000000000001,1.5341800000000001
213360.0,43.149900000000002,2151.7399999999998,2174.5799999999999,2146.02,19.607199999999999,2.1183299999999998,1.8550599999999999
213361.0,54.296599999999998,1072.7,1111.71,1077.1500000000001,22.805199999999999,1.4573700000000001,2.1044399999999999
213362.0,56.000599999999999,543.39300000000003,582.69399999999996,548.96199999999999,24.200800000000001,1.7390699999999999,2.1038899999999998
213363.0,50.065800000000003,85.456699999999998,118.812,88.7607,22.1584,2.0204200000000001,1.63811
213364.0,45.290599999999998,28.9909,14.7395,64.020700000000005,-3.2524299999999999,-4.35053,-3.33222
213365.0,143.81100000000001,-493.50599999999997,-424.61900000000003,-515.63199999999995,66.503,6.7985100000000003,13.1121
213366.0,135.667,767.85400000000004,803.94600000000003,735.37099999999998,68.893900000000002,7.2175099999999999,12.649100000000001
213367.0,128.34200000000001,-1670.1500000000001,-1674.5599999999999,-1715.76,68.098500000000001,9.7134099999999997,11.225899999999999
213368.0,135.148,-1449.27,-1486.8299999999999,-1506.21,70.672300000000007,10.9255,11.676
213369.0,140.935,-947.09699999999998,-1007.9400000000001,-1012.73,70.860900000000001,11.0428,11.7897
213370.0,141.786,-2257.6900000000001,-2329.5799999999999,-2326.4499999999998,68.756200000000007,12.3011,13.0829
213371.0,137.09299999999999,-4431.3199999999997,-4515.2600000000002,-4502.5200000000004,62.768300000000004,12.449400000000001,11.126799999999999
213372.0,131.69,-3567.8699999999999,-3654.4499999999998,-3638.8299999999999,58.351399999999998,12.1456,9.9622299999999999
213373.0,124.672,-4017.0700000000002,-4104.2700000000004,-4087.02,53.258400000000002,11.6167,8.7846499999999992
213374.0,116.378,-4975.6400000000003,-5060.6300000000001,-5043.29,48.142000000000003,10.964399999999999,7.7300000000000004
213375.0,106.59699999999999,-4970.7799999999997,-5052.5299999999997,-5035.8500000000004,42.103900000000003,10.238799999999999,6.6399699999999999
213376.0,97.1648,-5067.8599999999997,-5143.8900000000003,-5129.2399999999998,37.379800000000003,9.4609000000000005,5.7274900000000004
213377.0,76.378699999999995,-4982.2299999999996,-5043.0299999999997,-5034.7200000000003,27.944099999999999,7.7882600000000002,4.0421399999999998
213378.0,65.941800000000001,-4779.0799999999999,-4830.25,-4826.2200000000003,24.098400000000002,6.9337200000000001,3.3457300000000001
213379.0,56.155299999999997,-4584.3299999999999,-4625.0699999999997,-4625.7399999999998,21.067299999999999,6.0983900000000002,2.76336
213380.0,47.220700000000001,-4284.3999999999996,-4314.1800000000003,-4319.7799999999997,18.671700000000001,5.28315,2.2648299999999999
213381.0,40.136099999999999,-3879.6599999999999,-3898.1700000000001,-3908.8099999999999,17.1873,4.5145600000000004,1.9007000000000001
213382.0,35.578000000000003,-3477.9899999999998,-3485.0999999999999,-3500.77,16.407900000000001,3.7753100000000002,1.6355200000000001
213383.0,36.827300000000001,-2529.5100000000002,-2513.9400000000001,-2539.3200000000002,16.751200000000001,2.3811200000000001,1.4220999999999999
213384.0,42.025700000000001,-2021.95,-1997.3900000000001,-2026.25,18.4514,1.8887,1.5258100000000001
213385.0,46.7348,-1508.05,-1475.6500000000001,-1507.3699999999999,19.5075,1.46428,1.60327
213386.0,53.849800000000002,-985.45899999999995,-948.04300000000001,-981.19600000000003,23.262,1.4307099999999999,1.9733499999999999
213387.0,55.675199999999997,-491.87200000000001,-454.66899999999998,-486.81099999999998,24.870899999999999,1.73604,2.1298400000000002
213388.0,152.505,-1944.0,-1949.1800000000001,-1993.1800000000001,83.490799999999993,-1.0024900000000001,7.1233500000000003
213389.0,114.601,-859.45399999999995,-813.65300000000002,-863.25300000000004,59.616700000000002,4.46706,6.4536499999999997
213390.0,140.619,3297.1599999999999,3212.7600000000002,3225.04,66.115399999999994,9.3946699999999996,7.2334199999999997
213391.0,85.1023,5165.2200000000003,5098.5699999999997,5108.6199999999999,33.043399999999998,5.2098899999999997,2.00143
213392.0,39.496400000000001,2737.48,2747.1399999999999,2724.3000000000002,19.557500000000001,2.4226700000000001,0.43749300000000002
213393.0,47.621699999999997,1663.5,1692.8099999999999,1662.3499999999999,21.289000000000001,2.1179600000000001,0.47490100000000002
213394.0,64.8142,4807.5200000000004,4760.2399999999998,4761.8400000000001,25.698899999999998,4.2042599999999997,1.2178800000000001
213395.0,131.57900000000001,5415.3000000000002,5325.4799999999996,5343.0100000000002,58.348100000000002,8.3429099999999998,5.45261
213396.0,142.834,1770.8499999999999,1766.46,1725.9200000000001,78.0261,8.7559900000000006,4.7081099999999996
213397.0,137.25999999999999,1361.55,1389.96,1333.9400000000001,73.409000000000006,6.3532000000000002,8.1273199999999992
213398.0,136.66200000000001,399.74799999999999,366.23399999999998,343.48099999999999,72.814700000000002,10.0121,4.7080599999999997
213399.0,139.09700000000001,3612.2600000000002,3556.29,3547.3400000000001,71.227999999999994,9.6633200000000006,6.6696600000000004
213400.0,142.03700000000001,2747.9400000000001,2677.8099999999999,2679.1999999999998,70.425600000000003,9.9106500000000004,7.718
213401.0,141.922,3966.6199999999999,3888.1999999999998,3896.1300000000001,68.519199999999998,9.7036899999999999,7.8124399999999996
213402.0,138.315,-3401.8800000000001,-3479.1599999999999,-3472.7399999999998,66.264700000000005,9.2255599999999998,7.8510799999999996
213403.0,137.08699999999999,4245.1099999999997,4156.9399999999996,4172.4799999999996,62.686,8.9054000000000002,6.3585799999999999
213404.0,123.815,4828.5500000000002,4740.1899999999996,4758.0600000000004,53.357799999999997,7.6890299999999998,4.6327699999999998
213405.0,116.123,5138.0100000000002,5051.46,5069.3000000000002,48.387599999999999,7.0888600000000004,3.8296600000000001
213406.0,105.33799999999999,5293.2299999999996,5212.5,5228.2399999999998,42.621699999999997,6.3887499999999999,3.13409
213407.0,96.299899999999994,5234.0200000000004,5158.8900000000003,5172.54,38.063800000000001,5.8341700000000003,2.5216500000000002
213408.0,87.3185,-5008.1099999999997,-5078.2399999999998,-5067.29,32.9221,5.4501799999999996,2.0762200000000002
213409.0,75.152699999999996,5039.4899999999998,4981.7799999999997,4987.9799999999996,29.2317,4.7022599999999999,1.57446
213410.0,55.454900000000002,4459.4099999999999,4423.0,4419.8299999999999,22.941700000000001,3.7643900000000001,0.93609500000000001
213411.0,47.2393,4126.8800000000001,4102.0500000000002,4093.8099999999999,20.876999999999999,3.3564799999999999,0.72123000000000004
213412.0,41.408499999999997,3716.4899999999998,3703.27,3690.0300000000002,19.677399999999999,2.99763,0.56216500000000003
213413.0,38.882800000000003,3236.1799999999998,3235.3299999999999,3216.79,19.401199999999999,2.6755599999999999,0.50170800000000004
213414.0,35.200499999999998,-3055.3800000000001,-3052.8200000000002,-3072.52,17.099499999999999,2.4295399999999998,0.148482
213415.0,42.796199999999999,2216.0,2237.2800000000002,2209.6999999999998,19.920300000000001,2.1586099999999999,0.45393699999999998
213416.0,55.312100000000001,1120.9400000000001,1160.3900000000001,1126.0899999999999,23.544499999999999,2.25881,0.69307300000000005
213417.0,58.188600000000001,583.46100000000001,624.58500000000004,590.63199999999995,25.2654,2.7094200000000002,0.62646000000000002
213418.0,53.219200000000001,87.822500000000005,124.444,93.744100000000003,23.433700000000002,2.91031,0.176645
213419.0,45.642600000000002,18.1509,3.5664799999999999,53.591200000000001,-3.50109,-2.3014100000000002,-3.8722699999999999
213420.0,138.53299999999999,-123.22199999999999,-59.775599999999997,-141.19300000000001,66.479200000000006,4.4307800000000004,11.333
213421.0,137.05799999999999,-2132.04,-2098.98,-2165.0900000000001,71.298199999999994,6.07585,6.9673699999999998
213422.0,127.642,-695.39300000000003,-700.03200000000004,-742.28300000000002,68.493799999999993,7.0419799999999997,4.7235899999999997
213423.0,129.774,-1938.48,-1971.98,-1995.5599999999999,68.382199999999997,7.90991,7.2272499999999997
213424.0,136.642,-3581.52,-3637.25,-3646.9099999999999,69.626099999999994,8.3858200000000007,7.7163399999999998
213425.0,138.988,-3417.27,-3486.9200000000001,-3486.2199999999998,68.454999999999998,9.1399500000000007,8.3015899999999991
213426.0,135.65899999999999,-3251.6799999999998,-3334.6300000000001,-3323.6700000000001,63.0398,9.0037400000000005,7.0025000000000004
213427.0,130.79499999999999,-4932.7600000000002,-5018.8100000000004,-5004.9099999999999,58.817599999999999,8.5394600000000001,6.0300200000000004
213428.0,124.22199999999999,-5148.9200000000001,-5235.9899999999998,-5220.2700000000004,53.857300000000002,7.9943200000000001,5.09436
213429.0,116.32599999999999,-4690.96,-4776.1300000000001,-4760.2700000000004,48.857799999999997,7.3605400000000003,4.2495000000000003
213430.0,106.913,-5019.3900000000003,-5101.6400000000003,-5086.2700000000004,42.911900000000003,6.6840400000000004,3.3768899999999999
213431.0,97.814700000000002,-5075.4499999999998,-5152.29,-5138.75,38.238900000000001,6.0858800000000004,2.7103600000000001
213432.0,77.557400000000001,-4961.0600000000004,-5023.2200000000003,-5015.5100000000002,28.821400000000001,4.8979299999999997,1.5609999999999999
213433.0,67.283799999999999,-4830.4499999999998,-4883.21,-4879.4899999999998,24.934699999999999,4.3624200000000002,1.1247799999999999
213434.0,57.5715,-4548.6400000000003,-4591.1499999999996,-4591.8199999999997,21.839300000000001,3.8845700000000001,0.77723900000000001
213435.0,48.593899999999998,-4243.21,-4274.8999999999996,-4280.21,19.3553,3.44875,0.50677799999999995
213436.0,41.275199999999998,-3928.8099999999999,-3949.3299999999999,-3959.3899999999999,17.764700000000001,3.0623800000000001,0.30426399999999998
213437.0,36.257899999999999,-3512.9699999999998,-3522.1199999999999,-3536.9400000000001,16.864000000000001,2.7156699999999998,0.17178399999999999
213438.0,36.328200000000002,-2586.3299999999999,-2572.5700000000002,-2596.8099999999999,16.9604,2.1214599999999999,0.124415
213439.0,41.387900000000002,-2076.1100000000001,-2052.9499999999998,-2080.73,18.584,1.9846999999999999,0.18687000000000001
213440.0,46.473300000000002,-1551.3099999999999,-1519.53,-1550.45,19.710599999999999,1.89209,0.25914300000000001
213441.0,54.744700000000002,-1040.3699999999999,-1002.15,-1035.0699999999999,23.770900000000001,2.21671,0.47010600000000002
213442.0,57.710000000000001,-523.16499999999996,-483.57900000000001,-516.07500000000005,25.639199999999999,2.6423700000000001,0.50600999999999996
213443.0,158.86600000000001,1382.03,1372.3099999999999,1333.46,87.813400000000001,-0.79897700000000005,6.3476100000000004
213444.0,117.212,1247.77,1288.78,1244.3800000000001,62.959699999999998,2.20208,0.32028600000000002
213445.0,138.959,4298.0299999999997,4215.0,4225.6000000000004,65.996600000000001,5.7652200000000002,2.30307
213446.0,86.342500000000001,5181.4399999999996,5113.8500000000004,5123.5699999999997,33.822200000000002,2.3507099999999999,-0.50056800000000001
213447.0,39.505099999999999,2783.1300000000001,2791.5300000000002,2769.6999999999998,19.797699999999999,2.5962800000000001,-0.49110100000000001
213448.0,47.759999999999998,1714.6800000000001,1743.4100000000001,1713.6800000000001,21.5733,3.1078399999999999,-0.419211
213449.0,66.069800000000001,4782.9700000000003,4734.5200000000004,4736.29,26.366099999999999,2.0881500000000002,-0.64304899999999998
213450.0,131.26900000000001,3827.0500000000002,3737.6599999999999,3753.8400000000001,58.757800000000003,4.5972799999999996,1.17727
213451.0,142.489,428.57900000000001,426.09699999999998,384.13600000000002,78.098600000000005,6.60067,-1.0547899999999999
213452.0,138.32599999999999,-166.34,-140.12899999999999,-191.91300000000001,75.407200000000003,4.6231499999999999,-0.0593705
213453.0,134.07300000000001,2838.6700000000001,2806.9099999999999,2783.0500000000002,71.825000000000003,7.3418400000000004,0.60172499999999995
213454.0,133.75200000000001,719.28200000000004,666.27999999999997,656.76400000000001,69.080399999999997,7.1159600000000003,2.4025099999999999
213455.0,137.36500000000001,2724.7199999999998,2657.75,2657.0700000000002,68.747699999999995,6.7183700000000002,2.7893699999999999
213456.0,139.184,2611.8000000000002,2535.4899999999998,2541.27,67.858199999999997,6.3285600000000004,2.7125400000000002
213457.0,136.369,-3180.1599999999999,-3255.4400000000001,-3251.02,66.111699999999999,5.8007200000000001,3.1321699999999999
213458.0,136.15299999999999,4247.3800000000001,4160.1300000000001,4174.0799999999999,62.866399999999999,5.2025499999999996,1.72936
213459.0,124.039,4994.7399999999998,4906.4300000000003,4923.0900000000001,53.945700000000002,3.9951699999999999,0.68254899999999996
213460.0,116.735,5087.7799999999997,5000.9499999999998,5017.79,49.0901,3.4803799999999998,0.23862700000000001
213461.0,106.267,5151.3299999999999,5070.0500000000002,5084.9899999999998,43.398299999999999,2.9956200000000002,-0.062196799999999997
213462.0,97.411100000000005,5249.0100000000002,5173.1199999999999,5186.1700000000001,38.852600000000002,2.6511300000000002,-0.35919000000000001
213463.0,88.523600000000002,-5055.6700000000001,-5126.7399999999998,-5116.1300000000001,33.7181,2.3426999999999998,-0.48091299999999998
213464.0,76.437799999999996,5006.4300000000003,4947.6499999999996,4953.7600000000002,29.967099999999999,2.1906500000000002,-0.61117999999999995
213465.0,56.616199999999999,4534.8599999999997,4497.1899999999996,4494.4300000000003,23.528500000000001,2.0663399999999998,-0.65487700000000004
213466.0,48.224899999999998,4146.4799999999996,4120.3299999999999,4112.7299999999996,21.375,2.1097000000000001,-0.627166
213467.0,42.116700000000002,3727.8899999999999,3713.3099999999999,3700.8899999999999,20.0837,2.2248800000000002,-0.58654499999999998
213468.0,39.199399999999997,3286.1500000000001,3283.9400000000001,3266.3600000000001,19.713000000000001,2.39819,-0.51187499999999997
213469.0,35.221800000000002,-3110.7600000000002,-3109.5599999999999,-3128.1399999999999,17.315999999999999,2.23814,-0.71246200000000004
213470.0,42.645499999999998,2248.3600000000001,2268.5700000000002,2241.96,20.129999999999999,2.8105899999999999,-0.40013599999999999
213471.0,56.261000000000003,1160.46,1200.2,1166.1600000000001,24.102799999999998,3.5075599999999998,-0.32596700000000001
213472.0,59.837000000000003,601.23699999999997,643.45100000000002,609.38199999999995,26.020600000000002,3.8178800000000002,-0.56868200000000002
213473.0,55.8596,97.653000000000006,136.59700000000001,105.399,24.4862,3.82559,-0.94124600000000003
213474.0,46.209800000000001,29.720400000000001,14.8002,65.424599999999998,-3.7271999999999998,-0.33713300000000002,-4.5902900000000004
213475.0,136.749,-667.36500000000001,-610.80799999999999,-682.98800000000006,69.105599999999995,2.0836700000000001,3.37296
213476.0,134.995,598.76199999999994,629.43899999999996,567.38900000000001,71.376800000000003,4.1603000000000003,0.213756
213477.0,125.464,-1756.78,-1759.72,-1802.8,67.551100000000005,4.4799499999999997,0.17241799999999999
213478.0,125.556,-1469.6500000000001,-1501.75,-1525.1500000000001,66.619799999999998,5.5991,2.9449299999999998
213479.0,131.483,-876.45600000000002,-928.56899999999996,-939.68499999999995,67.651700000000005,5.8167999999999997,3.5251899999999998
213480.0,135.53999999999999,-2133.46,-2199.6100000000001,-2201.6399999999999,67.635300000000001,5.8036799999999999,3.3010999999999999
213481.0,134.46799999999999,-4272.0,-4353.5299999999997,-4344.4399999999996,63.212499999999999,5.3815099999999996,2.4499399999999998
213482.0,130.238,-3413.1599999999999,-3498.3899999999999,-3486.0100000000002,59.212800000000001,4.8587499999999997,1.8125
213483.0,124.224,-3874.3000000000002,-3961.0300000000002,-3946.6399999999999,54.444800000000001,4.2550100000000004,1.1663399999999999
213484.0,116.783,-4849.2600000000002,-4934.5200000000004,-4919.7299999999996,49.558999999999997,3.69821,0.62612500000000004
213485.0,107.73699999999999,-4865.2799999999997,-4947.96,-4933.4499999999998,43.706699999999998,3.1369500000000001,0.15401599999999999
213486.0,98.851399999999998,-4984.1499999999996,-5061.6800000000003,-5048.7600000000002,39.039299999999997,2.7374200000000002,-0.21637600000000001
213487.0,78.833699999999993,-4945.1499999999996,-5008.3900000000003,-5000.7700000000004,29.575900000000001,2.1038399999999999,-0.67344700000000002
213488.0,68.556399999999996,-4764.8800000000001,-4818.8500000000004,-4814.96,25.621400000000001,1.9268799999999999,-0.77925
213489.0,58.770499999999998,-4591.8599999999997,-4635.6800000000003,-4635.9200000000001,22.4436,1.8450800000000001,-0.82923999999999998
213490.0,49.644199999999998,-4311.7700000000004,-4344.8299999999999,-4349.4700000000003,19.867599999999999,1.83169,-0.84570299999999998
213491.0,42.085799999999999,-3925.54,-3947.46,-3956.6500000000001,18.180700000000002,1.90473,-0.82355599999999995
213492.0,36.712200000000003,-3540.4200000000001,-3550.98,-3564.79,17.182300000000001,2.0320299999999998,-0.78146400000000005
213493.0,36.017600000000002,-2617.4400000000001,-2604.9200000000001,-2628.02,17.102900000000002,2.41255,-0.63661100000000004
213494.0,41.053400000000003,-2117.3699999999999,-2095.1700000000001,-2121.9400000000001,18.682200000000002,2.71909,-0.60571699999999995
213495.0,46.474400000000003,-1603.98,-1572.6500000000001,-1602.8199999999999,19.878,2.9942299999999999,-0.573241
213496.0,55.644300000000001,-1069.3,-1030.5699999999999,-1063.27,24.185700000000001,3.51383,-0.61428400000000005
213497.0,59.259700000000002,-545.01800000000003,-503.94900000000001,-536.63,26.162299999999998,3.82918,-0.77046999999999999
213498.0,165.70699999999999,-1913.3299999999999,-1927.78,-1961.6500000000001,92.357699999999994,-1.4715199999999999,2.3685399999999999
213499.0,125.718,-807.46900000000005,-767.55899999999997,-814.82600000000002,67.105800000000002,0.68381999999999998,-10.856199999999999
213500.0,137.44800000000001,3164.3800000000001,3083.2600000000002,3092.1500000000001,65.609499999999997,2.1389,-2.9501300000000001
213501.0,87.253299999999996,5147.4200000000001,5079.6199999999999,5089.3199999999997,34.417900000000003,-0.50015299999999996,-2.8691399999999998
213502.0,39.7151,2786.4400000000001,2794.9099999999999,2773.7199999999998,20.045400000000001,2.9522400000000002,-1.19801
213503.0,48.166699999999999,1706.52,1735.3299999999999,1706.1199999999999,21.751100000000001,4.28592,-1.19093
213504.0,66.717799999999997,4823.0699999999997,4774.3900000000003,4776.5100000000002,26.8582,-0.0082075299999999993,-2.3322799999999999
213505.0,131.10499999999999,5293.8999999999996,5205.4399999999996,5220.4499999999998,58.970100000000002,0.82237199999999999,-3.2754300000000001
213506.0,143.399,1860.96,1861.1099999999999,1816.52,78.166399999999996,3.85358,-8.3170099999999998
213507.0,144.25999999999999,1485.6300000000001,1513.1099999999999,1458.6500000000001,78.0047,1.98366,-10.3331
213508.0,132.40100000000001,448.23000000000002,419.66500000000002,392.96800000000002,70.877799999999993,3.8971300000000002,-6.38049
213509.0,130.14099999999999,3602.5900000000001,3553.52,3540.9899999999998,67.470200000000006,3.5470600000000001,-4.56304
213510.0,133.5,2666.3299999999999,2603.0300000000002,2599.7399999999998,67.170299999999997,3.0906400000000001,-3.2848799999999998
213511.0,136.70599999999999,3844.7600000000002,3771.0700000000002,3774.6999999999998,66.993700000000004,2.7233900000000002,-2.9589099999999999
213512.0,134.51900000000001,-3280.3899999999999,-3353.0999999999999,-3350.75,65.688999999999993,2.2497400000000001,-2.10331
213513.0,135.40100000000001,4114.0799999999999,4028.1700000000001,4040.7399999999998,62.824399999999997,1.4617,-3.0963500000000002
213514.0,124.379,4724.8599999999997,4637.0500000000002,4652.8199999999997,54.353200000000001,0.31218800000000002,-3.3184499999999999
213515.0,117.38500000000001,5054.7600000000002,4968.1899999999996,4984.3100000000004,49.615499999999997,-0.11133,-3.3875600000000001
213516.0,107.154,5232.5799999999999,5151.2799999999997,5165.7700000000004,44.006500000000003,-0.39511400000000002,-3.2280500000000001
213517.0,98.341800000000006,5195.8400000000001,5119.8199999999997,5132.6300000000001,39.4602,-0.50194300000000003,-3.1408
213518.0,89.508899999999997,-4976.8000000000002,-5048.1599999999999,-5037.5500000000002,34.338200000000001,-0.75271500000000002,-2.9119999999999999
213519.0,77.248999999999995,5040.0900000000001,4981.0699999999997,4987.3500000000004,30.520199999999999,-0.310784,-2.63246
213520.0,57.089199999999998,4487.3900000000003,4449.5299999999997,4447.2700000000004,23.961099999999998,0.413856,-2.04209
213521.0,48.512300000000003,4164.1300000000001,4137.8699999999999,4130.8599999999997,21.746200000000002,0.94032300000000002,-1.7562800000000001
213522.0,42.277799999999999,3760.02,3745.4000000000001,3733.6300000000001,20.403300000000002,1.5506200000000001,-1.52261
213523.0,39.330500000000001,3283.6599999999999,3281.46,3264.5500000000002,19.985299999999999,2.2675800000000002,-1.3043
213524.0,35.275100000000002,-3102.5300000000002,-3101.3699999999999,-3119.21,17.563099999999999,2.2039200000000001,-1.35747
213525.0,42.984499999999997,2263.5599999999999,2283.8800000000001,2257.8600000000001,20.353899999999999,3.6620300000000001,-1.0750900000000001
213526.0,56.489400000000003,1155.3800000000001,1194.97,1161.46,24.155100000000001,4.9095199999999997,-1.27562
213527.0,59.557099999999998,604.66300000000001,646.29300000000001,612.88999999999999,25.8569,4.9825100000000004,-1.6931099999999999
213528.0,55.433900000000001,92.592600000000004,130.78299999999999,100.23399999999999,24.293700000000001,4.6193900000000001,-2.10683
213529.0,47.320399999999999,19.468900000000001,4.6764900000000003,55.816800000000001,-3.9583200000000001,1.6681299999999999,-5.9498199999999999
213530.0,141.851,-274.22500000000002,-220.68700000000001,-292.036,72.647599999999997,0.076491699999999996,-7.1044200000000002
213531.0,136.84899999999999,-2295.8200000000002,-2265.1900000000001,-2328.0100000000002,72.110399999999998,1.3699600000000001,-7.3465299999999996
213532.0,124.43600000000001,-790.07500000000005,-790.85699999999997,-835.56500000000005,66.701899999999995,2.04819,-5.4723800000000002
213533.0,122.753,-1994.9400000000001,-2023.75,-2049.8400000000001,65.167900000000003,2.3500399999999999,-4.02461
213534.0,127.586,-3563.0,-3611.3200000000002,-3624.8899999999999,65.992999999999995,2.5796000000000001,-2.4935800000000001
213535.0,132.53299999999999,-3323.5700000000002,-3386.0,-3390.6599999999999,66.636099999999999,2.5107900000000001,-2.13815
213536.0,133.416,-3124.1199999999999,-3203.8299999999999,-3196.3499999999999,63.146599999999999,1.7154400000000001,-2.31006
213537.0,129.846,-4808.6800000000003,-4892.6400000000003,-4881.5900000000001,59.418399999999998,1.0868800000000001,-2.6291000000000002
213538.0,124.374,-5036.5799999999999,-5122.5299999999997,-5109.1599999999999,54.855499999999999,0.50295199999999995,-2.8722400000000001
213539.0,117.34099999999999,-4596.4399999999996,-4681.3299999999999,-4667.3000000000002,50.096899999999998,0.035604400000000001,-3.0175000000000001
213540.0,108.574,-4945.1300000000001,-5027.7600000000002,-5013.7200000000003,44.331699999999998,-0.42097800000000002,-3.0763799999999999
213541.0,99.813400000000001,-5023.21,-5100.9099999999999,-5088.2200000000003,39.671900000000001,-0.60764899999999999,-3.0580500000000002
213542.0,79.747299999999996,-4949.04,-5012.6400000000003,-5004.8100000000004,30.151499999999999,-0.68292900000000001,-2.75075
213543.0,69.319800000000001,-4835.1000000000004,-4889.4300000000003,-4885.1400000000003,26.1326,-0.49647799999999997,-2.5076999999999998
213544.0,59.3521,-4567.1700000000001,-4611.3100000000004,-4611.0,22.892600000000002,-0.165488,-2.25108
213545.0,50.015500000000003,-4273.1099999999997,-4306.4499999999998,-4310.4200000000001,20.2516,0.27427200000000002,-1.9803200000000001
213546.0,42.263199999999998,-3966.9000000000001,-3989.0100000000002,-3997.46,18.5108,0.82515099999999997,-1.7429399999999999
213547.0,36.759999999999998,-3556.6700000000001,-3567.3299999999999,-3580.3699999999999,17.465599999999998,1.4573400000000001,-1.52712
213548.0,36.187800000000003,-2634.3400000000001,-2621.8099999999999,-2644.21,17.339600000000001,2.8879299999999999,-1.19946
213549.0,41.404200000000003,-2122.3200000000002,-2100.0599999999999,-2126.23,18.8977,3.6539299999999999,-1.2448600000000001
213550.0,46.8977,-1592.8199999999999,-1561.47,-1591.1099999999999,20.056899999999999,4.2873799999999997,-1.2916099999999999
213551.0,55.914900000000003,-1073.24,-1034.7,-1066.8900000000001,24.242799999999999,4.9963600000000001,-1.58758
213552.0,59.0593,-542.56899999999996,-502.09699999999998,-534.19500000000005,26.0063,5.0921599999999998,-2.0038399999999998
213553.0,174.02699999999999,1246.1600000000001,1226.9400000000001,1197.78,97.410300000000007,-2.9499300000000002,-2.1016300000000001
213554.0,135.71600000000001,1287.8699999999999,1327.8099999999999,1276.01,71.591999999999999,-0.44261400000000001,-16.664400000000001
213555.0,136.03999999999999,4212.5100000000002,4134.0100000000002,4141.1599999999999,64.898700000000005,-1.5631699999999999,-8.3914500000000007
213556.0,87.751499999999993,5174.9399999999996,5107.7200000000003,5117.6499999999996,34.804200000000002,-3.4031799999999999,-5.2242300000000004
213557.0,40.113799999999998,2770.0300000000002,2779.7600000000002,2758.8499999999999,20.320799999999998,3.1132499999999999,-2.0673400000000002
213558.0,48.744599999999998,1679.75,1709.21,1680.4000000000001,21.840199999999999,5.2401400000000002,-2.1472500000000001
213559.0,66.839500000000001,4793.5299999999997,4745.5500000000002,4748.1199999999999,27.2028,-2.1961400000000002,-3.99837
213560.0,130.84700000000001,3744.6500000000001,3657.7600000000002,3671.8899999999999,58.850099999999998,-2.8938700000000002,-7.8183800000000003
213561.0,145.839,549.77200000000005,552.70100000000002,505.04000000000002,78.680199999999999,1.8531599999999999,-13.4976
213562.0,151.48599999999999,-63.541699999999999,-34.363,-93.571899999999999,80.669200000000004,0.99770099999999995,-16.259599999999999
213563.0,131.88800000000001,2912.4099999999999,2887.77,2857.3499999999999,70.076700000000002,1.1055299999999999,-11.211
213564.0,128.64099999999999,735.69399999999996,690.505,674.096,66.363500000000002,0.457901,-9.7083700000000004
213565.0,131.386,2693.48,2633.77,2627.6999999999998,65.970299999999995,-0.178284,-8.9622399999999995
213566.0,134.79499999999999,2545.4200000000001,2474.8899999999999,2476.3099999999999,66.001199999999997,-0.85470900000000005,-8.6225299999999994
213567.0,132.84200000000001,-3111.3200000000002,-3180.9699999999998,-3180.5799999999999,64.938900000000004,-1.31629,-7.4497799999999996
213568.0,134.61799999999999,4157.9399999999996,4074.0700000000002,4085.3800000000001,62.436500000000002,-2.2558099999999999,-8.1209600000000002
213569.0,124.565,4924.3500000000004,4837.7299999999996,4852.8800000000001,54.459000000000003,-3.3547199999999999,-7.4285100000000002
213570.0,117.833,5033.9700000000003,4948.3199999999997,4964.0799999999999,49.863900000000001,-3.7027399999999999,-7.0510599999999997
213571.0,107.738,5114.6700000000001,5034.1000000000004,5048.4499999999998,44.350099999999998,-3.7953800000000002,-6.41038
213572.0,98.943100000000001,5228.3699999999999,5152.9700000000003,5165.8400000000001,39.842300000000002,-3.70289,-5.9217399999999998
213573.0,90.143900000000002,-5041.29,-5112.1899999999996,-5101.29,34.749200000000002,-3.8786999999999998,-5.3177599999999998
213574.0,77.592799999999997,5010.1700000000001,4951.7600000000002,4958.4099999999999,30.894500000000001,-2.8874300000000002,-4.6396600000000001
213575.0,57.0047,4547.5500000000002,4510.5100000000002,4508.75,24.279399999999999,-1.3551200000000001,-3.4380000000000002
213576.0,48.279299999999999,4157.46,4132.1599999999999,4125.6499999999996,22.041499999999999,-0.368423,-2.9257200000000001
213577.0,42.051600000000001,3733.7399999999998,3720.21,3708.9000000000001,20.685099999999998,0.72666299999999995,-2.5244200000000001
213578.0,39.349699999999999,3283.5799999999999,3282.5900000000001,3266.0500000000002,20.259,1.95855,-2.21109
213579.0,35.377899999999997,-3107.3299999999999,-3105.0500000000002,-3122.48,17.855599999999999,1.99437,-2.1499000000000001
213580.0,43.7059,2223.8499999999999,2245.27,2219.52,20.602900000000002,4.3006399999999996,-1.92866
213581.0,56.025700000000001,1120.6199999999999,1159.73,1127.1099999999999,23.755500000000001,6.0658200000000004,-2.4314200000000001
213582.0,57.7194,569.38099999999997,609.27499999999998,577.31500000000005,24.886299999999999,5.99261,-3.0481699999999998
213583.0,52.177799999999998,90.679599999999994,125.563,97.150499999999994,22.854500000000002,5.3386300000000002,-3.5133899999999998
213584.0,48.722299999999997,34.740000000000002,20.9819,71.955399999999997,-4.25169,3.6639400000000002,-8.0224499999999992
213585.0,149.26499999999999,-742.93399999999997,-690.61500000000001,-764.25400000000002,76.046800000000005,-1.4196899999999999,-14.344799999999999
213586.0,141.184,470.39600000000002,501.56900000000002,436.077,73.574200000000005,-0.28690100000000002,-12.5685
213587.0,124.761,-1871.96,-1870.1800000000001,-1917.49,66.066199999999995,-0.21722900000000001,-10.2209
213588.0,121.806,-1525.74,-1550.1700000000001,-1580.71,64.106800000000007,-0.28392499999999998,-8.7837300000000003
213589.0,125.96299999999999,-882.09900000000005,-926.76099999999997,-943.56600000000003,64.938699999999997,-0.36601299999999998,-7.9065099999999999
213590.0,130.518,-2094.1300000000001,-2153.0900000000001,-2160.1700000000001,65.616699999999994,-0.73216400000000004,-7.5756699999999997
213591.0,132.36099999999999,-4189.2600000000002,-4266.5,-4260.5,62.734999999999999,-1.9837899999999999,-7.3476400000000002
213592.0,129.38499999999999,-3330.6700000000001,-3412.75,-3402.75,59.2943,-2.6373199999999999,-7.1983100000000002
213593.0,124.42,-3800.0300000000002,-3884.5500000000002,-3871.9099999999999,54.971600000000002,-3.2432799999999999,-7.02189
213594.0,117.73099999999999,-4787.8199999999997,-4871.6800000000003,-4858.0799999999999,50.358400000000003,-3.6305399999999999,-6.7444800000000003
213595.0,109.188,-4819.9899999999998,-4901.8599999999997,-4887.9899999999998,44.704999999999998,-3.9773299999999998,-6.3109099999999998
213596.0,100.48699999999999,-4954.7399999999998,-5031.8599999999997,-5019.1099999999997,40.079000000000001,-3.9699900000000001,-5.8982599999999996
213597.0,80.256500000000003,-4943.1999999999998,-5006.3599999999997,-4998.0900000000001,30.549800000000001,-3.51111,-4.7957999999999998
213598.0,69.624200000000002,-4772.0699999999997,-4825.9200000000001,-4821.0699999999997,26.494800000000001,-2.9758499999999999,-4.2034599999999998
213599.0,59.421799999999998,-4604.3999999999996,-4647.96,-4647.0299999999997,23.2226,-2.2499199999999999,-3.6501999999999999
213600.0,49.857399999999998,-4325.29,-4357.8999999999996,-4361.2399999999998,20.5504,-1.385,-3.1401599999999998
213601.0,41.976199999999999,-3936.6900000000001,-3957.9400000000001,-3965.79,18.7959,-0.36934600000000001,-2.7116600000000002
213602.0,36.528199999999998,-3545.8000000000002,-3555.4499999999998,-3567.9699999999998,17.749400000000001,0.74314800000000003,-2.3645299999999998
213603.0,36.736699999999999,-2603.5999999999999,-2589.96,-2612.0300000000002,17.662600000000001,3.1691799999999999,-1.94621
213604.0,42.238999999999997,-2092.29,-2069.0500000000002,-2094.9400000000001,19.196100000000001,4.3669500000000001,-2.0773199999999998
213605.0,47.566699999999997,-1568.79,-1536.99,-1566.1800000000001,20.2242,5.33148,-2.2350400000000001
213606.0,55.561199999999999,-1029.98,-992.09100000000001,-1023.41,23.937899999999999,6.1611700000000003,-2.84972
213607.0,57.384999999999998,-515.12199999999996,-476.83699999999999,-507.42000000000002,25.252600000000001,6.1234299999999999,-3.5249299999999999
213608.0,183.904,-1986.3800000000001,-2010.21,-2035.3900000000001,102.887,-4.5081499999999997,-8.1789799999999993
213609.0,146.18000000000001,-746.46299999999997,-706.14300000000003,-761.81399999999996,75.862399999999994,-1.944,-23.178799999999999
213610.0,134.964,3137.3899999999999,3061.8600000000001,3067.6199999999999,63.928899999999999,-5.1598199999999999,-13.8073
213611.0,88.005499999999998,5150.0900000000001,5084.0900000000001,5094.5200000000004,34.976199999999999,-6.3810099999999998,-7.6695500000000001
213612.0,40.588799999999999,2744.3699999999999,2755.6799999999998,2735.0700000000002,20.588100000000001,2.9196499999999999,-3.1905399999999999
213613.0,49.282699999999998,1634.48,1664.79,1636.52,21.8505,5.8028899999999997,-3.3842500000000002
213614.0,66.828699999999998,4831.7799999999997,4785.0200000000004,4788.2399999999998,27.432600000000001,-4.5449999999999999,-5.7864100000000001
213615.0,130.446,5253.6899999999996,5169.0799999999999,5182.5900000000001,58.3538,-6.6007300000000004,-12.533200000000001
213616.0,148.589,1994.51,1999.71,1949.8599999999999,79.049400000000006,-0.28692600000000001,-18.964700000000001
213617.0,157.38999999999999,1607.8699999999999,1638.21,1576.48,82.507000000000005,-0.16869000000000001,-22.291599999999999
213618.0,132.50200000000001,553.048,531.43299999999999,498.76600000000002,69.5154,-1.61442,-16.444800000000001
213619.0,128.131,3665.1999999999998,3623.4400000000001,3604.6599999999999,65.353899999999996,-2.67448,-15.292899999999999
213620.0,130.34299999999999,2690.8400000000001,2634.6199999999999,2626.1399999999999,64.785300000000007,-3.47817,-14.7393
213621.0,133.58000000000001,3838.1900000000001,3770.9299999999998,3770.52,64.864800000000002,-4.3165100000000001,-14.2918
213622.0,131.66900000000001,-3270.5500000000002,-3336.9899999999998,-3338.23,63.976100000000002,-4.77881,-12.794600000000001
213623.0,133.852,4076.3000000000002,3995.0599999999999,4005.4099999999999,61.696199999999997,-5.9509600000000002,-13.2216
213624.0,124.46599999999999,4690.3699999999999,4605.6999999999998,4620.5500000000002,54.176200000000001,-6.9779200000000001,-11.6534
213625.0,117.97799999999999,5028.9200000000001,4944.9300000000003,4960.6599999999999,49.756700000000002,-7.2591400000000004,-10.841200000000001
213626.0,107.998,5217.3999999999996,5138.29,5152.8299999999999,44.373899999999999,-7.1975300000000004,-9.6918399999999991
213627.0,99.259600000000006,5190.7700000000004,5116.6599999999999,5129.8999999999996,39.962800000000001,-6.923,-8.7907100000000007
213628.0,90.522099999999995,-4977.1899999999996,-5046.9499999999998,-5035.5,34.950699999999998,-7.0295500000000004,-7.7944699999999996
213629.0,77.732900000000001,5047.96,4990.75,4997.9899999999998,31.103100000000001,-5.5782999999999996,-6.7354900000000004
213630.0,56.823799999999999,4493.3400000000001,4457.6099999999997,4456.4799999999996,24.520600000000002,-3.3207599999999999,-4.9646999999999997
213631.0,47.998600000000003,4163.0900000000001,4139.1800000000003,4133.2700000000004,22.2911,-1.90795,-4.2501100000000003
213632.0,41.821599999999997,3748.04,3736.0100000000002,3725.1999999999998,20.941199999999998,-0.37307600000000002,-3.7205499999999998
213633.0,39.430500000000002,3257.75,3258.3099999999999,3242.1599999999999,20.5244,1.34005,-3.3401999999999998
213634.0,35.531700000000001,-3076.1100000000001,-3072.4200000000001,-3089.3800000000001,18.1358,1.4932700000000001,-3.17814
213635.0,44.476399999999998,2204.79,2227.5799999999999,2202.1399999999999,20.8233,4.54711,-3.07464
213636.0,55.450600000000001,1081.01,1119.6700000000001,1088.1700000000001,23.222799999999999,6.97865,-3.73346
213637.0,55.652500000000003,550.05399999999997,588.05600000000004,558.00099999999998,23.706700000000001,6.9703099999999996,-4.4762599999999999
213638.0,48.936300000000003,81.185299999999998,112.807,87.139300000000006,21.276399999999999,6.1740000000000004,-5.0079700000000003
213639.0,50.600000000000001,24.350100000000001,11.460800000000001,61.815100000000001,-5.2600600000000002,5.9268599999999996,-10.3169
213640.0,155.91300000000001,-366.17700000000002,-315.61200000000002,-389.84199999999998,78.811700000000002,-2.7741099999999999,-21.1236
213641.0,144.52600000000001,-2429.0599999999999,-2397.5799999999999,-2464.0500000000002,74.431700000000006,-1.86313,-17.7014
213642.0,126.399,-916.81700000000001,-912.68899999999996,-962.32899999999995,65.820099999999996,-2.4615999999999998,-15.1149
213643.0,121.68899999999999,-2081.75,-2103.1999999999998,-2135.9000000000001,63.2072,-2.85419,-13.746600000000001
213644.0,125.059,-3611.8000000000002,-3652.9200000000001,-3672.29,63.781799999999997,-3.3435000000000001,-13.4095
213645.0,129.34299999999999,-3339.6799999999998,-3395.2600000000002,-3404.4000000000001,64.5197,-3.9930099999999999,-13.0693
213646.0,131.459,-3097.8899999999999,-3172.2399999999998,-3167.4200000000001,62.000700000000002,-5.5977499999999996,-12.4094
213647.0,128.857,-4774.0299999999997,-4853.5900000000001,-4844.3800000000001,58.8063,-6.3507800000000003,-11.933
213648.0,124.247,-5002.2399999999998,-5084.6300000000001,-5072.4200000000001,54.706600000000002,-6.93872,-11.308999999999999
213649.0,117.84099999999999,-4568.5600000000004,-4650.6199999999999,-4637.1599999999999,50.278599999999997,-7.2462400000000002,-10.562200000000001
213650.0,109.479,-4926.25,-5006.6199999999999,-4992.5799999999999,44.754199999999997,-7.50861,-9.6500199999999996
213651.0,100.883,-5014.6700000000001,-5090.5100000000002,-5077.3900000000003,40.230499999999999,-7.3273999999999999,-8.8057099999999995
213652.0,80.558599999999998,-4956.3199999999997,-5018.4200000000001,-5009.4700000000003,30.781199999999998,-6.4012099999999998,-6.9088599999999998
213653.0,69.782300000000006,-4846.0600000000004,-4898.8699999999999,-4893.2600000000002,26.744199999999999,-5.5561699999999998,-5.98482
213654.0,59.396500000000003,-4577.9799999999996,-4620.4700000000003,-4618.75,23.472100000000001,-4.4760900000000001,-5.1648199999999997
213655.0,49.653700000000001,-4280.2600000000002,-4311.71,-4314.2799999999997,20.807500000000001,-3.2153,-4.4253999999999998
213656.0,41.666800000000002,-3966.0999999999999,-3986.0799999999999,-3993.23,19.051300000000001,-1.7798,-3.8502399999999999
213657.0,36.320500000000003,-3544.4499999999998,-3552.7600000000002,-3564.6700000000001,18.020600000000002,-0.224077,-3.4095499999999999
213658.0,37.341500000000003,-2591.54,-2576.5,-2598.1799999999998,17.971399999999999,3.1000800000000002,-2.96807
213659.0,43.084400000000002,-2063.0999999999999,-2038.6600000000001,-2064.1599999999999,19.452000000000002,4.6891400000000001,-3.2118099999999998
213660.0,48.139499999999998,-1521.3,-1488.9000000000001,-1517.4100000000001,20.298100000000002,5.97492,-3.4426700000000001
213661.0,55.007100000000001,-1000.8099999999999,-963.64800000000002,-993.68700000000001,23.479600000000001,7.0606099999999996,-4.2911400000000004
213662.0,55.374200000000002,-490.93400000000003,-455.03500000000003,-483.41699999999997,24.243300000000001,7.0306600000000001,-5.1442600000000001
213663.0,195.03,1080.3900000000001,1052.03,1029.8800000000001,108.536,-5.6827500000000004,-15.023300000000001
213664.0,156.97800000000001,1385.1600000000001,1426.21,1366.72,79.916499999999999,-3.2886000000000002,-29.822399999999998
213665.0,134.417,4247.5,4175.2200000000003,4179.9799999999996,62.726599999999998,-8.76539,-19.417000000000002
213666.0,88.188100000000006,5196.1899999999996,5131.8599999999997,5143.1599999999999,34.895899999999997,-9.4250100000000003,-10.314
213667.0,41.0824,2751.02,2763.4699999999998,2743.3899999999999,20.8399,2.4771000000000001,-4.4056100000000002
213668.0,49.777999999999999,1633.3,1664.1500000000001,1636.55,21.900099999999998,6.1674100000000003,-4.5754900000000003
213669.0,67.018299999999996,4817.71,4772.3299999999999,4776.5,27.544599999999999,-7.0413399999999999,-7.73149
213670.0,130.06700000000001,3757.71,3675.9400000000001,3689.2199999999998,57.479300000000002,-10.253,-17.449400000000001
213671.0,152.61000000000001,699.47699999999998,707.30399999999997,654.62900000000002,79.540999999999997,-2.6700200000000001,-24.9298
213672.0,163.58600000000001,79.3767,111.31100000000001,46.932699999999997,84.026799999999994,-1.7865500000000001,-28.640499999999999
213673.0,135.078,3050.7600000000002,3032.3699999999999,2996.8299999999999,69.377499999999998,-4.53322,-22.284300000000002
213674.0,129.40899999999999,850.93600000000004,812.548,791.28599999999994,64.742699999999999,-5.79061,-21.049700000000001
213675.0,130.458,2777.5900000000001,2724.8600000000001,2714.3899999999999,63.699800000000003,-6.8471200000000003,-20.5199
213676.0,133.21000000000001,2602.5599999999999,2538.6900000000001,2536.7800000000002,63.638599999999997,-7.8071700000000002,-20.062799999999999
213677.0,131.126,-3163.23,-3226.3400000000001,-3228.8200000000002,62.827500000000001,-8.2506599999999999,-18.2761
213678.0,133.34100000000001,4178.3599999999997,4100.1899999999996,4109.9399999999996,60.637500000000003,-9.5835899999999992,-18.527200000000001
213679.0,124.20999999999999,4933.8599999999997,4851.8199999999997,4866.7399999999998,53.482799999999997,-10.5885,-16.1434
213680.0,117.917,5044.4799999999996,4962.8599999999997,4978.9300000000003,49.256599999999999,-10.828200000000001,-14.888
213681.0,108.002,5128.0600000000004,5051.1000000000004,5066.21,44.022300000000001,-10.6099,-13.2148
213682.0,99.426299999999998,5245.6999999999998,5173.4799999999996,5187.46,39.7821,-10.1891,-11.892799999999999
213683.0,90.770700000000005,-5063.8800000000001,-5131.9200000000001,-5119.5900000000001,34.903799999999997,-10.2204,-10.4642
213684.0,77.952200000000005,5033.6400000000003,4977.9499999999998,4986.1199999999999,31.133099999999999,-8.3770900000000008,-9.0253999999999994
213685.0,56.962299999999999,4569.1599999999999,4534.7299999999996,4534.5299999999997,24.695900000000002,-5.4794,-6.6471
213686.0,48.088299999999997,4173.4200000000001,4150.7600000000002,4145.71,22.510100000000001,-3.6840799999999998,-5.7231100000000001
213687.0,41.932699999999997,3740.8800000000001,3730.0799999999999,3720.04,21.190200000000001,-1.72401,-5.04915
213688.0,39.698799999999999,3278.7199999999998,3280.5,3264.98,20.7822,0.45993899999999999,-4.5883399999999996
213689.0,35.787300000000002,-3102.23,-3097.5300000000002,-3113.7199999999998,18.3977,0.754382,-4.3017500000000002
213690.0,45.123399999999997,2190.1100000000001,2213.8499999999999,2188.9200000000001,21.026700000000002,4.5618400000000001,-4.2414399999999999
213691.0,55.355699999999999,1069.5899999999999,1108.0599999999999,1077.6099999999999,22.909600000000001,7.7560399999999996,-4.9443799999999998
213692.0,54.677999999999997,530.495,567.38400000000001,539.01499999999999,22.951799999999999,8.0086399999999998,-5.71075
213693.0,47.548000000000002,83.701599999999999,113.703,90.376199999999997,20.363099999999999,7.27278,-6.1589700000000001
213694.0,52.705399999999997,37.516800000000003,23.471499999999999,73.757199999999997,-6.8079900000000002,7.6102999999999996,-12.184900000000001
213695.0,162.71000000000001,-880.56600000000003,-831.45699999999999,-906.32000000000005,81.124499999999998,-4.1406200000000002,-27.928100000000001
213696.0,148.88900000000001,315.58199999999999,348.10199999999998,279.83999999999997,75.286100000000005,-3.69678,-23.277999999999999
213697.0,129.66200000000001,-2019.27,-2012.5999999999999,-2065.04,65.954800000000006,-4.8590900000000001,-20.3812
213698.0,123.545,-1658.27,-1676.6900000000001,-1712.0599999999999,62.756500000000003,-5.6219000000000001,-19.244900000000001
213699.0,125.496,-987.46100000000001,-1025.3199999999999,-1046.9000000000001,62.835299999999997,-6.3933600000000004,-18.851099999999999
213700.0,129.05099999999999,-2170.5,-2222.6900000000001,-2233.5700000000002,63.352899999999998,-7.2732099999999997,-18.666899999999998
213701.0,130.94399999999999,-4222.3299999999999,-4293.4899999999998,-4289.5,60.9878,-9.1993200000000002,-17.689
213702.0,128.452,-3352.8200000000002,-3429.3800000000001,-3420.6199999999999,57.969299999999997,-9.9857300000000002,-16.8507
213703.0,124.006,-3816.3699999999999,-3895.9899999999998,-3883.8699999999999,54.055700000000002,-10.616400000000001,-15.8329
213704.0,117.755,-4802.1899999999996,-4881.71,-4868.0699999999997,49.808100000000003,-10.8575,-14.6547
213705.0,109.533,-4835.8100000000004,-4913.9499999999998,-4899.4099999999999,44.445099999999996,-11.047700000000001,-13.216200000000001
213706.0,101.077,-4973.4899999999998,-5047.3400000000001,-5033.54,40.081800000000001,-10.701000000000001,-11.9497
213707.0,80.874700000000004,-4968.8500000000004,-5029.46,-5019.5200000000004,30.8414,-9.3616299999999999,-9.2031700000000001
213708.0,70.089799999999997,-4799.5,-4851.0,-4844.3199999999997,26.880500000000001,-8.2399799999999992,-7.9249400000000003
213709.0,59.655000000000001,-4631.5100000000002,-4672.8299999999999,-4670.0100000000002,23.665299999999998,-6.8421599999999998,-6.8123500000000003
213710.0,49.820799999999998,-4348.8400000000001,-4379.21,-4380.6999999999998,21.035,-5.2314299999999996,-5.8521999999999998
213711.0,41.762700000000002,-3953.8600000000001,-3972.8099999999999,-3978.9499999999998,19.3034,-3.40415,-5.1129600000000002
213712.0,36.408900000000003,-3553.3400000000001,-3560.6100000000001,-3571.6199999999999,18.281700000000001,-1.4256899999999999,-4.5681200000000004
213713.0,37.787100000000002,-2584.21,-2568.25,-2589.2199999999998,18.217199999999998,2.8163900000000002,-4.0338599999999998
213714.0,43.673900000000003,-2057.9000000000001,-2032.73,-2057.52,19.6462,4.8139099999999999,-4.31724
213715.0,48.5505,-1521.55,-1488.8399999999999,-1516.45,20.331199999999999,6.4541000000000004,-4.5677199999999996
213716.0,54.850700000000003,-978.51300000000003,-941.77999999999997,-970.50699999999995,23.169499999999999,7.8429700000000002,-5.60433
213717.0,54.362299999999998,-476.60899999999998,-442.12,-468.50599999999997,23.521100000000001,8.0541999999999998,-6.4610799999999999
213718.0,206.88399999999999,-2101.1900000000001,-2133.3499999999999,-2153.8800000000001,113.875,-7.0648799999999996,-23.3308
213719.0,167.95699999999999,-664.98800000000006,-622.63099999999997,-686.178,83.597700000000003,-4.6841200000000001,-36.684199999999997
213720.0,134.77099999999999,3243.8200000000002,3174.9000000000001,3179.1199999999999,61.406700000000001,-12.4072,-25.249700000000001
213721.0,88.409899999999993,5208.71,5146.5100000000002,5159.0900000000001,34.479100000000003,-12.548299999999999,-13.3292
213722.0,41.738700000000001,2782.8299999999999,2795.8600000000001,2776.4000000000001,21.178699999999999,1.83403,-5.5189199999999996
213723.0,50.493899999999996,1647.1900000000001,1678.3299999999999,1651.1600000000001,22.145299999999999,6.4681600000000001,-5.5102000000000002
213724.0,67.487399999999994,4892.2700000000004,4848.3699999999999,4853.8599999999997,27.454799999999999,-9.6709300000000002,-9.9406599999999994
213725.0,130.09299999999999,5331.6800000000003,5253.1899999999996,5266.7299999999996,56.264899999999997,-13.991899999999999,-22.793399999999998
213726.0,157.83099999999999,2160.6399999999999,2170.9299999999998,2115.5799999999999,80.471800000000002,-5.01816,-30.596399999999999
213727.0,170.17699999999999,1749.22,1782.6900000000001,1715.48,85.577799999999996,-3.4540999999999999,-34.478499999999997
213728.0,139.00800000000001,723.39300000000003,708.05899999999997,669.90099999999995,69.687399999999997,-7.3388099999999996,-27.788
213729.0,132.16999999999999,3827.3099999999999,3792.0900000000001,3768.6799999999998,64.4251,-8.9307700000000008,-26.8614
213730.0,131.93199999999999,2837.1500000000001,2787.6799999999998,2775.6799999999998,62.773299999999999,-10.174899999999999,-26.3904
213731.0,134.06800000000001,3963.21,3902.6399999999999,3899.6999999999998,62.462499999999999,-11.3386,-26.0044
213732.0,131.57900000000001,-3390.4899999999998,-3450.3499999999999,-3453.6500000000001,61.602699999999999,-11.743,-23.960999999999999
213733.0,133.57300000000001,4167.1599999999999,4092.2800000000002,4101.9300000000003,59.381500000000003,-13.3035,-24.1876
213734.0,124.214,4760.1899999999996,4681.2799999999997,4696.7399999999998,52.425699999999999,-14.2392,-21.055499999999999
213735.0,117.93600000000001,5092.3999999999996,5013.6999999999998,5030.6199999999999,48.330199999999998,-14.4376,-19.383299999999998
213736.0,108.018,5277.6800000000003,5203.4399999999996,5219.5799999999999,43.268500000000003,-14.071899999999999,-17.165600000000001
213737.0,99.621700000000004,5249.6199999999999,5179.79,5194.9700000000003,39.229700000000001,-13.5121,-15.411099999999999
213738.0,91.033299999999997,-5040.1400000000003,-5105.8900000000003,-5092.3199999999997,34.5306,-13.492100000000001,-13.520300000000001
213739.0,78.343199999999996,5107.7399999999998,5053.8100000000004,5063.3199999999997,30.898900000000001,-11.276899999999999,-11.628
213740.0,57.530500000000004,4554.25,4520.9899999999998,4522.0600000000004,24.751899999999999,-7.8030799999999996,-8.5191300000000005
213741.0,48.664299999999997,4222.6700000000001,4200.9799999999996,4197.0799999999999,22.6737,-5.6424300000000001,-7.3030900000000001
213742.0,42.532200000000003,3803.6399999999999,3793.6199999999999,3784.5799999999999,21.4496,-3.2851599999999999,-6.4178600000000001
213743.0,40.304099999999998,3306.54,3308.9899999999998,3294.2399999999998,21.096,-0.62836599999999998,-5.7985899999999999
213744.0,36.294400000000003,-3124.6599999999999,-3119.5500000000002,-3134.7800000000002,18.7224,-0.174344,-5.3303700000000003
213745.0,45.828699999999998,2230.4899999999998,2254.73,2230.25,21.333200000000001,4.4255699999999996,-5.2454000000000001
213746.0,56.065899999999999,1083.9100000000001,1122.3800000000001,1092.3099999999999,23.0579,8.5915700000000008,-5.7574699999999996
213747.0,55.381999999999998,549.17200000000003,585.75699999999995,557.95299999999997,23.0547,9.1782400000000006,-6.4703600000000003
213748.0,48.234299999999998,82.3857,111.97499999999999,89.590500000000006,20.439800000000002,8.4813700000000001,-6.9078900000000001
213749.0,56.166400000000003,20.987100000000002,4.1108900000000004,55.155799999999999,-9.8467000000000002,9.9400399999999998,-13.3969
213750.0,169.61799999999999,-478.02800000000002,-429.94099999999997,-505.93900000000002,83.151700000000005,-5.3827600000000002,-34.1922
213751.0,154.477,-2581.0,-2547.3899999999999,-2617.8200000000002,76.602800000000002,-5.4990899999999998,-28.5519
213752.0,134.06700000000001,-1081.27,-1072.48,-1127.3199999999999,66.552999999999997,-7.1746299999999996,-25.3581
213753.0,126.669,-2246.54,-2262.1500000000001,-2299.8499999999999,62.6554,-8.3841900000000003,-24.517700000000001
213754.0,127.21899999999999,-3768.1300000000001,-3803.0900000000001,-3826.3200000000002,62.052,-9.46692,-24.4298
213755.0,129.964,-3479.0,-3527.9899999999998,-3540.1700000000001,62.284999999999997,-10.5647,-24.3126
213756.0,131.21600000000001,-3201.4699999999998,-3269.3200000000002,-3265.73,59.814599999999999,-12.8141,-23.231300000000001
213757.0,128.57900000000001,-4863.2399999999998,-4936.5100000000002,-4927.75,56.837899999999998,-13.710699999999999,-22.156400000000001
213758.0,124.092,-5080.8699999999999,-5157.2799999999997,-5144.8199999999997,53.064500000000002,-14.3322,-20.7669
213759.0,117.79900000000001,-4640.1300000000001,-4716.5799999999999,-4702.3299999999999,48.948300000000003,-14.499599999999999,-19.147300000000001
213760.0,109.619,-4992.8400000000001,-5068.1400000000003,-5052.6800000000003,43.737400000000001,-14.6365,-17.220099999999999
213761.0,101.283,-5078.9099999999999,-5150.1599999999999,-5135.29,39.582500000000003,-14.131600000000001,-15.5001
213762.0,81.294499999999999,-5019.4799999999996,-5078.1599999999999,-5066.8699999999999,30.6494,-12.4169,-11.832700000000001
213763.0,70.622100000000003,-4909.8800000000001,-4959.8100000000004,-4951.71,26.824000000000002,-11.048299999999999,-10.139200000000001
213764.0,60.2986,-4642.1499999999996,-4682.2299999999996,-4678.0,23.747599999999998,-9.3618000000000006,-8.6813400000000005
213765.0,50.491900000000001,-4344.1499999999996,-4373.5900000000001,-4373.6999999999998,21.2117,-7.4203599999999996,-7.4040400000000002
213766.0,42.416400000000003,-4027.5799999999999,-4045.8299999999999,-4050.6799999999998,19.561900000000001,-5.21997,-6.4336200000000003
213767.0,36.9709,-3600.9400000000001,-3607.6900000000001,-3617.5500000000002,18.5823,-2.8249499999999999,-5.7035600000000004
213768.0,38.257599999999996,-2628.5100000000002,-2612.1900000000001,-2632.3800000000001,18.525300000000001,2.3575400000000002,-4.9310900000000002
213769.0,44.2455,-2086.6700000000001,-2061.23,-2085.3699999999999,19.926500000000001,4.8312400000000002,-5.1840999999999999
213770.0,49.106200000000001,-1531.73,-1498.9400000000001,-1525.9000000000001,20.526199999999999,6.9300300000000004,-5.3260399999999999
213771.0,55.472200000000001,-1000.91,-964.43100000000004,-992.51999999999998,23.296800000000001,8.7714300000000005,-6.4097299999999997
213772.0,54.9895,-486.35500000000002,-452.37799999999999,-477.94600000000003,23.5703,9.2776300000000003,-7.2916499999999997
213773.0,219.13999999999999,893.173,857.35299999999995,837.98400000000004,118.98999999999999,-8.3382799999999992,-31.550799999999999
213774.0,178.05199999999999,1477.4200000000001,1520.7,1454.25,87.210499999999996,-5.7421499999999996,-42.322299999999998
213775.0,136.721,4434.6499999999996,4368.8699999999999,4373.1199999999999,60.179200000000002,-16.194600000000001,-31.497199999999999
213776.0,88.973200000000006,5326.1099999999997,5266.4499999999998,5280.9200000000001,33.630699999999997,-15.8384,-16.978999999999999
213777.0,42.8489,2858.1399999999999,2871.5599999999999,2852.25,21.700900000000001,0.928477,-6.5059100000000001
213778.0,51.877400000000002,1708.9100000000001,1740.23,1712.49,22.882200000000001,6.4326100000000004,-6.1779599999999997
213779.0,68.218000000000004,4943.6499999999996,4901.5500000000002,4908.8100000000004,27.0063,-12.4733,-12.634600000000001
213780.0,131.36500000000001,3925.4299999999998,3850.21,3864.6399999999999,54.914299999999997,-17.883900000000001,-28.697500000000002
213781.0,164.02099999999999,887.10199999999998,899.46000000000004,842.06700000000001,81.598799999999997,-7.3178200000000002,-36.650100000000002
213782.0,176.816,225.93199999999999,260.435,191.07599999999999,87.043099999999995,-5.0883099999999999,-40.202300000000001
213783.0,144.18700000000001,3260.1100000000001,3247.5300000000002,3207.4299999999998,70.264200000000002,-10.065200000000001,-33.6813
213784.0,136.09800000000001,1065.1600000000001,1032.95,1007.9400000000001,64.282600000000002,-12.0702,-32.762599999999999
213785.0,134.96700000000001,2984.96,2938.4699999999998,2925.4200000000001,62.087000000000003,-13.5991,-32.449399999999997
213786.0,136.47800000000001,2800.79,2743.2399999999998,2739.8800000000001,61.4482,-14.9832,-32.1922
213787.0,133.52500000000001,-3357.6100000000001,-3414.52,-3418.0900000000001,60.506599999999999,-15.3253,-29.922999999999998
213788.0,135.15799999999999,4355.1999999999998,4283.5699999999997,4293.6999999999998,58.058100000000003,-17.178100000000001,-30.3398
213789.0,125.18899999999999,5091.4399999999996,5015.8699999999999,5032.5500000000002,51.087400000000002,-18.107399999999998,-26.650600000000001
213790.0,118.755,5193.2200000000003,5117.7299999999996,5136.1899999999996,47.066000000000003,-18.248699999999999,-24.573599999999999
213791.0,108.614,5268.7600000000002,5197.6300000000001,5215.4700000000003,42.092700000000001,-17.719899999999999,-21.8429
213792.0,100.25700000000001,5380.1099999999997,5313.1000000000004,5330.1300000000001,38.244199999999999,-17.0212,-19.618600000000001
213793.0,91.668800000000005,-5200.6000000000004,-5263.5900000000001,-5248.21,33.745199999999997,-16.954599999999999,-17.221900000000002
213794.0,79.004999999999995,5160.5200000000004,5108.7600000000002,5120.1400000000003,30.250599999999999,-14.351100000000001,-14.815300000000001
213795.0,58.374600000000001,4694.5600000000004,4662.71,4665.3800000000001,24.515499999999999,-10.318,-10.780200000000001
213796.0,49.580100000000002,4297.9799999999996,4277.3699999999999,4274.79,22.645800000000001,-7.8171200000000001,-9.1595300000000002
213797.0,43.5182,3863.1399999999999,3853.9099999999999,3845.8499999999999,21.6294,-5.0758000000000001,-7.9284100000000004
213798.0,41.347099999999998,3395.4400000000001,3398.5,3384.2800000000002,21.4666,-1.9635100000000001,-7.0147300000000001
213799.0,37.3217,-3217.98,-3212.54,-3227.1500000000001,19.1983,-1.3711800000000001,-6.2717900000000002
213800.0,47.001399999999997,2283.48,2308.02,2283.27,21.9542,4.0077600000000002,-5.9971899999999998
213801.0,57.923099999999998,1124.51,1163.3399999999999,1132.1800000000001,23.927900000000001,9.0877199999999991,-6.35358
213802.0,57.9148,561.89800000000002,598.93100000000004,569.654,24.2075,10.0387,-7.0571799999999998
213803.0,50.734900000000003,90.519000000000005,120.316,96.6738,21.666399999999999,9.3957899999999999,-7.2688899999999999
213804.0,60.034500000000001,42.366500000000002,24.901299999999999,76.738100000000003,-12.6663,11.379300000000001,-14.6927
213805.0,176.22900000000001,-1001.9,-954.803,-1031.6300000000001,84.885199999999998,-6.4875100000000003,-40.049199999999999
213806.0,160.79900000000001,151.44,185.82400000000001,113.70999999999999,78.090500000000006,-7.2641600000000004,-34.1586
213807.0,139.501,-2217.2800000000002,-2206.8800000000001,-2263.2199999999998,67.439499999999995,-9.5319500000000001,-30.808499999999999
213808.0,130.65799999999999,-1871.1099999999999,-1884.3599999999999,-1923.53,62.649000000000001,-11.1045,-29.9876
213809.0,130.19,-1199.1300000000001,-1231.25,-1255.78,61.472900000000003,-12.5824,-30.092099999999999
213810.0,132.32300000000001,-2374.4000000000001,-2420.5799999999999,-2433.4899999999998,61.377200000000002,-13.908099999999999,-30.178699999999999
213811.0,132.863,-4406.5100000000002,-4471.2700000000004,-4467.5299999999997,58.610500000000002,-16.557400000000001,-29.210100000000001
213812.0,129.93899999999999,-3528.4299999999998,-3598.52,-3589.1700000000001,55.600499999999997,-17.5397,-27.941700000000001
213813.0,125.224,-3983.27,-4056.4099999999999,-4043.0,51.839599999999997,-18.2165,-26.300699999999999
213814.0,118.694,-4960.0100000000002,-5033.1400000000003,-5017.6599999999999,47.774799999999999,-18.3506,-24.3279
213815.0,110.35599999999999,-4985.2600000000002,-5057.3800000000001,-5040.3800000000001,42.648499999999999,-18.413900000000002,-21.914300000000001
213816.0,101.974,-5115.8199999999997,-5184.0200000000004,-5167.4799999999996,38.6629,-17.760400000000001,-19.757300000000001
213817.0,82.014899999999997,-5101.2299999999996,-5157.4799999999996,-5144.3400000000001,30.0595,-15.6717,-15.0703
213818.0,71.435900000000004,-4929.4300000000003,-4977.3299999999999,-4967.3999999999996,26.420999999999999,-14.0642,-12.8871
213819.0,61.238500000000002,-4760.3400000000001,-4798.8199999999997,-4792.8299999999999,23.547599999999999,-12.0991,-10.9777
213820.0,51.529400000000003,-4476.6400000000003,-4504.8800000000001,-4503.3900000000003,21.1935,-9.8546499999999995,-9.2863500000000005
213821.0,43.518900000000002,-4080.1799999999998,-4097.6000000000004,-4101.0900000000001,19.730699999999999,-7.2969999999999997,-7.9499899999999997
213822.0,38.035899999999998,-3676.1399999999999,-3682.3499999999999,-3691.1700000000001,18.906300000000002,-4.4973200000000002,-6.8931800000000001
213823.0,39.141100000000002,-2689.0999999999999,-2672.6300000000001,-2692.5300000000002,19.0625,1.6426700000000001,-5.6052799999999996
213824.0,45.290300000000002,-2147.4000000000001,-2121.9400000000001,-2146.1999999999998,20.5777,4.5640099999999997,-5.7601599999999999
213825.0,50.322099999999999,-1591.6099999999999,-1558.8299999999999,-1586.3099999999999,21.232800000000001,7.08094,-5.7898899999999998
213826.0,57.3155,-1027.02,-990.44399999999996,-1019.55,24.187100000000001,9.3550799999999992,-7.0001499999999997
213827.0,57.543300000000002,-501.697,-467.51799999999997,-494.536,24.7516,10.247299999999999,-7.8220000000000001
213828.0,231.03700000000001,-2201.5700000000002,-2240.3099999999999,-2260.0100000000002,123.02500000000001,-9.5778400000000001,-41.009
213829.0,188.28800000000001,-583.79700000000003,-538.90899999999999,-608.34799999999996,90.192099999999996,-7.1219999999999999,-48.910499999999999
213830.0,140.68600000000001,3521.6599999999999,3458.5,3463.46,59.220300000000002,-20.140000000000001,-38.097200000000001
213831.0,90.742800000000003,5465.3400000000001,5408.4300000000003,5425.8100000000004,32.287100000000002,-19.532599999999999,-21.680800000000001
213832.0,44.607399999999998,2968.8600000000001,2983.4299999999998,2963.3499999999999,22.256699999999999,-0.47202,-7.7507400000000004
213833.0,54.564799999999998,1782.71,1814.76,1784.55,24.2273,5.9838699999999996,-6.76309
213834.0,69.594300000000004,5133.9799999999996,5094.1300000000001,5103.8800000000001,26.0032,-15.611599999999999,-16.2182
213835.0,134.84800000000001,5612.5799999999999,5540.1599999999999,5556.3999999999996,53.674399999999999,-22.123999999999999,-35.306899999999999
213836.0,171.279,2363.4299999999998,2378.1700000000001,2318.3400000000001,82.668000000000006,-9.6800800000000002,-43.353400000000001
213837.0,184.113,1895.0599999999999,1930.9000000000001,1859.3,88.292400000000001,-6.9728000000000003,-46.618200000000002
213838.0,150.73400000000001,966.05700000000002,956.43100000000004,914.33699999999999,71.026499999999999,-12.950100000000001,-40.0563
213839.0,141.49799999999999,4086.3499999999999,4057.0999999999999,4030.7800000000002,64.387,-15.3195,-38.997700000000002
213840.0,139.66999999999999,3104.9099999999999,3061.1300000000001,3047.5300000000002,61.707799999999999,-17.1219,-38.762500000000003
213841.0,140.71299999999999,4236.3100000000004,4181.3900000000003,4178.1000000000004,60.680599999999998,-18.7193,-38.705100000000002
213842.0,137.24100000000001,-3664.04,-3718.5,-3721.75,59.642400000000002,-18.978100000000001,-36.192300000000003
213843.0,138.87799999999999,4447.8500000000004,4378.9099999999999,4390.3100000000004,56.938400000000001,-21.293199999999999,-36.987200000000001
213844.0,128.31200000000001,5040.5500000000002,4967.8500000000004,4986.7299999999996,49.741999999999997,-22.335799999999999,-33.041699999999999
213845.0,121.587,5368.8999999999996,5296.3100000000004,5317.3699999999999,45.656500000000001,-22.4742,-30.7181
213846.0,111.02200000000001,5549.04,5480.8400000000001,5501.5,40.639400000000002,-21.8035,-27.545300000000001
213847.0,102.352,5514.0799999999999,5449.96,5469.9099999999999,36.830199999999998,-20.952500000000001,-24.897600000000001
213848.0,93.627899999999997,-5303.8299999999999,-5363.8800000000001,-5345.7299999999996,32.498699999999999,-20.8508,-21.974499999999999
213849.0,80.519999999999996,5357.0299999999997,5307.8100000000004,5321.9499999999998,29.045000000000002,-17.776399999999999,-18.959900000000001
213850.0,59.640599999999999,4788.9200000000001,4759.0500000000002,4763.8000000000002,23.750800000000002,-13.154400000000001,-13.8156
213851.0,50.813200000000002,4449.6999999999998,4430.79,4429.75,22.171199999999999,-10.3246,-11.6785
213852.0,44.793900000000001,4020.9000000000001,4013.1700000000001,4005.9699999999998,21.472100000000001,-7.2417600000000002,-9.9786099999999998
213853.0,42.804299999999998,3510.77,3515.1700000000001,3500.98,21.6675,-3.7193100000000001,-8.6407299999999996
213854.0,38.983199999999997,-3326.48,-3319.8200000000002,-3334.52,19.641200000000001,-3.1056300000000001,-7.5499700000000001
213855.0,49.160600000000002,2393.5500000000002,2419.1300000000001,2392.6999999999998,22.883199999999999,3.1031900000000001,-6.8395900000000003
213856.0,61.457599999999999,1186.9400000000001,1226.5,1191.72,25.753599999999999,9.1562999999999999,-6.7546600000000003
213857.0,62.5197,610.61300000000006,648.46400000000006,614.76199999999994,26.6219,10.322900000000001,-7.5283499999999997
213858.0,55.2254,93.5505,123.729,95.658199999999994,24.182700000000001,9.3136399999999995,-7.8238700000000003
213859.0,59.9315,16.360600000000002,-0.090348399999999995,48.446800000000003,-11.152100000000001,14.451700000000001,-15.9595
213860.0,183.08799999999999,-587.13699999999994,-540.81600000000003,-618.39300000000003,86.396500000000003,-7.7008900000000002,-46.116
213861.0,167.97300000000001,-2749.5599999999999,-2714.2399999999998,-2788.1599999999999,79.577799999999996,-9.1606500000000004,-40.2669
213862.0,146.06999999999999,-1304.1500000000001,-1291.9300000000001,-1349.8800000000001,68.470399999999998,-11.984999999999999,-36.7059
213863.0,135.97999999999999,-2498.3600000000001,-2509.1799999999998,-2549.6700000000001,62.897199999999998,-13.990500000000001,-35.781700000000001
213864.0,134.577,-4029.3699999999999,-4058.96,-4084.3400000000001,61.168599999999998,-15.7079,-35.943300000000001
213865.0,136.26599999999999,-3747.1100000000001,-3790.8099999999999,-3803.9899999999998,60.714500000000001,-17.331800000000001,-36.280299999999997
213866.0,136.41999999999999,-3479.7199999999998,-3541.9899999999998,-3537.3400000000001,57.616300000000003,-20.4283,-35.543500000000002
213867.0,133.34899999999999,-5143.3699999999999,-5210.8599999999997,-5200.0900000000001,54.496000000000002,-21.599,-34.298699999999997
213868.0,128.39599999999999,-5361.54,-5431.9700000000003,-5416.6700000000001,50.6312,-22.381799999999998,-32.528799999999997
213869.0,121.57899999999999,-4919.6599999999999,-4989.9700000000003,-4972.2600000000002,46.506700000000002,-22.524799999999999,-30.327999999999999
213870.0,112.92700000000001,-5268.6899999999996,-5337.8999999999996,-5318.3299999999999,41.322499999999998,-22.5901,-27.572900000000001
213871.0,104.24299999999999,-5349.5699999999997,-5414.8199999999997,-5395.5799999999999,37.359999999999999,-21.814699999999998,-25.0289
213872.0,83.7346,-5275.8900000000003,-5329.3599999999997,-5313.4899999999998,28.921500000000002,-19.341999999999999,-19.300999999999998
213873.0,73.010999999999996,-5158.8100000000004,-5204.1700000000001,-5191.6599999999999,25.472200000000001,-17.468599999999999,-16.558700000000002
213874.0,62.721600000000002,-4883.6700000000001,-4919.8999999999996,-4911.6199999999999,22.803999999999998,-15.223800000000001,-14.113300000000001
213875.0,52.994399999999999,-4578.5799999999999,-4604.8999999999996,-4601.5100000000002,20.714600000000001,-12.6768,-11.8894
213876.0,44.979100000000003,-4253.8000000000002,-4269.5799999999999,-4271.71,19.5259,-9.79739,-10.0708
213877.0,39.561,-3816.7399999999998,-3821.5700000000002,-3829.6700000000001,19.014600000000002,-6.6459900000000003,-8.5626700000000007
213878.0,40.9467,-2810.6799999999998,-2793.2399999999998,-2813.9899999999998,19.822900000000001,0.32604699999999998,-6.4472100000000001
213879.0,47.467199999999998,-2245.21,-2219.0700000000002,-2244.9400000000001,21.702999999999999,3.7413099999999999,-6.36416
213880.0,52.879899999999999,-1662.45,-1629.1900000000001,-1659.1099999999999,22.660399999999999,6.7592600000000003,-6.1303599999999996
213881.0,60.860300000000002,-1097.8199999999999,-1060.8599999999999,-1093.47,26.117000000000001,9.4565199999999994,-7.4211900000000002
213882.0,62.188099999999999,-540.66499999999996,-505.90300000000002,-537.32100000000003,27.189699999999998,10.5097,-8.4623799999999996
213883.0,242.34100000000001,719.36699999999996,678.31399999999996,657.86699999999996,126.337,-10.8726,-50.1614
213884.0,197.99799999999999,1564.52,1610.5,1538.48,93.251400000000004,-8.1811100000000003,-54.544699999999999
213885.0,146.83699999999999,4804.7299999999996,4743.5100000000002,4749.9099999999999,58.605699999999999,-24.250699999999998,-45.077399999999997
213886.0,95.761600000000001,5792.4799999999996,5737.6300000000001,5759.8299999999999,30.615400000000001,-24.0946,-27.8858
213887.0,47.008200000000002,3166.3200000000002,3183.6199999999999,3161.4899999999998,22.477799999999998,-2.1575500000000001,-9.5545100000000005
213888.0,59.0443,1919.6700000000001,1954.6500000000001,1919.5799999999999,25.8398,4.7393999999999998,-7.9382799999999998
213889.0,72.996600000000001,5390.0900000000001,5352.7700000000004,5366.4700000000003,24.278099999999998,-19.4221,-21.287800000000001
213890.0,141.262,4341.2600000000002,4270.4300000000003,4289.6000000000004,52.841099999999997,-26.688600000000001,-42.488500000000002
213891.0,179.143,1106.4100000000001,1123.6400000000001,1061.47,83.805300000000003,-12.021699999999999,-49.992400000000004
213892.0,191.785,382.03300000000002,419.18400000000003,345.41399999999999,89.543700000000001,-8.7673699999999997,-52.962299999999999
213893.0,158.27699999999999,3527.6500000000001,3520.9400000000001,3477.02,72.008099999999999,-15.810499999999999,-46.467700000000001
213894.0,148.24100000000001,1367.28,1340.76,1313.49,64.838999999999999,-18.534300000000002,-45.324599999999997
213895.0,145.928,3311.1999999999998,3269.8299999999999,3256.1199999999999,61.636899999999997,-20.662700000000001,-45.280000000000001
213896.0,146.755,3149.25,3096.5100000000002,3093.9000000000001,60.260100000000001,-22.561699999999998,-45.423699999999997
213897.0,142.77799999999999,-3711.1900000000001,-3763.7199999999998,-3766.0,59.098999999999997,-22.718,-42.718499999999999
213898.0,145.142,4747.96,4680.8000000000002,4694.3999999999996,56.190199999999997,-25.652899999999999,-44.109699999999997
213899.0,134.74100000000001,5526.5500000000002,5455.4099999999999,5477.8900000000003,48.749499999999998,-27.0807,-40.243699999999997
213900.0,127.92,5644.6099999999997,5573.6000000000004,5598.8599999999997,44.503,-27.331399999999999,-37.833500000000001
213901.0,117.105,5730.96,5664.3599999999997,5689.6400000000003,39.296399999999998,-26.6477,-34.450499999999998
213902.0,107.959,5847.6000000000004,5785.3500000000004,5810.1099999999997,35.286900000000003,-25.734200000000001,-31.5472
213903.0,98.900800000000004,-5665.6199999999999,-5723.75,-5700.9499999999998,30.976700000000001,-25.556999999999999,-28.1082
213904.0,84.735900000000001,5619.3000000000002,5572.4499999999998,5591.0900000000001,27.269200000000001,-22.0154,-24.669699999999999
213905.0,62.223799999999997,5123.4099999999999,5096.1999999999998,5104.0600000000004,22.185099999999998,-16.485900000000001,-18.183800000000002
213906.0,52.780099999999997,4704.6999999999998,4688.5,4689.4700000000003,20.910499999999999,-13.181900000000001,-15.3284
213907.0,46.433100000000003,4243.0100000000002,4238.0,4231.5299999999997,20.614999999999998,-9.6614199999999997,-12.9307
213908.0,44.588700000000003,3742.73,3749.8600000000001,3734.9899999999998,21.308499999999999,-5.7502599999999999,-10.969099999999999
213909.0,41.0807,-3558.4299999999998,-3548.8899999999999,-3564.4299999999998,19.5867,-5.23895,-9.4890000000000008
213910.0,52.474800000000002,2546.3800000000001,2574.77,2544.8400000000001,23.733899999999998,1.6970499999999999,-8.2203199999999992
213911.0,67.227199999999996,1275.6500000000001,1318.1300000000001,1277.01,28.1633,8.3179800000000004,-7.8263400000000001
213912.0,69.525800000000004,644.70699999999999,685.23400000000004,644.05499999999995,29.814399999999999,9.5788399999999996,-8.6136099999999995
213913.0,61.751399999999997,101.53400000000001,133.12700000000001,98.177800000000005,27.541399999999999,8.30321,-8.4734999999999996
213914.0,59.526200000000003,15.1387,-1.53084,43.622100000000003,-9.7745599999999992,17.719100000000001,-15.820499999999999
213915.0,190.22800000000001,-1126.1500000000001,-1080.73,-1159.0899999999999,87.8215,-8.8169500000000003,-52.189999999999998
213916.0,175.66999999999999,-33.928699999999999,2.4514,-73.256500000000003,81.019099999999995,-11.0867,-46.539700000000003
213917.0,153.446,-2458.9099999999999,-2444.6199999999999,-2504.1300000000001,69.6524,-14.4856,-42.688099999999999
213918.0,142.489,-2153.96,-2162.4299999999998,-2204.04,63.474699999999999,-16.859100000000002,-41.662300000000002
213919.0,140.32499999999999,-1509.8399999999999,-1537.1099999999999,-1562.9300000000001,61.161799999999999,-18.872199999999999,-41.974800000000002
213920.0,141.72399999999999,-2706.98,-2748.5500000000002,-2761.5100000000002,60.3322,-20.787800000000001,-42.562100000000001
213921.0,142.14699999999999,-4781.4700000000003,-4842.0200000000004,-4835.6700000000001,56.944400000000002,-24.447600000000001,-42.281399999999998
213922.0,139.28700000000001,-3926.5999999999999,-3992.5500000000002,-3979.3400000000001,53.759700000000002,-25.850300000000001,-41.121099999999998
213923.0,134.464,-4402.9899999999998,-4471.9899999999998,-4453.5600000000004,49.769599999999997,-26.8626,-39.394199999999998
213924.0,127.663,-5397.9099999999999,-5466.79,-5445.3699999999999,45.489199999999997,-27.1784,-37.176299999999998
213925.0,118.91,-5437.4099999999999,-5505.1300000000001,-5481.3299999999999,40.142400000000002,-27.345300000000002,-34.257599999999996
213926.0,109.925,-5577.0799999999999,-5640.6800000000003,-5616.9399999999996,35.964300000000001,-26.591100000000001,-31.530999999999999
213927.0,88.391000000000005,-5563.3599999999997,-5614.5699999999997,-5594.1899999999996,27.261900000000001,-23.8675,-25.030899999999999
213928.0,76.980699999999999,-5383.4200000000001,-5426.2200000000003,-5409.54,23.8048,-21.686199999999999,-21.748100000000001
213929.0,65.930499999999995,-5201.3000000000002,-5234.75,-5222.8900000000003,21.227900000000002,-19.042000000000002,-18.658799999999999
213930.0,55.5319,-4899.5799999999999,-4922.9700000000003,-4916.8599999999997,19.364599999999999,-16.0474,-15.754099999999999
213931.0,47.002400000000002,-4480.8000000000002,-4493.6099999999997,-4494.0900000000001,18.513999999999999,-12.719099999999999,-13.23
213932.0,41.407299999999999,-4049.5700000000002,-4051.4400000000001,-4059.0999999999999,18.441600000000001,-9.1512200000000004,-11.054
213933.0,43.6432,-2990.8299999999999,-2970.5300000000002,-2993.4400000000001,20.334499999999998,-1.45353,-7.87554
213934.0,51.127299999999998,-2403.4699999999998,-2374.4899999999998,-2403.9099999999999,22.918800000000001,2.1521699999999999,-7.5586599999999997
213935.0,57.541200000000003,-1794.9100000000001,-1758.9000000000001,-1793.6300000000001,24.613299999999999,5.37751,-7.1839599999999999
213936.0,66.851299999999995,-1171.51,-1131.8299999999999,-1170.73,28.8081,8.4125499999999995,-8.6173099999999998
213937.0,69.291799999999995,-580.096,-543.09000000000003,-581.70399999999995,30.636800000000001,9.6848500000000008,-9.5317000000000007
213938.0,252.48400000000001,-2289.29,-2331.3699999999999,-2354.0500000000002,128.06,-12.357100000000001,-60.145600000000002
213939.0,207.934,-509.44799999999998,-461.452,-536.92499999999995,95.485600000000005,-9.5995299999999997,-61.183300000000003
213940.0,154.90000000000001,3978.2800000000002,3918.3099999999999,3926.8800000000001,58.369,-28.4375,-52.254899999999999
213941.0,106.732,6231.7700000000004,6176.0299999999997,6206.2200000000003,29.270600000000002,-29.9954,-35.526200000000003
213942.0,49.055300000000003,3472.9099999999999,3496.29,3471.02,21.252400000000002,-3.0096799999999999,-11.9719
213943.0,63.985999999999997,2101.77,2141.9499999999998,2100.4499999999998,26.508500000000002,5.0496699999999999,-8.9535699999999991
213944.0,81.962000000000003,5915.2299999999996,5878.8599999999997,5899.7399999999998,22.172499999999999,-24.717199999999998,-28.347100000000001
213945.0,150.577,6162.3800000000001,6091.79,6115.1599999999999,52.523299999999999,-31.5502,-50.107700000000001
213946.0,187.57499999999999,2591.3099999999999,2611.1900000000001,2546.75,84.751000000000005,-14.3719,-57.008899999999997
213947.0,199.947,2049.9000000000001,2088.9200000000001,2012.76,90.439599999999999,-10.721299999999999,-59.8459
213948.0,166.583,1255.3,1251.6099999999999,1206.2,72.9846,-18.6432,-53.178699999999999
213949.0,156.08099999999999,4422.4700000000003,4398.7200000000003,4370.8100000000004,65.439999999999998,-21.7378,-51.931600000000003
213950.0,153.46700000000001,3481.4400000000001,3442.3400000000001,3428.9299999999998,61.811100000000003,-24.1953,-51.963900000000002
213951.0,154.386,4651.0100000000002,4600.04,4598.6000000000004,60.119599999999998,-26.4087,-52.363799999999998
213952.0,149.91,-4090.0700000000002,-4141.1300000000001,-4141.8800000000001,58.849600000000002,-26.4787,-49.441099999999999
213953.0,153.78200000000001,4949.8299999999999,4883.3999999999996,4900.1800000000003,55.900799999999997,-30.172899999999998,-51.520899999999997
213954.0,144.71700000000001,5641.3500000000004,5569.8000000000002,5597.5100000000002,48.373600000000003,-32.239800000000002,-47.9589
213955.0,138.416,6019.1999999999998,5947.4099999999999,5978.8400000000001,43.985599999999998,-32.7898,-45.621699999999997
213956.0,128.12100000000001,6246.1899999999996,6178.3800000000001,6210.6999999999998,38.617699999999999,-32.343400000000003,-42.237099999999998
213957.0,119.038,6250.8900000000003,6187.4899999999998,6219.8900000000003,34.247,-31.613199999999999,-39.318600000000004
213958.0,109.607,-6040.9700000000003,-6100.3699999999999,-6069.8999999999996,29.7819,-31.287500000000001,-35.448900000000002
213959.0,94.970100000000002,6139.6199999999999,6092.6000000000004,6119.1000000000004,25.515999999999998,-27.7453,-32.090699999999998
213960.0,69.295299999999997,5550.2700000000004,5525.4200000000001,5539.1000000000004,19.8489,-21.047799999999999,-24.672999999999998
213961.0,57.600099999999998,5171.4099999999999,5158.9899999999998,5163.7700000000004,18.550899999999999,-16.749099999999999,-21.024100000000001
213962.0,49.241700000000002,4684.0699999999997,4684.1099999999997,4678.9099999999999,18.456900000000001,-12.1503,-17.635899999999999
213963.0,46.439999999999998,4099.8400000000001,4112.7700000000004,4096.6599999999999,19.536300000000001,-7.2742399999999998,-14.5433
213964.0,42.986899999999999,-3898.6500000000001,-3882.4299999999998,-3899.4699999999998,18.006499999999999,-6.8902700000000001,-12.3224
213965.0,55.7209,2806.9000000000001,2840.6500000000001,2806.0799999999999,23.391400000000001,1.4206399999999999,-9.8245900000000006
213966.0,74.2624,1407.4400000000001,1454.8199999999999,1405.6099999999999,30.0291,9.0777699999999992,-8.6954100000000007
213967.0,76.765000000000001,723.86900000000003,768.81100000000004,719.41200000000003,31.981200000000001,10.0389,-9.6979100000000003
213968.0,68.668499999999995,106.268,141.30699999999999,98.810199999999995,29.956800000000001,7.47051,-10.1828
213969.0,60.619999999999997,12.369400000000001,-5.85161,39.012,-11.4777,19.508299999999998,-14.2661
213970.0,197.792,-699.11000000000001,-654.30100000000004,-733.78800000000001,88.991,-10.0639,-58.581000000000003
213971.0,183.78700000000001,-2935.9899999999998,-2898.3299999999999,-2975.7600000000002,82.276499999999999,-13.051299999999999,-53.106400000000001
213972.0,161.458,-1558.5799999999999,-1542.1900000000001,-1603.01,70.850700000000003,-16.944400000000002,-48.910800000000002
213973.0,149.875,-2806.52,-2812.54,-2854.9299999999998,64.185500000000005,-19.724299999999999,-47.776000000000003
213974.0,147.17500000000001,-4379.6899999999996,-4404.6700000000001,-4430.6400000000003,61.3538,-22.032399999999999,-48.181899999999999
213975.0,148.50700000000001,-4134.8599999999997,-4174.5200000000004,-4186.8000000000002,60.209899999999998,-24.247299999999999,-49.003599999999999
213976.0,149.83699999999999,-3947.8600000000001,-4007.46,-3998.5900000000001,56.683399999999999,-28.5336,-49.2194
213977.0,147.66200000000001,-5656.04,-5721.5500000000002,-5704.8400000000001,53.483699999999999,-30.273599999999998,-48.295200000000001
213978.0,143.488,-5922.0,-5991.1000000000004,-5968.1700000000001,49.453299999999999,-31.5931,-46.693899999999999
213979.0,137.30199999999999,-5529.3500000000004,-5598.9399999999996,-5572.0100000000002,45.056100000000001,-32.207599999999999,-44.555
213980.0,129.14400000000001,-5926.1800000000003,-5994.9799999999996,-5964.7700000000004,39.573,-32.663699999999999,-41.680999999999997
213981.0,120.435,-6050.5900000000001,-6115.54,-6084.6700000000001,35.063899999999997,-32.151400000000002,-38.939700000000002
213982.0,98.784300000000002,-6038.8900000000003,-6090.8999999999996,-6062.6999999999998,25.642399999999999,-29.6387,-32.232599999999998
213983.0,86.641999999999996,-5933.4099999999999,-5976.1000000000004,-5951.8900000000003,21.785699999999999,-27.311900000000001,-28.691800000000001
213984.0,74.259699999999995,-5653.1400000000003,-5685.1499999999996,-5666.6000000000004,18.861599999999999,-24.2744,-25.197500000000002
213985.0,61.990900000000003,-5325.1700000000001,-5345.5299999999997,-5334.1999999999998,16.835999999999999,-20.5946,-21.664200000000001
213986.0,51.2483,-4958.6800000000003,-4966.79,-4964.1599999999999,16.033100000000001,-16.334,-18.2882
213987.0,43.891500000000001,-4462.3500000000004,-4458.1999999999998,-4465.1800000000003,16.310300000000002,-11.7326,-15.0383
213988.0,46.417499999999997,-3299.3600000000001,-3272.8000000000002,-3298.5900000000001,19.6309,-2.4984899999999999,-9.9046299999999992
213989.0,54.628100000000003,-2646.8200000000002,-2612.3099999999999,-2645.9499999999998,22.930299999999999,1.72986,-8.8675800000000002
213990.0,62.652999999999999,-1974.25,-1933.27,-1973.5799999999999,25.711600000000001,5.5051600000000001,-8.1354799999999994
213991.0,73.645499999999998,-1312.8499999999999,-1268.02,-1314.0599999999999,30.716799999999999,8.8438499999999998,-9.8755500000000005
213992.0,76.607699999999994,-652.15800000000002,-610.61400000000003,-656.55600000000004,33.022599999999997,9.5096000000000007,-11.517300000000001
213993.0,261.29599999999999,550.95699999999999,508.63999999999999,483.30900000000003,128.708,-13.8508,-69.518600000000006
213994.0,217.24000000000001,1646.29,1695.79,1617.22,97.927400000000006,-10.8148,-66.679500000000004
213995.0,164.32599999999999,5331.1400000000003,5272.0500000000002,5283.3400000000001,58.354900000000001,-32.604700000000001,-59.571399999999997
213996.0,123.67400000000001,6890.3900000000003,6828.54,6870.3599999999997,29.0289,-36.959899999999998,-43.515500000000003
213997.0,54.284399999999998,4016.02,4052.04,4021.8299999999999,18.167400000000001,-2.2896000000000001,-16.5182
213998.0,69.872799999999998,2388.9699999999998,2442.0,2393.3499999999999,24.069099999999999,8.6471400000000003,-10.3315
213999.0,98.872,6615.3400000000001,6573.75,6606.8100000000004,20.969899999999999,-31.9331,-36.284599999999998
214000.0,161.982,5006.9799999999996,4935.4399999999996,4964.0299999999997,52.684199999999997,-36.4681,-57.825400000000002
214001.0,196.44499999999999,1343.78,1366.5,1299.9100000000001,85.572900000000004,-16.7029,-64.154399999999995
214002.0,208.26599999999999,540.83900000000006,581.73599999999999,503.23099999999999,91.302700000000002,-12.5685,-66.500900000000001
214003.0,175.5,3834.3000000000002,3833.8499999999999,3787.0799999999999,73.880300000000005,-21.3933,-60.120100000000001
214004.0,164.74199999999999,1733.1800000000001,1712.3599999999999,1684.03,66.128100000000003,-24.859500000000001,-58.7117
214005.0,161.94200000000001,3728.2399999999998,3691.48,3678.6300000000001,62.093899999999998,-27.654900000000001,-58.807099999999998
214006.0,163.15199999999999,3618.8000000000002,3569.4499999999998,3569.6500000000001,60.194899999999997,-30.2118,-59.3979
214007.0,158.179,-4196.8199999999997,-4246.5600000000004,-4245.3100000000004,58.801499999999997,-30.212499999999999,-56.2592
214008.0,164.136,5339.5500000000002,5273.1400000000003,5293.8599999999997,55.953499999999998,-34.718699999999998,-59.070799999999998
214009.0,157.36199999999999,6272.1499999999996,6198.4899999999998,6232.8500000000004,48.601300000000002,-37.5974,-55.857700000000001
214010.0,152.08600000000001,6476.9300000000003,6402.0100000000002,6441.3999999999996,44.200099999999999,-38.526299999999999,-53.552399999999999
214011.0,143.16999999999999,6652.9200000000001,6580.6199999999999,6622.3199999999997,38.828400000000002,-38.517400000000002,-50.2425
214012.0,134.952,6859.6800000000003,6790.9300000000003,6833.9099999999999,34.191099999999999,-38.201999999999998,-47.288400000000003
214013.0,125.331,-6686.9899999999998,-6752.1899999999996,-6710.75,29.592199999999998,-37.663699999999999,-43.047400000000003
214014.0,112.226,6790.9700000000003,6737.8699999999999,6776.5799999999999,24.8172,-34.965400000000002,-40.070099999999996
214015.0,84.688100000000006,6369.6999999999998,6341.7799999999997,6366.6099999999997,18.046399999999998,-27.8156,-32.511899999999997
214016.0,70.264700000000005,5928.1599999999999,5915.96,5929.6899999999996,16.16,-22.499300000000002,-28.666399999999999
214017.0,58.104700000000001,5391.1899999999996,5395.6700000000001,5395.8999999999996,15.519299999999999,-16.202400000000001,-24.7986
214018.0,52.0261,4762.3100000000004,4783.8400000000001,4768.7200000000003,16.169899999999998,-9.2614000000000001,-20.804600000000001
214019.0,47.474400000000003,-4535.46,-4508.2700000000004,-4525.2600000000002,13.741400000000001,-8.6520600000000005,-17.290299999999998
214020.0,61.820300000000003,3204.0500000000002,3252.1999999999998,3209.8299999999999,20.486599999999999,4.2128199999999998,-12.0541
214021.0,81.273700000000005,1572.8599999999999,1630.45,1574.01,28.932400000000001,12.976599999999999,-10.594099999999999
214022.0,81.084199999999996,777.98000000000002,831.46199999999999,776.45399999999995,30.261800000000001,13.3657,-10.755699999999999
214023.0,71.444800000000001,120.149,159.303,113.55200000000001,29.058900000000001,10.128399999999999,-11.950799999999999
214024.0,61.826099999999997,46.105800000000002,25.8142,68.525899999999993,-13.1045,21.844200000000001,-12.992699999999999
214025.0,205.48699999999999,-1251.51,-1207.4100000000001,-1288.1199999999999,90.101900000000001,-11.2819,-64.778300000000002
214026.0,192.227,-230.19999999999999,-191.054,-270.21600000000001,83.340199999999996,-15.002800000000001,-59.830399999999997
214027.0,170.053,-2728.0999999999999,-2709.3099999999999,-2771.3200000000002,71.966800000000006,-19.413699999999999,-55.425699999999999
214028.0,158.011,-2486.4899999999998,-2489.8099999999999,-2532.8499999999999,64.933499999999995,-22.536799999999999,-54.125599999999999
214029.0,154.876,-1895.24,-1917.73,-1943.5699999999999,61.637599999999999,-25.166599999999999,-54.5715
214030.0,156.26499999999999,-3141.1300000000001,-3178.8099999999999,-3190.1199999999999,60.2226,-27.6584,-55.585900000000002
214031.0,158.95400000000001,-5324.6099999999997,-5383.6499999999996,-5371.6599999999999,56.680500000000002,-32.616999999999997,-56.317900000000002
214032.0,157.79400000000001,-4536.4099999999999,-4602.29,-4581.1899999999996,53.611400000000003,-34.710099999999997,-55.576099999999997
214033.0,154.71700000000001,-5086.3400000000001,-5156.7799999999997,-5128.1700000000001,49.670400000000001,-36.406399999999998,-54.143700000000003
214034.0,149.66800000000001,-6160.6199999999999,-6232.7200000000003,-6198.6899999999996,45.259999999999998,-37.436900000000001,-52.115699999999997
214035.0,142.72,-6285.04,-6357.4399999999996,-6318.8299999999999,39.809399999999997,-38.240900000000003,-49.293500000000002
214036.0,135.01300000000001,-6511.6800000000003,-6581.4300000000003,-6540.8100000000004,35.029499999999999,-38.152700000000003,-46.541200000000003
214037.0,115.194,-6665.1899999999996,-6723.54,-6683.4700000000003,24.986499999999999,-36.372799999999998,-39.814700000000002
214038.0,103.312,-6552.9700000000003,-6601.8800000000001,-6565.3100000000004,20.577400000000001,-34.266399999999997,-36.238100000000003
214039.0,90.325800000000001,-6416.2200000000003,-6453.2799999999997,-6422.6099999999997,16.942299999999999,-31.203499999999998,-32.654899999999998
214040.0,76.354900000000001,-6126.0699999999997,-6148.96,-6126.7799999999997,14.156000000000001,-27.078099999999999,-28.988299999999999
214041.0,62.5383,-5674.7200000000003,-5681.4899999999998,-5670.5299999999997,12.5837,-21.810700000000001,-25.279399999999999
214042.0,51.327500000000001,-5159.9700000000003,-5149.5600000000004,-5152.0500000000002,12.289999999999999,-15.558199999999999,-21.3432
214043.0,51.521599999999999,-3798.79,-3757.3800000000001,-3787.8299999999999,16.151599999999998,-1.4830099999999999,-12.700200000000001
214044.0,61.039900000000003,-3023.8400000000001,-2974.3800000000001,-3013.6399999999999,20.558599999999998,4.3082599999999998,-10.907999999999999
214045.0,69.155900000000003,-2233.8299999999999,-2180.8800000000001,-2226.04,24.366299999999999,8.4844299999999997,-10.5517
214046.0,80.519199999999998,-1444.28,-1388.1800000000001,-1440.6900000000001,29.660299999999999,12.557499999999999,-11.730499999999999
214047.0,81.118399999999994,-689.31500000000005,-640.92700000000002,-690.25400000000002,32.336300000000001,11.9734,-14.44
214048.0,268.24599999999998,-2368.23,-2409.5799999999999,-2438.6199999999999,127.447,-15.4795,-79.066699999999997
214049.0,226.374,-444.577,-392.495,-475.02199999999999,99.308099999999996,-12.4354,-72.960999999999999
214050.0,174.37899999999999,4553.5100000000002,4495.3100000000004,4509.6599999999999,58.436100000000003,-36.596400000000003,-66.802599999999998
214051.0,142.50399999999999,7564.5,7492.54,7547.8999999999996,29.897200000000002,-43.706899999999997,-50.450600000000001
214052.0,64.111599999999996,4923.96,4971.8900000000003,4936.0200000000004,17.146999999999998,-1.23438,-21.283799999999999
214053.0,84.427499999999995,2812.0100000000002,2886.8899999999999,2823.9000000000001,20.840599999999998,13.875999999999999,-11.389699999999999
214054.0,118.96899999999999,7508.5699999999997,7454.0100000000002,7502.4399999999996,21.541399999999999,-39.443300000000001,-42.483699999999999
214055.0,174.25899999999999,6903.1599999999999,6830.3000000000002,6864.7200000000003,53.0854,-41.223199999999999,-65.393900000000002
214056.0,205.70599999999999,2830.21,2856.1599999999999,2787.4000000000001,86.056899999999999,-19.042200000000001,-71.628900000000002
214057.0,216.93100000000001,2203.1799999999998,2246.6199999999999,2165.46,91.798000000000002,-14.5603,-73.469499999999996
214058.0,184.94800000000001,1573.29,1576.5,1528.4200000000001,74.590299999999999,-24.084299999999999,-67.346800000000002
214059.0,173.99000000000001,4807.4200000000001,4790.0100000000002,4761.3100000000004,66.688599999999994,-27.8825,-65.756900000000002
214060.0,170.99700000000001,3927.8400000000001,3893.75,3881.5999999999999,62.366100000000003,-30.968800000000002,-65.752600000000001
214061.0,172.49299999999999,5158.1300000000001,5110.6400000000003,5112.6099999999997,60.250500000000002,-33.855899999999998,-66.480400000000003
214062.0,167.012,-4617.6300000000001,-4665.8299999999999,-4662.3500000000004,58.762300000000003,-33.801900000000003,-63.083100000000002
214063.0,175.20599999999999,5602.6599999999999,5536.1000000000004,5561.1999999999998,56.1586,-39.089500000000001,-66.488799999999998
214064.0,171.03299999999999,6482.8800000000001,6406.29,6448.1000000000004,49.217599999999997,-42.7624,-63.477899999999998
214065.0,166.90799999999999,6971.1000000000004,6891.8900000000003,6940.1899999999996,44.926900000000003,-44.0503,-61.101100000000002
214066.0,159.58000000000001,7318.21,7239.6000000000004,7291.9099999999999,39.748600000000003,-44.466299999999997,-57.708199999999998
214067.0,152.381,7450.25,7373.46,7428.5,34.984400000000001,-44.5274,-54.468400000000003
214068.0,142.696,-7256.1199999999999,-7329.9399999999996,-7275.7799999999997,30.382200000000001,-43.789400000000001,-49.853999999999999
214069.0,131.887,7606.7799999999997,7541.8900000000003,7595.25,25.5501,-42.1158,-46.617899999999999
214070.0,104.108,7249.1199999999999,7208.2600000000002,7248.3400000000001,18.384899999999998,-35.446800000000003,-38.369799999999998
214071.0,87.529300000000006,6934.3999999999996,6910.9300000000003,6938.6999999999998,16.203199999999999,-29.835999999999999,-34.316600000000001
214072.0,71.049099999999996,6444.2399999999998,6441.7299999999996,6452.8500000000004,15.1585,-22.365300000000001,-30.3095
214073.0,60.061500000000002,5763.4200000000001,5784.6899999999996,5775.04,15.2027,-13.049899999999999,-26.223800000000001
214074.0,51.255899999999997,-5498.5100000000002,-5469.1000000000004,-5481.1099999999997,9.7169600000000003,-11.1317,-20.9452
214075.0,77.121600000000001,3898.1700000000001,3968.6799999999998,3912.0,17.564,9.1612500000000008,-13.928800000000001
214076.0,92.6327,1833.9200000000001,1907.78,1840.76,26.8873,17.287400000000002,-13.1523
214077.0,87.521600000000007,914.16200000000003,981.01300000000003,918.62199999999996,26.584,16.799499999999998,-12.9413
214078.0,74.182299999999998,171.398,220.464,172.00700000000001,25.7258,12.358499999999999,-15.070600000000001
214079.0,63.110999999999997,32.232199999999999,7.8183499999999997,46.419400000000003,-13.883100000000001,24.7989,-11.777699999999999
214080.0,213.41,-808.10699999999997,-764.27300000000002,-846.697,90.907899999999998,-12.6684,-71.103999999999999
214081.0,200.917,-3128.5599999999999,-3087.71,-3168.5599999999999,84.140699999999995,-16.956600000000002,-66.742199999999997
214082.0,179.11199999999999,-1833.3699999999999,-1811.8499999999999,-1875.02,72.912599999999998,-21.835599999999999,-62.2044
214083.0,166.75200000000001,-3153.5300000000002,-3153.6999999999998,-3197.27,65.605699999999999,-25.3079,-60.7361
214084.0,163.18000000000001,-4788.5799999999999,-4808.1599999999999,-4833.79,61.886200000000002,-28.207899999999999,-61.125500000000002
214085.0,164.571,-4601.6499999999996,-4637.0,-4647.1700000000001,60.215200000000003,-30.957100000000001,-62.230899999999998
214086.0,168.68600000000001,-4544.3599999999997,-4602.8299999999999,-4587.3199999999997,56.793900000000001,-36.536799999999999,-63.303100000000001
214087.0,168.69,-6330.3599999999997,-6396.7200000000003,-6370.7299999999996,53.922600000000003,-38.999299999999998,-62.758600000000001
214088.0,166.845,-6685.4300000000003,-6757.6199999999999,-6722.6499999999996,50.195700000000002,-41.049100000000003,-61.412199999999999
214089.0,163.09800000000001,-6392.6800000000003,-6468.1099999999997,-6426.0600000000004,45.910200000000003,-42.480600000000003,-59.381599999999999
214090.0,157.53999999999999,-6899.1599999999999,-6976.3800000000001,-6928.2600000000002,40.663600000000002,-43.625100000000003,-56.528599999999997
214091.0,150.971,-7140.9399999999996,-7217.3800000000001,-7165.5900000000001,35.765999999999998,-43.928600000000003,-53.537599999999998
214092.0,133.596,-7384.0100000000002,-7452.9099999999999,-7398.6899999999996,25.599900000000002,-42.867800000000003,-46.251899999999999
214093.0,122.51900000000001,-7407.3500000000004,-7468.5500000000002,-7416.6499999999996,20.966000000000001,-41.096699999999998,-42.279400000000003
214094.0,109.657,-7246.1800000000003,-7296.6700000000001,-7249.9099999999999,16.919599999999999,-38.283099999999997,-38.271799999999999
214095.0,94.602999999999994,-7013.4899999999998,-7049.75,-7011.5699999999997,13.6014,-34.133699999999997,-34.2117
214096.0,77.665199999999999,-6696.8000000000002,-6714.8999999999996,-6689.2399999999998,11.1746,-28.360800000000001,-30.1251
214097.0,60.925400000000003,-6179.1599999999999,-6175.1800000000003,-6166.3900000000003,9.8198899999999991,-20.7041,-25.874400000000001
214098.0,60.575099999999999,-4660.8800000000001,-4601.79,-4639.8800000000001,11.422800000000001,1.2056800000000001,-13.922599999999999
214099.0,77.439599999999999,-3600.9000000000001,-3527.4200000000001,-3580.5799999999999,17.8809,9.2767700000000008,-12.392200000000001
214100.0,84.108900000000006,-2545.0500000000002,-2472.79,-2529.5999999999999,23.726400000000002,12.6553,-13.681800000000001
214101.0,92.433499999999995,-1622.55,-1549.26,-1612.1099999999999,28.017499999999998,16.489799999999999,-14.813599999999999
214102.0,88.120199999999997,-720.89099999999996,-660.70899999999995,-715.94399999999996,30.5105,14.2957,-18.355
214103.0,273.12400000000002,410.12900000000002,370.68099999999998,337.26900000000001,124.52,-17.158000000000001,-87.953500000000005
214104.0,234.517,1716.27,1770.24,1684.26,100.84999999999999,-13.8741,-77.981399999999994
214105.0,184.249,5929.8900000000003,5873.1800000000003,5890.5299999999997,58.315300000000001,-40.256900000000002,-73.826700000000002
214106.0,158.41300000000001,8264.4699999999993,8182.9499999999998,8250.6599999999999,31.341200000000001,-48.905099999999997,-55.565399999999997
214107.0,63.107500000000002,5820.3800000000001,5861.96,5823.7200000000003,21.3825,-0.43584200000000001,-18.339500000000001
214108.0,100.946,3349.1599999999999,3434.77,3350.6300000000001,22.4222,20.8249,-7.6369300000000004
214109.0,133.98400000000001,8263.3299999999999,8195.1100000000006,8256.3400000000001,23.2042,-44.373800000000003,-45.474600000000002
214110.0,186.04300000000001,5777.1499999999996,5703.4300000000003,5743.6400000000003,53.459600000000002,-45.504100000000001,-72.431200000000004
214111.0,215.23099999999999,1585.1700000000001,1614.6099999999999,1543.73,86.344999999999999,-21.3157,-79.142499999999998
214112.0,225.631,691.74300000000005,737.76999999999998,654.00900000000001,92.389200000000002,-16.478999999999999,-80.016800000000003
214113.0,194.79599999999999,4160.1099999999997,4167.4399999999996,4118.04,75.049400000000006,-26.668800000000001,-74.795400000000001
214114.0,183.58799999999999,2133.8800000000001,2120.4200000000001,2091.3699999999999,67.060599999999994,-30.713799999999999,-72.953199999999995
214115.0,180.28399999999999,4193.8299999999999,4163.0900000000001,4151.5799999999999,62.440800000000003,-34.070099999999996,-72.783699999999996
214116.0,181.83600000000001,4148.6999999999998,4103.6700000000001,4107.4399999999996,60.143300000000004,-37.212899999999998,-73.453699999999998
214117.0,175.762,-4748.5799999999999,-4794.5600000000004,-4788.8400000000001,58.520600000000002,-37.129100000000001,-69.759900000000002
214118.0,185.96899999999999,6017.6700000000001,5951.4499999999998,5980.9499999999998,56.2318,-43.067399999999999,-73.558700000000002
214119.0,184.08699999999999,7144.71,7065.7200000000003,7114.9300000000003,49.901200000000003,-47.396900000000002,-70.483800000000002
214120.0,180.739,7463.8900000000003,7380.9099999999999,7437.9700000000003,45.817,-48.878799999999998,-67.8095
214121.0,174.60599999999999,7762.3699999999999,7678.0100000000002,7740.5699999999997,40.955399999999997,-49.538800000000002,-64.135999999999996
214122.0,167.755,8098.6599999999999,8014.3999999999996,8080.8699999999999,36.213799999999999,-49.685299999999998,-60.233699999999999
214123.0,157.917,-7939.75,-8021.4799999999996,-7955.2200000000003,31.6814,-48.772500000000001,-55.184100000000001
214124.0,147.619,8302.1700000000001,8225.7199999999993,8291.9099999999999,27.0383,-47.244399999999999,-50.782899999999998
214125.0,117.465,8146.29,8089.9499999999998,8142.0200000000004,20.3233,-40.033499999999997,-39.993299999999998
214126.0,97.954999999999998,7813.3199999999997,7773.0299999999997,7811.1599999999999,18.627199999999998,-33.922499999999999,-34.453099999999999
214127.0,76.421999999999997,7344.2700000000004,7325.0200000000004,7343.8100000000004,18.2408,-25.6097,-28.940100000000001
214128.0,58.808,6707.4399999999996,6714.21,6708.6700000000001,19.027699999999999,-14.935499999999999,-23.5517
214129.0,42.071100000000001,-6417.54,-6403.1300000000001,-6410.5699999999997,11.7158,-11.515700000000001,-16.3752
214130.0,85.644099999999995,4641.9899999999998,4715.8599999999997,4646.3400000000001,20.676400000000001,13.4953,-10.834300000000001
214131.0,105.76600000000001,2132.3000000000002,2215.6900000000001,2130.6999999999998,27.297799999999999,22.837800000000001,-9.9348299999999998
214132.0,95.095600000000005,1059.76,1129.3299999999999,1054.3699999999999,27.0,20.1877,-11.396699999999999
214133.0,81.031199999999998,242.01599999999999,293.09500000000003,232.66200000000001,26.430499999999999,15.8779,-13.411899999999999
214134.0,59.557400000000001,54.619399999999999,22.3901,63.582700000000003,-13.751099999999999,21.305299999999999,-8.3690599999999993
214135.0,221.18299999999999,-1370.51,-1327.0,-1411.1800000000001,91.778300000000002,-14.033200000000001,-76.909599999999998
214136.0,209.79300000000001,-426.33999999999997,-383.61000000000001,-466.197,84.699700000000007,-18.885300000000001,-73.718599999999995
214137.0,188.55199999999999,-3010.0999999999999,-2985.46,-3049.7399999999998,73.631399999999999,-24.203099999999999,-69.223200000000006
214138.0,175.96899999999999,-2847.3000000000002,-2843.8299999999999,-2887.9200000000001,66.0916,-27.976900000000001,-67.601500000000001
214139.0,171.85300000000001,-2323.54,-2339.54,-2364.9400000000001,61.953600000000002,-31.113399999999999,-67.841099999999997
214140.0,173.041,-3630.4499999999998,-3662.77,-3671.8200000000002,60.006999999999998,-34.063699999999997,-68.897199999999998
214141.0,178.19300000000001,-5945.7700000000004,-6002.9899999999998,-5983.9799999999996,56.706899999999997,-40.134,-70.061499999999995
214142.0,179.22,-5238.75,-5305.0699999999997,-5274.1400000000003,54.1434,-42.890500000000003,-69.529700000000005
214143.0,178.505,-5880.5100000000002,-5953.8699999999999,-5912.5100000000002,50.746299999999998,-45.238700000000001,-68.166899999999998
214144.0,175.86699999999999,-7056.6800000000003,-7134.8500000000004,-7084.7600000000002,46.665399999999998,-46.998800000000003,-65.993799999999993
214145.0,171.36699999999999,-7293.5200000000004,-7374.9799999999996,-7317.4399999999996,41.753799999999998,-48.317,-62.909199999999998
214146.0,165.46899999999999,-7639.0200000000004,-7721.5,-7658.8000000000002,36.852800000000002,-48.834000000000003,-59.409700000000001
214147.0,148.976,-8047.3299999999999,-8126.0299999999997,-8058.8299999999999,26.905200000000001,-47.857700000000001,-50.759700000000002
214148.0,137.672,-8066.7700000000004,-8139.8199999999997,-8074.3999999999996,22.347300000000001,-45.964399999999998,-45.749400000000001
214149.0,123.857,-8060.0500000000002,-8124.4899999999998,-8064.1700000000001,18.4267,-42.872300000000003,-40.427500000000002
214150.0,106.789,-7890.6899999999996,-7942.8500000000004,-7891.7299999999996,15.3405,-38.246600000000001,-34.842300000000002
214151.0,85.947000000000003,-7537.6700000000001,-7573.1700000000001,-7536.0200000000004,13.208,-31.736799999999999,-28.9848
214152.0,62.025100000000002,-7075.6400000000003,-7089.21,-7071.4899999999998,12.1388,-22.889500000000002,-22.915700000000001
214153.0,55.993200000000002,-5494.5500000000002,-5440.9399999999996,-5483.8999999999996,12.037800000000001,3.8485299999999998,-8.9506499999999996
214154.0,85.779399999999995,-4264.9899999999998,-4186.71,-4256.6599999999999,17.889399999999998,15.2729,-7.1477000000000004
214155.0,99.765900000000002,-2960.73,-2878.5700000000002,-2957.54,25.7194,19.690799999999999,-10.133599999999999
214156.0,105.333,-1779.1600000000001,-1699.8199999999999,-1779.9400000000001,30.767399999999999,20.819099999999999,-14.113799999999999
214157.0,95.580600000000004,-757.74300000000005,-695.98099999999999,-765.13900000000001,31.908799999999999,17.467199999999998,-16.7318
214158.0,275.60300000000001,-2411.3000000000002,-2447.0,-2486.3299999999999,119.24299999999999,-19.2273,-96.548500000000004
214159.0,241.78100000000001,-397.71499999999997,-340.80799999999999,-430.97199999999998,100.956,-15.7119,-83.474699999999999
214160.0,193.18899999999999,5153.5299999999997,5099.3800000000001,5119.3999999999996,57.765500000000003,-43.391800000000003,-80.444800000000001
214161.0,169.13499999999999,8792.1499999999996,8705.4200000000001,8782.3299999999999,32.804400000000001,-52.143599999999999,-59.032299999999999
214162.0,59.545900000000003,6094.6300000000001,6125.4300000000003,6083.7200000000003,24.1175,0.85796099999999997,-11.475199999999999
214163.0,107.934,3610.7399999999998,3690.3499999999999,3596.0900000000001,26.5627,24.434100000000001,-2.8232699999999999
214164.0,140.67500000000001,8878.8199999999997,8804.5,8872.6299999999992,24.8887,-46.054000000000002,-46.424799999999998
214165.0,196.12200000000001,7651.3199999999997,7578.0699999999997,7623.5,53.396799999999999,-49.038499999999999,-78.727199999999996
214166.0,225.054,3065.3600000000001,3098.6900000000001,3025.6399999999999,86.3733,-23.5837,-86.7697
214167.0,234.30199999999999,2341.5900000000001,2390.6700000000001,2304.21,92.630200000000002,-18.4282,-86.596500000000006
214168.0,204.988,1900.99,1913.02,1862.3299999999999,75.209800000000001,-29.117599999999999,-82.466899999999995
214169.0,193.51599999999999,5214.6000000000004,5205.8900000000003,5176.3299999999999,67.105500000000006,-33.363500000000002,-80.399100000000004
214170.0,189.499,4403.3800000000001,4376.9200000000001,4365.8599999999997,62.161499999999997,-36.8566,-79.8489
214171.0,190.76400000000001,5694.96,5653.4099999999999,5658.6300000000001,59.628799999999998,-40.182000000000002,-80.299499999999995
214172.0,183.91200000000001,-5176.3199999999997,-5219.0100000000002,-5211.3000000000002,57.826799999999999,-40.075699999999998,-76.202799999999996
214173.0,195.42699999999999,6272.3599999999997,6207.6499999999996,6241.1000000000004,55.878599999999999,-46.414099999999998,-80.040899999999993
214174.0,195.06700000000001,7320.7799999999997,7240.8800000000001,7296.7299999999996,50.273299999999999,-51.1509,-76.547399999999996
214175.0,192.03899999999999,7905.4300000000003,7820.5699999999997,7885.3000000000002,46.489899999999999,-52.673000000000002,-73.423500000000004
214176.0,186.46100000000001,8353.0699999999997,8265.4500000000007,8336.7299999999996,42.052700000000002,-53.356699999999996,-69.305300000000003
214177.0,179.119,8584.2600000000002,8495.7700000000004,8571.4200000000001,37.411900000000003,-53.295699999999997,-64.561800000000005
214178.0,168.98699999999999,-8396.2900000000009,-8482.5,-8406.5300000000007,32.9739,-52.234499999999997,-59.033499999999997
214179.0,156.755,8915.8799999999992,8833.5599999999995,8908.2700000000004,28.611899999999999,-49.860500000000002,-53.074300000000001
214180.0,120.846,8653.9300000000003,8591.5599999999995,8648.0100000000002,22.1523,-40.4741,-39.4176
214181.0,97.310000000000002,8339.2700000000004,8293.3099999999995,8332.3299999999999,20.708300000000001,-32.861699999999999,-32.153399999999998
214182.0,72.418599999999998,7809.0500000000002,7784.0799999999999,7800.0900000000001,20.6953,-23.2651,-24.871300000000002
214183.0,54.311,7047.6899999999996,7047.7399999999998,7036.3699999999999,21.991199999999999,-11.978300000000001,-17.6983
214184.0,37.479100000000003,-6712.2600000000002,-6704.8299999999999,-6718.7299999999996,15.8813,-8.6694200000000006,-9.6161100000000008
214185.0,85.294200000000004,4942.6099999999997,5003.0600000000004,4930.1499999999996,25.773499999999999,14.0631,-6.4962499999999999
214186.0,112.377,2281.71,2360.1100000000001,2263.4499999999998,28.6082,26.944800000000001,-5.2675299999999998
214187.0,101.672,1143.99,1205.6700000000001,1120.0999999999999,29.286999999999999,23.170400000000001,-10.0694
214188.0,88.431600000000003,254.88999999999999,304.52100000000002,232.36199999999999,27.037400000000002,19.251999999999999,-11.9208
214189.0,57.1145,8.6942799999999991,-40.1723,4.9464499999999996,-14.1867,10.948600000000001,-5.1582400000000002
214190.0,228.65700000000001,-904.26499999999999,-860.77800000000002,-946.88800000000003,92.270200000000003,-15.4626,-82.591300000000004
214191.0,218.68700000000001,-3314.52,-3269.77,-3354.0900000000001,85.019300000000001,-20.758800000000001,-80.638199999999998
214192.0,198.32400000000001,-2113.1500000000001,-2085.1700000000001,-2150.4499999999998,74.1494,-26.4726,-76.413300000000007
214193.0,185.60300000000001,-3518.8200000000002,-3511.1100000000001,-3555.71,66.3416,-30.514500000000002,-74.713999999999999
214194.0,180.76599999999999,-5226.1700000000001,-5237.8500000000004,-5263.0799999999999,61.734499999999997,-33.8384,-74.6999
214195.0,181.35499999999999,-5101.4799999999996,-5129.8000000000002,-5137.8999999999996,59.438200000000002,-36.884099999999997,-75.526799999999994
214196.0,186.65899999999999,-5165.8100000000004,-5220.6300000000001,-5198.4399999999996,56.192300000000003,-43.211199999999998,-76.346000000000004
214197.0,188.33500000000001,-7021.1899999999996,-7086.1499999999996,-7050.7200000000003,53.909300000000002,-46.160600000000002,-75.687299999999993
214198.0,188.40799999999999,-7455.7799999999997,-7528.9099999999999,-7481.75,50.929200000000002,-48.673900000000003,-74.130600000000001
214199.0,186.52500000000001,-7251.1599999999999,-7330.4700000000003,-7273.1199999999999,47.186799999999998,-50.635300000000001,-71.625500000000002
214200.0,182.63300000000001,-7851.6800000000003,-7935.3599999999997,-7869.5200000000004,42.6999,-51.988300000000002,-68.187899999999999
214201.0,176.74199999999999,-8188.5,-8274.4099999999999,-8202.4400000000005,37.9101,-52.498600000000003,-63.979199999999999
214202.0,159.00899999999999,-8609.2700000000004,-8693.2600000000002,-8616.4400000000005,28.295100000000001,-50.919499999999999,-53.543199999999999
214203.0,145.98099999999999,-8702.5400000000009,-8781.3899999999994,-8707.1700000000001,23.834,-48.400399999999998,-47.275599999999997
214204.0,129.50800000000001,-8589.9300000000003,-8660.2000000000007,-8592.8899999999994,20.0473,-44.380000000000003,-40.494500000000002
214205.0,108.84099999999999,-8378.1700000000001,-8435.8199999999997,-8380.5300000000007,17.2165,-38.540500000000002,-33.209299999999999
214206.0,83.768100000000004,-8048.0600000000004,-8088.5100000000002,-8051.0299999999997,15.594799999999999,-30.6052,-25.513300000000001
214207.0,56.3399,-7479.0799999999999,-7497.6599999999999,-7483.6300000000001,15.276,-20.5609,-17.553899999999999
214208.0,52.436,-5763.7399999999998,-5725.6899999999996,-5770.9399999999996,17.0367,4.5029599999999999,-3.8460700000000001
214209.0,84.297700000000006,-4582.7700000000004,-4518.6800000000003,-4594.1800000000003,20.114999999999998,17.5413,-0.316444
214210.0,105.46899999999999,-3226.8200000000002,-3152.73,-3244.0900000000001,26.846299999999999,24.756799999999998,-4.3314199999999996
214211.0,109.92100000000001,-1920.02,-1851.8800000000001,-1942.71,32.3108,24.725000000000001,-11.725899999999999
214212.0,101.175,-853.75,-797.68299999999999,-879.29899999999998,31.716000000000001,21.690100000000001,-13.8871
214213.0,275.74799999999999,305.83199999999999,275.21199999999999,229.58799999999999,112.551,-21.459199999999999,-103.661
214214.0,247.41800000000001,1760.23,1819.1800000000001,1725.6500000000001,101.015,-17.343,-87.544499999999999
214215.0,200.80199999999999,6513.8699999999999,6463.8100000000004,6485.8500000000004,56.499099999999999,-45.884500000000003,-86.680300000000003
214216.0,175.54599999999999,9238.1700000000001,9151.4200000000001,9234.3999999999996,33.939599999999999,-53.9895,-61.6539
214217.0,66.654700000000005,6047.8999999999996,6086.54,6031.1700000000001,23.663599999999999,2.7226499999999998,-10.351599999999999
214218.0,112.245,3469.0999999999999,3550.0700000000002,3448.04,27.376799999999999,23.347100000000001,-1.8189599999999999
214219.0,143.05799999999999,9237.3199999999997,9164.75,9235.8400000000001,26.211200000000002,-46.514200000000002,-47.442799999999998
214220.0,203.69,6466.04,6395.1899999999996,6444.7700000000004,52.579500000000003,-51.622999999999998,-84.135499999999993
214221.0,234.96899999999999,1811.51,1848.9100000000001,1773.79,86.329599999999999,-25.755299999999998,-94.2166
214222.0,242.53,818.15800000000002,869.94600000000003,781.10699999999997,92.977599999999995,-20.218299999999999,-92.5321
214223.0,215.53399999999999,4485.7299999999996,4502.8500000000004,4450.79,75.195499999999996,-31.4209,-90.218299999999999
214224.0,203.71100000000001,2545.79,2542.5999999999999,2512.4299999999998,66.879599999999996,-35.752299999999998,-87.993099999999998
214225.0,198.666,4673.71,4652.6300000000001,4641.6999999999998,61.4529,-39.300899999999999,-87.007800000000003
214226.0,198.99199999999999,4683.9799999999996,4647.2700000000004,4653.5600000000004,58.549999999999997,-42.640700000000002,-86.992099999999994
214227.0,191.166,-5303.29,-5341.2700000000004,-5331.9799999999996,56.494,-42.535299999999999,-82.392899999999997
214228.0,202.91,6651.3400000000001,6589.8800000000001,6626.4399999999996,54.729599999999998,-48.959499999999998,-85.883300000000006
214229.0,203.066,7893.0299999999997,7814.6099999999997,7875.7200000000003,49.871400000000001,-53.8324,-81.628
214230.0,199.96100000000001,8277.0900000000001,8193.1100000000006,8263.8099999999995,46.5092,-55.267299999999999,-77.927800000000005
214231.0,194.584,8638.9799999999996,8551.5100000000002,8629.3299999999999,42.606499999999997,-55.8887,-73.361500000000007
214232.0,186.46100000000001,9031.25,8942.7000000000007,9024.9500000000007,38.240099999999998,-55.542000000000002,-67.829800000000006
214233.0,176.107,-8873.4300000000003,-8959.8199999999997,-8876.9799999999996,34.003,-54.398899999999998,-61.9071
214234.0,161.422,9292.2900000000009,9210.5599999999995,9290.1599999999999,29.854700000000001,-51.100700000000003,-54.893099999999997
214235.0,120.613,9060.1100000000006,9001.3299999999999,9058.0400000000009,23.4833,-40.047499999999999,-39.767800000000001
214236.0,94.583200000000005,8615.1900000000005,8575.4400000000005,8611.2199999999993,21.9252,-31.499500000000001,-32.090499999999999
214237.0,68.9255,7979.75,7963.6899999999996,7972.5500000000002,21.592199999999998,-21.07,-24.672499999999999
214238.0,55.217799999999997,7136.8800000000001,7148.0699999999997,7125.4700000000003,22.270399999999999,-9.2771600000000003,-17.509499999999999
214239.0,41.9285,-6776.3500000000004,-6756.6999999999998,-6783.21,16.5228,-6.3282600000000002,-9.1456
214240.0,93.638400000000004,4797.9799999999996,4862.0,4776.8999999999996,26.759699999999999,14.6274,-5.36144
214241.0,110.708,2194.25,2270.1399999999999,2172.27,29.028500000000001,23.6065,-6.9720800000000001
214242.0,99.887600000000006,1117.2,1177.3599999999999,1094.25,29.8432,18.8522,-15.41
214243.0,87.154799999999994,232.40700000000001,281.36399999999998,209.08000000000001,25.9163,13.535600000000001,-17.780100000000001
214244.0,60.637500000000003,-25.5428,-83.377600000000001,-31.3446,-10.7065,5.8185399999999996,-7.9260200000000003
214245.0,235.375,-1467.02,-1423.7,-1511.6900000000001,92.613799999999998,-16.797899999999998,-87.589699999999993
214246.0,227.42400000000001,-605.52700000000004,-558.76700000000005,-644.72400000000005,85.175700000000006,-22.5351,-87.326300000000003
214247.0,208.33099999999999,-3286.8800000000001,-3255.3600000000001,-3321.6300000000001,74.493899999999996,-28.613299999999999,-83.668700000000001
214248.0,195.655,-3216.77,-3204.4099999999999,-3249.52,66.401200000000003,-32.884599999999999,-82.014600000000002
214249.0,189.93100000000001,-2769.0799999999999,-2775.5799999999999,-2800.7399999999998,61.191400000000002,-36.335099999999997,-81.733199999999997
214250.0,189.44999999999999,-4135.6700000000001,-4158.8500000000004,-4166.2399999999998,58.372900000000001,-39.382899999999999,-82.163899999999998
214251.0,193.58199999999999,-6546.6599999999999,-6597.4300000000003,-6572.7299999999996,54.879800000000003,-45.653799999999997,-82.161900000000003
214252.0,195.327,-5889.4799999999996,-5951.2200000000003,-5912.1899999999996,52.908099999999997,-48.624600000000001,-81.109300000000005
214253.0,195.70400000000001,-6585.5,-6656.2200000000003,-6604.4499999999998,50.361800000000002,-51.172899999999998,-79.193299999999994
214254.0,194.18299999999999,-7820.5699999999997,-7898.4300000000003,-7835.3299999999999,47.033299999999997,-53.209200000000003,-76.259200000000007
214255.0,190.542,-8119.8299999999999,-8202.7900000000009,-8130.54,43.104300000000002,-54.488599999999998,-72.382800000000003
214256.0,184.38,-8523.7600000000002,-8609.5699999999997,-8530.6299999999992,38.587000000000003,-54.9133,-67.484999999999999
214257.0,164.85400000000001,-9012.3500000000004,-9096.3199999999997,-9013.3199999999997,29.4483,-52.676400000000001,-55.618499999999997
214258.0,149.96600000000001,-9037.4300000000003,-9115.5900000000001,-9036.5599999999995,25.053999999999998,-49.561900000000001,-48.5077
214259.0,131.06999999999999,-9001.3299999999999,-9069.6200000000008,-8999.6900000000005,21.296399999999998,-44.792200000000001,-40.910800000000002
214260.0,107.629,-8757.4500000000007,-8811.0799999999999,-8756.1900000000005,18.399699999999999,-38.118699999999997,-32.9863
214261.0,80.007999999999996,-8278.4799999999996,-8312.1000000000004,-8278.8700000000008,16.637699999999999,-29.3352,-24.982500000000002
214262.0,52.212899999999998,-7640.75,-7649.3599999999997,-7643.8999999999996,15.9945,-18.583300000000001,-16.988
214263.0,63.040500000000002,-5674.5799999999999,-5629.46,-5686.8199999999997,19.183599999999998,5.88246,-3.10059
214264.0,92.689099999999996,-4460.6599999999999,-4392.0500000000002,-4477.2200000000003,22.279699999999998,18.1143,0.44090499999999999
214265.0,107.86,-3135.8800000000001,-3062.5900000000001,-3158.2600000000002,28.2608,23.157699999999998,-6.2106700000000004
214266.0,107.40600000000001,-1894.5999999999999,-1832.23,-1922.0899999999999,32.064799999999998,21.105399999999999,-15.8657
214267.0,99.444599999999994,-894.67499999999995,-840.40200000000004,-922.5,29.457699999999999,17.450900000000001,-19.5138
214268.0,273.50700000000001,-2401.1500000000001,-2424.4000000000001,-2477.6100000000001,103.673,-24.199100000000001,-109.842
214269.0,251.23099999999999,-382.84800000000001,-320.83999999999997,-418.11099999999999,99.152299999999997,-19.243300000000001,-91.720200000000006
214270.0,207.191,5716.8999999999996,5672.7799999999997,5696.1099999999997,54.368400000000001,-47.6768,-92.699799999999996
214271.0,179.376,9492.0599999999995,9409.4099999999999,9495.8799999999992,34.636200000000002,-55.169699999999999,-63.991399999999999
214272.0,83.650599999999997,6086.0200000000004,6138.1999999999998,6063.4099999999999,26.709599999999998,4.8783099999999999,-11.139699999999999
214273.0,124.874,3131.9899999999998,3222.3800000000001,3103.4099999999999,27.469799999999999,24.2073,0.60514400000000002
214274.0,145.346,9524.2600000000002,9457.2700000000004,9529.2199999999993,27.661899999999999,-47.413600000000002,-49.129199999999997
214275.0,208.465,8260.3799999999992,8194.3899999999994,8246.7099999999991,50.542000000000002,-53.158999999999999,-88.838200000000001
214276.0,244.73500000000001,3271.6399999999999,3313.23,3236.1100000000001,86.145600000000002,-27.8292,-101.38800000000001
214277.0,250.02600000000001,2442.8600000000001,2497.4400000000001,2406.29,92.8309,-21.9602,-98.151799999999994
214278.0,226.34800000000001,2214.5,2237.04,2183.7399999999998,75.072299999999998,-33.531300000000002,-97.988299999999995
214279.0,214.31200000000001,5621.8100000000004,5624.8199999999997,5593.9399999999996,66.427800000000005,-37.893700000000003,-95.767399999999995
214280.0,208.035,4883.1199999999999,4868.4899999999998,4857.4899999999998,60.401899999999998,-41.378399999999999,-94.341300000000004
214281.0,206.80699999999999,6224.5299999999997,6194.1700000000001,6200.9799999999996,56.824199999999998,-44.6051,-93.723100000000002
214282.0,197.78200000000001,-5723.2299999999996,-5754.96,-5744.6300000000001,54.413800000000002,-44.518500000000003,-88.512799999999999
214283.0,208.256,6860.3400000000001,6804.2600000000002,6842.8599999999997,52.484299999999998,-50.602800000000002,-91.203699999999998
214284.0,207.762,7953.29,7879.0799999999999,7943.7299999999996,48.3142,-55.3521,-85.792299999999997
214285.0,204.40899999999999,8561.8899999999994,8481.9099999999999,8556.5100000000002,45.476900000000001,-56.6937,-81.527600000000007
214286.0,199.20599999999999,9032.3799999999992,8948.6200000000008,9030.6599999999999,42.244700000000002,-57.293799999999997,-76.607100000000003
214287.0,190.59999999999999,9279.7900000000009,9195.0699999999997,9281.3700000000008,38.360199999999999,-56.825600000000001,-70.505600000000001
214288.0,180.304,-9094.7600000000002,-9177.3299999999999,-9090.2999999999993,34.4985,-55.6584,-64.393799999999999
214289.0,164.52000000000001,9601.4500000000007,9524.4500000000007,9606.4899999999998,30.984400000000001,-52.141599999999997,-56.829999999999998
214290.0,122.02,9230.7700000000004,9178.5900000000001,9233.9400000000005,25.1569,-40.8018,-41.221899999999998
214291.0,95.841800000000006,8816.7099999999991,8784.4599999999991,8816.2299999999996,23.818100000000001,-32.222499999999997,-33.3872
214292.0,71.811199999999999,8156.5100000000002,8149.0100000000002,8150.6099999999997,23.789100000000001,-21.728000000000002,-25.793800000000001
214293.0,63.215800000000002,7233.7799999999997,7254.6499999999996,7221.1199999999999,24.671800000000001,-9.5309200000000001,-18.597100000000001
214294.0,49.133400000000002,-6871.6199999999999,-6843.4300000000003,-6879.9099999999999,17.8963,-5.6568100000000001,-9.3111999999999995
214295.0,114.634,4679.5100000000002,4760.75,4651.1199999999999,27.9589,18.8157,-2.70194
214296.0,110.624,1787.05,1861.73,1759.1199999999999,29.232700000000001,18.808599999999998,-7.50509
214297.0,89.898600000000002,803.41499999999996,855.03899999999999,780.71900000000005,28.899000000000001,9.0964899999999993,-18.039000000000001
214298.0,82.226900000000001,154.85300000000001,189.45099999999999,129.477,26.642900000000001,1.91906,-25.178100000000001
214299.0,58.235999999999997,-27.8766,-78.035899999999998,-20.661899999999999,-5.7982800000000001,5.3936700000000002,-9.5464300000000009
214300.0,240.97999999999999,-967.64099999999996,-923.98800000000006,-1014.0,92.230099999999993,-18.124700000000001,-92.173400000000001
214301.0,235.673,-3470.4699999999998,-3421.77,-3509.3299999999999,85.127200000000002,-24.1877,-93.582300000000004
214302.0,218.363,-2374.3699999999999,-2339.3600000000001,-2406.4499999999998,74.768299999999996,-30.543700000000001,-90.802000000000007
214303.0,206.071,-3880.5300000000002,-3863.3000000000002,-3908.79,66.338899999999995,-35.031599999999997,-89.440600000000003
214304.0,199.51499999999999,-5671.0699999999997,-5671.8500000000004,-5696.9499999999998,60.447400000000002,-38.567599999999999,-88.942099999999996
214305.0,197.58699999999999,-5607.2799999999997,-5624.29,-5631.1800000000003,56.856499999999997,-41.547400000000003,-88.9011
214306.0,198.96299999999999,-5741.0600000000004,-5785.8400000000001,-5759.4300000000003,52.591299999999997,-47.415500000000002,-87.604900000000001
214307.0,199.97499999999999,-7617.8999999999996,-7674.0900000000001,-7632.6499999999996,50.727200000000003,-50.201500000000003,-85.951899999999995
214308.0,200.04300000000001,-8073.8500000000004,-8139.5500000000002,-8084.6999999999998,48.601399999999998,-52.625900000000001,-83.469099999999997
214309.0,198.54400000000001,-7892.0799999999999,-7965.5600000000004,-7898.6000000000004,45.819499999999998,-54.641300000000001,-80.002799999999993
214310.0,195.04400000000001,-8516.2299999999996,-8595.0799999999999,-8518.6900000000005,42.559600000000003,-55.857500000000002,-75.757800000000003
214311.0,188.72499999999999,-8873.7000000000007,-8955.6700000000001,-8872.3099999999995,38.531700000000001,-56.2545,-70.319900000000004
214312.0,168.494,-9307.9099999999999,-9387.8199999999997,-9301.2399999999998,30.370100000000001,-53.819800000000001,-57.651200000000003
214313.0,152.881,-9380.6000000000004,-9454.1900000000005,-9372.6700000000001,26.308399999999999,-50.570300000000003,-50.209000000000003
214314.0,132.98400000000001,-9222.5900000000001,-9285.5300000000007,-9214.7099999999991,22.693300000000001,-45.619999999999997,-42.334699999999998
214315.0,108.54000000000001,-8938.1200000000008,-8985.5400000000009,-8931.8999999999996,19.912199999999999,-38.742400000000004,-34.188200000000002
214316.0,80.420400000000001,-8506.1200000000008,-8532.8299999999999,-8503.2700000000004,18.227599999999999,-29.771599999999999,-25.910399999999999
214317.0,54.126399999999997,-7804.0,-7805.2200000000003,-7806.1999999999998,17.6938,-18.707799999999999,-17.671600000000002
214318.0,80.719200000000001,-5710.9700000000003,-5649.8000000000002,-5727.4799999999996,19.9941,9.8791399999999996,-0.116128
214319.0,114.88,-4244.1599999999999,-4158.5799999999999,-4267.7700000000004,25.208600000000001,21.480599999999999,1.4110499999999999
214320.0,120.95399999999999,-2688.5900000000001,-2607.52,-2718.8099999999999,32.241399999999999,21.055199999999999,-9.0518099999999997
214321.0,111.27500000000001,-1435.05,-1374.1099999999999,-1468.0,35.266300000000001,13.430999999999999,-20.832999999999998
214322.0,94.966200000000001,-578.79999999999995,-536.81899999999996,-607.529,30.715299999999999,4.6687500000000002,-27.8628
214323.0,269.25299999999999,262.40699999999998,248.24199999999999,187.50200000000001,93.999200000000002,-27.048300000000001,-114.08199999999999
214324.0,252.72300000000001,1766.53,1830.5799999999999,1730.6800000000001,96.918099999999995,-20.811499999999999,-94.350300000000004
214325.0,213.24700000000001,7065.8900000000003,7029.5600000000004,7053.5100000000002,51.4343,-48.878700000000002,-98.905799999999999
214326.0,180.435,9687.9599999999991,9612.4500000000007,9699.3199999999997,34.928699999999999,-55.689599999999999,-65.582800000000006
214327.0,98.091899999999995,5913.7200000000003,5972.9099999999999,5882.1199999999999,30.9453,7.6179399999999999,-8.2212099999999992
214328.0,127.66500000000001,2817.52,2905.6999999999998,2780.3400000000001,26.933800000000002,23.584800000000001,2.36836
214329.0,145.994,9620.1399999999994,9560.5699999999997,9630.1200000000008,29.6952,-48.042000000000002,-50.007399999999997
214330.0,210.97499999999999,7010.4499999999998,6952.04,7005.6000000000004,47.025599999999997,-53.686900000000001,-93.233699999999999
214331.0,253.84999999999999,1988.79,2034.29,1955.52,85.930999999999997,-29.688600000000001,-107.937
214332.0,256.12900000000002,893.96100000000001,950.54600000000005,857.64499999999998,92.510099999999994,-23.466699999999999,-102.794
214333.0,237.167,4776.3999999999996,4804.2299999999996,4749.8699999999999,75.002700000000004,-35.4069,-105.506
214334.0,225.387,2941.04,2950.52,2919.0500000000002,66.014099999999999,-39.759900000000002,-103.604
214335.0,218.01300000000001,5149.46,5142.0699999999997,5130.8699999999999,59.209099999999999,-43.136400000000002,-101.92700000000001
214336.0,214.95099999999999,5211.8599999999997,5189.1300000000001,5196.1899999999996,54.719900000000003,-46.118899999999996,-100.721
214337.0,204.53200000000001,-5849.0900000000001,-5873.3699999999999,-5862.2700000000004,51.761699999999998,-46.088200000000001,-94.833399999999997
214338.0,212.37799999999999,7206.04,7157.7299999999996,7197.3100000000004,49.051299999999998,-51.458599999999997,-96.528700000000001
214339.0,209.351,8419.25,8352.3199999999997,8418.4899999999998,45.098300000000002,-55.705800000000004,-89.419200000000004
214340.0,205.316,8785.4899999999998,8712.6299999999992,8788.7199999999993,42.936999999999998,-56.923999999999999,-84.356399999999994
214341.0,200.20400000000001,9129.3500000000004,9052.5200000000004,9135.9599999999991,40.692,-57.601399999999998,-78.963499999999996
214342.0,191.52699999999999,9502.8400000000001,9425.1000000000004,9512.4599999999991,37.736600000000003,-57.222099999999998,-72.347300000000004
214343.0,181.459,-9351.75,-9427.2900000000009,-9338.9500000000007,34.3703,-55.981299999999997,-66.194100000000006
214344.0,165.41200000000001,9713.4599999999991,9643.7700000000004,9725.0599999999995,32.136200000000002,-52.720599999999997,-58.093499999999999
214345.0,122.36499999999999,9388.6200000000008,9343.9300000000003,9394.5499999999993,27.989699999999999,-41.343400000000003,-41.624899999999997
214346.0,96.323899999999995,8867.8799999999992,8842.8999999999996,8867.1100000000006,27.2134,-32.423000000000002,-33.153599999999997
214347.0,74.2119,8131.8299999999999,8131.1099999999997,8121.9300000000003,27.379000000000001,-21.2011,-24.621500000000001
214348.0,70.777699999999996,7162.4200000000001,7188.9899999999998,7142.6400000000003,28.309100000000001,-8.1937899999999999,-16.136600000000001
214349.0,58.264499999999998,-6780.9300000000003,-6748.3100000000004,-6796.6800000000003,21.763000000000002,-3.7094200000000002,-5.9616699999999998
214350.0,128.60900000000001,4384.5200000000004,4471.8299999999999,4346.2700000000004,29.882899999999999,21.7883,1.8638399999999999
214351.0,105.024,1539.5,1606.4300000000001,1505.0,26.761199999999999,14.104900000000001,-10.083500000000001
214352.0,82.004499999999993,637.14200000000005,678.56200000000001,609.88699999999994,24.854600000000001,1.3835599999999999,-20.642800000000001
214353.0,81.2483,121.94199999999999,148.11000000000001,98.677800000000005,25.623000000000001,-5.6617300000000004,-30.004200000000001
214354.0,49.980699999999999,61.418399999999998,13.370699999999999,57.6511,-7.9254100000000003,5.8020699999999996,-4.7216800000000001
214355.0,244.91800000000001,-1519.6099999999999,-1475.54,-1567.54,91.230400000000003,-19.328800000000001,-95.818899999999999
214356.0,242.94900000000001,-737.50699999999995,-686.99599999999998,-775.97199999999998,84.828999999999994,-25.6309,-99.1494
214357.0,228.05699999999999,-3524.5,-3486.2399999999998,-3553.9499999999998,74.965500000000006,-32.198,-97.608900000000006
214358.0,216.732,-3563.5500000000002,-3541.5799999999999,-3587.2800000000002,66.325999999999993,-36.901800000000001,-96.822199999999995
214359.0,209.71100000000001,-3208.98,-3203.7600000000002,-3228.71,59.681199999999997,-40.527099999999997,-96.343800000000002
214360.0,206.304,-4642.5299999999997,-4652.6700000000001,-4659.1099999999997,55.1143,-43.398899999999998,-95.897300000000001
214361.0,203.73400000000001,-7106.6099999999997,-7143.54,-7116.1199999999999,49.284300000000002,-48.619700000000002,-93.141499999999994
214362.0,203.03800000000001,-6446.8500000000004,-6495.0500000000002,-6452.3500000000004,47.195999999999998,-51.014699999999998,-90.638499999999993
214363.0,201.834,-7129.6300000000001,-7187.3599999999997,-7131.1000000000004,45.233499999999999,-53.089100000000002,-87.356800000000007
214364.0,199.643,-8347.7199999999993,-8413.5300000000007,-8344.8799999999992,42.966000000000001,-54.9069,-83.165400000000005
214365.0,195.97200000000001,-8631.2999999999993,-8702.7399999999998,-8624.7099999999991,40.610900000000001,-56.017099999999999,-78.371799999999993
214366.0,189.636,-9019.1599999999999,-9093.9699999999993,-9009.0,37.471800000000002,-56.463500000000003,-72.399699999999996
214367.0,169.69,-9469.7099999999991,-9542.6000000000004,-9455.2600000000002,31.040600000000001,-54.2286,-59.179000000000002
214368.0,153.82900000000001,-9467.2000000000007,-9533.7999999999993,-9452.5499999999993,27.767299999999999,-51.001399999999997,-51.384399999999999
214369.0,133.488,-9391.0699999999997,-9447.1499999999996,-9378.1200000000008,24.9314,-46.030799999999999,-43.044899999999998
214370.0,108.32599999999999,-9088.7099999999991,-9129.4899999999998,-9079.7800000000007,22.774699999999999,-38.936700000000002,-34.269199999999998
214371.0,79.587599999999995,-8527.7199999999993,-8548.1499999999996,-8525.2299999999996,21.439499999999999,-29.4392,-25.038799999999998
214372.0,55.344499999999996,-7782.54,-7777.9099999999999,-7788.6599999999999,21.162700000000001,-17.4557,-15.4712
214373.0,96.586100000000002,-5494.9200000000001,-5427.3699999999999,-5522.3199999999997,22.886600000000001,13.2521,4.7008700000000001
214374.0,127.223,-3921.3800000000001,-3834.5599999999999,-3959.7399999999998,27.353100000000001,22.935500000000001,2.83196
214375.0,123.02200000000001,-2358.6700000000001,-2282.9299999999998,-2400.73,31.7545,18.055499999999999,-12.119
214376.0,109.041,-1172.8099999999999,-1117.6800000000001,-1211.6099999999999,32.515599999999999,7.6564100000000002,-24.8887
214377.0,92.8005,-395.96800000000002,-363.98700000000002,-425.19,29.631799999999998,-3.5201600000000002,-32.297400000000003
214378.0,263.38200000000001,-2329.7399999999998,-2332.21,-2401.25,82.995099999999994,-30.264099999999999,-116.925
214379.0,251.59999999999999,-408.04000000000002,-340.84399999999999,-443.52699999999999,92.362399999999994,-22.4146,-96.684700000000007
214380.0,220.404,6274.6599999999999,6247.3599999999997,6271.6899999999996,48.212899999999998,-49.701300000000003,-105.706
214381.0,175.482,9699.6100000000006,9633.8099999999995,9716.3199999999997,34.394100000000002,-54.540900000000001,-64.838099999999997
214382.0,107.224,5501.8999999999996,5567.3299999999999,5464.9700000000003,32.101199999999999,9.6058699999999995,-4.6969500000000002
214383.0,111.691,2506.1799999999998,2586.0999999999999,2473.4099999999999,22.794599999999999,16.3399,-3.3534299999999999
214384.0,141.465,9591.8700000000008,9541.2099999999991,9604.2099999999991,31.901900000000001,-46.784599999999998,-48.476100000000002
214385.0,213.00999999999999,8786.9799999999996,8738.6499999999996,8792.2999999999993,42.209899999999998,-53.474400000000003,-98.028800000000004
214386.0,261.72500000000002,3403.9899999999998,3453.1100000000001,3372.96,85.418899999999994,-31.3032,-113.684
214387.0,260.33499999999998,2479.23,2537.6700000000001,2443.2800000000002,91.208799999999997,-24.8643,-106.697
214388.0,247.44900000000001,2463.1399999999999,2495.8899999999999,2440.8200000000002,74.933199999999999,-36.963900000000002,-112.524
214389.0,236.726,5985.6199999999999,6001.3299999999999,5969.5600000000004,65.739699999999999,-41.326799999999999,-111.346
214390.0,228.90000000000001,5343.5699999999997,5343.5799999999999,5332.4399999999996,58.206400000000002,-44.581899999999997,-109.764
214391.0,224.36699999999999,6750.6400000000003,6736.2399999999998,6743.5200000000004,52.626199999999997,-47.346800000000002,-108.246
214392.0,212.518,-6274.0900000000001,-6290.4200000000001,-6278.4899999999998,48.982599999999998,-47.3932,-101.675
214393.0,217.02600000000001,7416.8400000000001,7378.0900000000001,7418.04,44.869100000000003,-51.793300000000002,-102.41
214394.0,209.07400000000001,8430.5599999999995,8373.9500000000007,8439.7700000000004,40.159100000000002,-55.000500000000002,-93.072699999999998
214395.0,202.846,8976.0200000000004,8913.7299999999996,8988.5499999999993,38.338700000000003,-55.795099999999998,-86.756
214396.0,196.31100000000001,9377.7800000000007,9311.4500000000007,9392.5599999999995,37.0745,-56.2742,-80.239999999999995
214397.0,186.69800000000001,9555.3199999999997,9487.7000000000007,9571.6700000000001,35.548699999999997,-55.908099999999997,-72.437600000000003
214398.0,176.65899999999999,-9370.8600000000006,-9436.0100000000002,-9350.6299999999992,32.909599999999998,-54.413200000000003,-66.092100000000002
214399.0,160.67500000000001,9741.8099999999995,9681.4099999999999,9757.6200000000008,33.121899999999997,-51.604399999999998,-56.812800000000003
214400.0,118.041,9213.4099999999999,9177.6100000000006,9219.5100000000002,31.046700000000001,-39.809699999999999,-39.793100000000003
214401.0,93.414400000000001,8693.6100000000006,8677.4899999999998,8691.1499999999996,30.6966,-30.5503,-30.947299999999998
214402.0,75.879000000000005,7901.6099999999997,7909.5200000000004,7888.6899999999996,30.9025,-19.0488,-22.1526
214403.0,80.059899999999999,6819.1300000000001,6853.9499999999998,6793.2399999999998,31.678899999999999,-5.7443799999999996,-13.1046
214404.0,69.761600000000001,-6419.8500000000004,-6379.7200000000003,-6442.25,24.773399999999999,-0.77905899999999995,-2.0717300000000001
214405.0,125.422,3982.3000000000002,4068.75,3943.9699999999998,27.6431,19.77,1.74231
214406.0,92.817300000000003,1417.3499999999999,1476.29,1388.52,22.595400000000001,6.4062299999999999,-17.850899999999999
214407.0,83.852099999999993,675.59000000000003,714.202,646.36699999999996,22.555199999999999,-1.9543999999999999,-25.950099999999999
214408.0,82.2864,139.69399999999999,169.24199999999999,111.38500000000001,24.278199999999998,-4.4039200000000003,-28.4816
214409.0,47.959099999999999,71.099000000000004,25.507200000000001,58.882899999999999,-10.709300000000001,9.1372,-3.3986900000000002
214410.0,246.66,-976.92899999999997,-931.59199999999998,-1025.75,88.915999999999997,-20.466799999999999,-98.682000000000002
214411.0,248.76400000000001,-3558.8200000000002,-3506.4899999999998,-3596.8099999999999,84.120500000000007,-26.8523,-103.79900000000001
214412.0,236.84899999999999,-2568.5799999999999,-2527.4099999999999,-2595.54,75.043999999999997,-33.491999999999997,-103.771
214413.0,227.19800000000001,-4190.6199999999999,-4164.3599999999997,-4209.9899999999998,66.399000000000001,-38.386899999999997,-103.92100000000001
214414.0,220.45699999999999,-6088.2299999999996,-6077.3999999999996,-6101.8500000000004,59.133899999999997,-42.143099999999997,-103.815
214415.0,216.125,-6107.29,-6110.5299999999997,-6116.2799999999997,53.529000000000003,-44.959000000000003,-103.26000000000001
214416.0,209.41800000000001,-6310.1999999999998,-6338.2700000000004,-6310.0100000000002,45.461199999999998,-49.472000000000001,-99.197100000000006
214417.0,206.267,-8174.6499999999996,-8213.1700000000001,-8169.79,42.564900000000002,-51.3217,-95.767399999999995
214418.0,202.71100000000001,-8594.7000000000007,-8642.0300000000007,-8585.5,40.266399999999997,-52.8078,-91.473200000000006
214419.0,198.39699999999999,-8360.3400000000001,-8415.2999999999993,-8346.9200000000001,38.1175,-54.0959,-86.187200000000004
214420.0,193.024,-8922.5799999999999,-8982.8600000000006,-8906.0400000000009,36.439799999999998,-54.760800000000003,-80.363600000000005
214421.0,185.36799999999999,-9214.8400000000001,-9278.6599999999999,-9195.7800000000007,34.469499999999996,-54.933100000000003,-73.238200000000006
214422.0,164.988,-9520.2999999999993,-9583.6599999999999,-9499.8899999999994,31.274100000000001,-52.737099999999998,-58.363999999999997
214423.0,149.59800000000001,-9526.7199999999993,-9584.6000000000004,-9507.5100000000002,29.303100000000001,-49.563499999999998,-50.343200000000003
214424.0,129.05699999999999,-9295.0599999999995,-9342.9099999999999,-9279.5799999999999,27.4739,-44.467799999999997,-41.589599999999997
214425.0,103.51900000000001,-8920.7700000000004,-8953.3700000000008,-8911.5900000000001,26.0472,-37.054900000000004,-32.225099999999998
214426.0,76.129000000000005,-8373.6200000000008,-8386.0100000000002,-8372.9599999999991,25.0901,-27.2318,-22.511500000000002
214427.0,57.691000000000003,-7525.6499999999996,-7513.3800000000001,-7535.46,24.6463,-15.007099999999999,-12.4221
214428.0,105.65300000000001,-5086.75,-5014.79,-5120.3299999999999,24.442,14.014799999999999,4.4394900000000002
214429.0,122.32899999999999,-3511.9699999999998,-3428.54,-3552.1799999999998,25.937899999999999,18.0152,-3.6625299999999998
214430.0,110.48699999999999,-2080.2199999999998,-2013.5799999999999,-2119.1399999999999,27.1873,9.4856599999999993,-19.7486
214431.0,98.290400000000005,-1129.45,-1081.55,-1163.3900000000001,26.138000000000002,1.3726499999999999,-29.059000000000001
214432.0,87.371899999999997,-486.88999999999999,-454.56200000000001,-517.95699999999999,25.4528,-3.3655900000000001,-29.674199999999999
214433.0,256.483,279.32499999999999,290.34100000000001,213.51900000000001,72.372500000000002,-33.253599999999999,-117.723
214434.0,247.85499999999999,1733.1500000000001,1802.76,1698.27,87.226799999999997,-23.550599999999999,-97.389200000000002
214435.0,229.85400000000001,7637.3199999999997,7619.1700000000001,7644.2299999999996,45.3962,-50.359299999999998,-113.343
214436.0,160.376,9662.5799999999999,9611.3600000000006,9682.7099999999991,30.587700000000002,-50.118400000000001,-61.422199999999997
214437.0,103.642,4976.75,5043.9300000000003,4944.3000000000002,30.192599999999999,9.0584600000000002,-2.2637
214438.0,92.217600000000004,2374.9000000000001,2437.6900000000001,2346.5900000000001,21.282599999999999,4.2876500000000002,-13.7629
214439.0,126.601,9268.2999999999993,9228.8600000000006,9279.7999999999993,32.629199999999997,-42.1447,-42.282600000000002
214440.0,217.00800000000001,7580.9799999999996,7543.8400000000001,7597.3699999999999,37.068899999999999,-52.954300000000003,-103.764
214441.0,267.625,2065.9000000000001,2117.9699999999998,2037.04,84.627899999999997,-32.515999999999998,-118.20699999999999
214442.0,261.97399999999999,892.95899999999995,952.34500000000003,857.14200000000005,89.198999999999998,-26.031600000000001,-109.227
214443.0,256.51299999999998,4963.6199999999999,5000.5900000000001,4945.21,74.811499999999995,-38.138599999999997,-118.68600000000001
214444.0,247.761,3250.23,3271.5500000000002,3239.9099999999999,65.717500000000001,-42.5291,-118.634
214445.0,240.523,5572.6300000000001,5579.5,5568.8000000000002,57.652700000000003,-45.758600000000001,-117.629
214446.0,235.43600000000001,5726.2399999999998,5719.8999999999996,5727.8800000000001,51.0852,-48.341099999999997,-116.24299999999999
214447.0,222.40700000000001,-6401.9399999999996,-6410.8699999999999,-6397.5500000000002,46.700800000000001,-48.476999999999997,-109.139
214448.0,224.10300000000001,7796.1199999999999,7767.5699999999997,7808.0299999999997,40.789700000000003,-51.946100000000001,-109.298
214449.0,209.535,8931.4400000000005,8887.1200000000008,8951.6399999999994,34.2654,-53.6753,-97.419200000000004
214450.0,199.227,9205.6299999999992,9156.6800000000003,9228.2600000000002,32.183700000000002,-53.563000000000002,-89.370500000000007
214451.0,188.43600000000001,9424.4500000000007,9372.5200000000004,9447.7900000000009,31.1127,-53.136899999999997,-80.992400000000004
214452.0,174.62700000000001,9645.8199999999997,9593.0699999999997,9668.4200000000001,30.371099999999998,-51.946199999999997,-71.057100000000005
214453.0,163.536,-9465.2399999999998,-9514.6599999999999,-9437.6599999999999,28.174700000000001,-50.036200000000001,-63.994300000000003
214454.0,144.49000000000001,9518.4899999999998,9471.5300000000007,9534.6100000000006,31.6751,-47.179900000000004,-51.534799999999997
214455.0,108.377,8897.7399999999998,8869.8400000000001,8902.3799999999992,32.923200000000001,-35.689999999999998,-35.322400000000002
214456.0,89.197500000000005,8253.8199999999997,8244.2700000000004,8248.7399999999998,32.731000000000002,-27.558700000000002,-28.256699999999999
214457.0,77.202100000000002,7403.5600000000004,7418.71,7386.3199999999997,32.794699999999999,-16.635300000000001,-19.283899999999999
214458.0,86.752600000000001,6327.6999999999998,6370.7399999999998,6298.4799999999996,32.946899999999999,-2.9701300000000002,-9.6509
214459.0,79.429000000000002,-5931.7200000000003,-5883.5299999999997,-5957.6499999999996,26.1768,1.6671,0.367757
214460.0,102.31,3547.52,3620.6399999999999,3518.9099999999999,24.599,10.813000000000001,-3.7970600000000001
214461.0,90.583699999999993,1497.23,1549.9300000000001,1467.05,21.473099999999999,-0.12386,-22.679300000000001
214462.0,88.420900000000003,797.65599999999995,842.16999999999996,768.55999999999995,21.792200000000001,-1.13565,-27.4862
214463.0,84.006100000000004,186.512,227.52799999999999,159.93700000000001,20.704000000000001,-0.72950999999999999,-27.634
214464.0,44.0045,60.122599999999998,17.941700000000001,49.870100000000001,-9.2302999999999997,7.9208999999999996,-3.6833399999999998
214465.0,245.77000000000001,-1510.28,-1463.02,-1559.45,85.389399999999995,-21.514399999999998,-100.274
214466.0,252.48500000000001,-782.50999999999999,-728.40700000000004,-819.83100000000002,82.873599999999996,-27.733699999999999,-107.235
214467.0,244.084,-3662.5,-3618.7600000000002,-3687.1399999999999,74.840299999999999,-34.353700000000003,-108.98699999999999
214468.0,236.869,-3817.0300000000002,-3787.02,-3832.3499999999999,66.525999999999996,-39.423299999999998,-110.41200000000001
214469.0,231.36799999999999,-3580.8400000000001,-3565.0100000000002,-3588.6799999999998,58.952199999999998,-43.355600000000003,-111.09999999999999
214470.0,227.053,-5118.6099999999997,-5115.6800000000003,-5120.29,52.450699999999998,-46.211300000000001,-110.871
214471.0,217.41999999999999,-7700.6899999999996,-7720.1099999999997,-7690.5100000000002,41.829300000000003,-50.182699999999997,-106.127
214472.0,211.72800000000001,-7045.3900000000003,-7074.0600000000004,-7029.6400000000003,37.7667,-51.460599999999999,-101.79000000000001
214473.0,205.11600000000001,-7695.3199999999997,-7731.5299999999997,-7674.7399999999998,34.534199999999998,-52.198399999999999,-96.333500000000001
214474.0,197.32499999999999,-8845.2900000000009,-8887.8299999999999,-8820.4400000000005,31.861999999999998,-52.606200000000001,-89.638999999999996
214475.0,188.02699999999999,-9028.6499999999996,-9075.1299999999992,-9001.3999999999996,30.157299999999999,-52.313699999999997,-82.150800000000004
214476.0,176.13999999999999,-9286.0499999999993,-9334.7999999999993,-9257.5400000000009,28.6663,-51.4602,-73.111900000000006
214477.0,149.30000000000001,-9418.6100000000006,-9466.8500000000004,-9393.6000000000004,28.442900000000002,-47.728999999999999,-54.3767
214478.0,133.542,-9253.8799999999992,-9298.9099999999999,-9233.2900000000009,29.285599999999999,-44.217399999999998,-44.779699999999998
214479.0,116.831,-9027.7199999999993,-9066.1200000000008,-9012.8899999999994,29.277799999999999,-39.355800000000002,-37.270299999999999
214480.0,95.725800000000007,-8591.5599999999995,-8617.4799999999996,-8584.3700000000008,28.1203,-33.084099999999999,-29.4267
214481.0,71.319299999999998,-7910.5200000000004,-7916.6700000000001,-7912.8800000000001,26.906600000000001,-24.143799999999999,-19.4666
214482.0,59.784300000000002,-7053.8100000000004,-7034.3999999999996,-7067.6300000000001,26.424900000000001,-11.9306,-8.4913100000000004
214483.0,101.41200000000001,-4510.6400000000003,-4442.1400000000003,-4543.8599999999997,25.575700000000001,8.8543400000000005,-2.33291
214484.0,101.721,-3110.27,-3043.8299999999999,-3144.7800000000002,24.185600000000001,5.3037099999999997,-14.261200000000001
214485.0,94.895799999999994,-2045.8599999999999,-1991.52,-2078.9299999999998,22.824400000000001,-0.087581000000000006,-23.088899999999999
214486.0,92.189400000000006,-1260.3199999999999,-1213.3800000000001,-1290.53,22.7363,-1.0018899999999999,-28.346499999999999
214487.0,87.070099999999996,-626.51599999999996,-583.12400000000002,-653.52099999999996,21.200099999999999,0.226822,-28.570499999999999
214488.0,249.34700000000001,-2208.0100000000002,-2180.4299999999998,-2265.8800000000001,61.435899999999997,-36.430399999999999,-117.137
214489.0,241.51300000000001,-465.70400000000001,-391.70600000000002,-498.65300000000002,79.684799999999996,-24.604199999999999,-97.406199999999998
214490.0,241.702,6838.1899999999996,6828.0500000000002,6854.6700000000001,43.693399999999997,-50.945099999999996,-121.607
214491.0,138.17400000000001,9587.5400000000009,9556.3099999999995,9610.4099999999999,24.089200000000002,-42.875900000000001,-56.638500000000001
214492.0,84.904799999999994,4351.7700000000004,4407.9799999999996,4325.9799999999996,24.915800000000001,2.8654899999999999,-3.9261200000000001
214493.0,84.134500000000003,2486.7600000000002,2535.6599999999999,2462.8600000000001,21.048500000000001,-3.30871,-22.984100000000002
214494.0,93.849299999999999,8793.2800000000007,8773.2600000000002,8800.4699999999993,28.165299999999998,-32.448500000000003,-29.848700000000001
214495.0,224.52000000000001,9429.6900000000005,9402.9599999999991,9457.2600000000002,32.708799999999997,-52.465000000000003,-110.65000000000001
214496.0,270.786,3410.4200000000001,3465.0799999999999,3383.6799999999998,82.962500000000006,-33.285200000000003,-121.366
214497.0,260.64100000000002,2430.1999999999998,2490.6900000000001,2395.0300000000002,85.594300000000004,-27.071999999999999,-110.652
214498.0,263.31799999999998,2565.6799999999998,2605.8899999999999,2550.6199999999999,74.379300000000001,-38.849299999999999,-123.508
214499.0,257.37,6207.6000000000004,6233.3699999999999,6202.3900000000003,65.817899999999995,-43.262700000000002,-124.904
214500.0,252.06100000000001,5692.8900000000003,5705.3299999999999,5695.7799999999997,57.677199999999999,-46.523099999999999,-125.07899999999999
214501.0,247.66200000000001,7218.1499999999996,7218.6599999999999,7228.0500000000002,50.400700000000001,-49.103000000000002,-124.351
214502.0,233.96299999999999,-6797.0,-6799.9399999999996,-6784.5,45.396799999999999,-49.314999999999998,-116.988
214503.0,234.30500000000001,8041.9099999999999,8022.5200000000004,8064.4099999999999,37.758899999999997,-52.1098,-117.129
214504.0,213.142,9042.4099999999999,9009.9300000000003,9073.7800000000007,28.771599999999999,-52.246000000000002,-102.792
214505.0,197.857,9500.9099999999999,9465.5699999999997,9533.9099999999999,25.8781,-50.967700000000001,-92.810199999999995
214506.0,181.02099999999999,9754.75,9718.5499999999993,9786.9899999999998,24.322800000000001,-49.158900000000003,-82.111099999999993
214507.0,160.00800000000001,9719.4699999999993,9684.7700000000004,9748.4500000000007,23.6035,-46.366199999999999,-69.358599999999996
214508.0,146.32400000000001,-9470.9799999999996,-9502.2600000000002,-9436.3400000000001,20.990600000000001,-43.768599999999999,-60.7714
214509.0,114.239,9303.3299999999999,9277.8400000000001,9316.1399999999994,26.2575,-38.101599999999998,-42.766199999999998
214510.0,89.119,8161.7399999999998,8144.8100000000004,8164.7700000000004,30.7498,-28.9603,-27.340900000000001
214511.0,83.446100000000001,7568.0500000000002,7562.0,7560.6000000000004,32.620399999999997,-23.8857,-25.899899999999999
214512.0,73.926400000000001,6746.2700000000004,6764.75,6725.8699999999999,32.067999999999998,-12.507099999999999,-16.081199999999999
214513.0,81.432500000000005,5604.8000000000002,5648.9899999999998,5577.4099999999999,29.436399999999999,-0.80610899999999996,-6.2213200000000004
214514.0,78.391999999999996,-5159.0500000000002,-5110.7200000000003,-5185.75,24.430099999999999,-0.022826099999999998,-2.3037899999999998
214515.0,77.378,3295.3600000000001,3347.04,3274.5,21.230899999999998,-1.2679800000000001,-12.1928
214516.0,93.859399999999994,1697.1800000000001,1751.79,1666.21,21.333300000000001,-0.074005199999999993,-24.569199999999999
214517.0,89.508300000000006,859.01599999999996,911.33299999999997,831.02300000000002,20.276399999999999,0.428284,-24.4452
214518.0,81.384200000000007,188.72200000000001,231.58799999999999,165.44399999999999,18.648800000000001,-2.95858,-26.935300000000002
214519.0,41.432699999999997,51.021799999999999,9.5774299999999997,41.616399999999999,-8.4419599999999999,4.4503500000000003,-3.0089800000000002
214520.0,241.90000000000001,-922.32399999999996,-871.64700000000005,-970.66700000000003,80.123400000000004,-22.473099999999999,-100.642
214521.0,253.792,-3542.0100000000002,-3485.6199999999999,-3578.1700000000001,80.8078,-28.314599999999999,-109.374
214522.0,248.84299999999999,-2628.73,-2582.73,-2651.2399999999998,74.004999999999995,-34.677999999999997,-112.881
214523.0,244.67599999999999,-4358.3800000000001,-4325.3599999999997,-4370.1899999999996,66.574299999999994,-39.884900000000002,-115.727
214524.0,241.477,-6379.4399999999996,-6359.7700000000004,-6382.2399999999998,59.086799999999997,-43.9756,-117.73699999999999
214525.0,238.428,-6521.5,-6513.6499999999996,-6516.54,52.0961,-47.032800000000002,-118.35299999999999
214526.0,228.04900000000001,-6915.3100000000004,-6927.6400000000003,-6895.6700000000001,39.2928,-50.828000000000003,-113.79000000000001
214527.0,220.38900000000001,-8824.3500000000004,-8844.6900000000005,-8798.0400000000009,33.804000000000002,-51.610100000000003,-108.798
214528.0,210.81100000000001,-9245.0,-9271.5100000000002,-9213.1800000000003,29.294499999999999,-51.6066,-102.173
214529.0,199.03999999999999,-8961.5200000000004,-8992.7299999999996,-8925.3500000000004,25.6037,-50.975299999999997,-93.885599999999997
214530.0,184.554,-9418.7299999999996,-9451.8700000000008,-9380.7999999999993,23.165299999999998,-49.398699999999998,-84.332700000000003
214531.0,166.34100000000001,-9545.1299999999992,-9578.3099999999995,-9507.2800000000007,21.4072,-46.984999999999999,-72.760999999999996
214532.0,123.91200000000001,-9331.2999999999993,-9359.1100000000006,-9302.3700000000008,21.711600000000001,-39.445099999999996,-47.808599999999998
214533.0,98.773300000000006,-9001.7000000000007,-9024.0599999999995,-8982.0799999999999,24.240600000000001,-33.390300000000003,-33.289700000000003
214534.0,90.895300000000006,-8403.6399999999994,-8422.9200000000001,-8392.2099999999991,27.9176,-29.5977,-29.284700000000001
214535.0,85.903899999999993,-7827.8800000000001,-7845.0,-7823.1599999999999,28.6326,-27.457599999999999,-27.4587
214536.0,64.827600000000004,-7258.04,-7261.2399999999998,-7263.4200000000001,26.7836,-20.366900000000001,-16.167100000000001
214537.0,59.2896,-6359.4899999999998,-6335.6000000000004,-6377.2399999999998,25.355499999999999,-8.4494699999999998,-4.5547599999999999
214538.0,85.171400000000006,-3933.3400000000001,-3880.3600000000001,-3962.1399999999999,23.628699999999998,-0.99164200000000002,-11.739699999999999
214539.0,80.417500000000004,-2972.8899999999999,-2928.4400000000001,-2997.4499999999998,20.797000000000001,-5.1232699999999998,-21.758500000000002
214540.0,81.006500000000003,-2245.8600000000001,-2199.0599999999999,-2271.23,18.395,-2.6694599999999999,-22.392700000000001
214541.0,92.403099999999995,-1435.9000000000001,-1382.73,-1466.8099999999999,20.5852,0.69330899999999995,-24.762699999999999
214542.0,92.220699999999994,-600.40599999999995,-551.101,-628.19299999999998,20.8185,-1.16307,-29.5931
214543.0,242.96600000000001,376.18200000000002,424.404,328.84800000000001,51.448500000000003,-39.890500000000003,-114.702
214544.0,234.46799999999999,1675.22,1759.1199999999999,1646.8599999999999,70.437100000000001,-26.1616,-96.288499999999999
214545.0,254.524,8132.6700000000001,8128.1700000000001,8157.46,43.351199999999999,-51.280200000000001,-129.755
214546.0,114.93600000000001,9660.8999999999996,9649.3500000000004,9683.3799999999992,18.6432,-34.938099999999999,-50.357300000000002
214547.0,69.331400000000002,3952.8000000000002,3996.48,3932.27,19.932099999999998,-3.74417,-10.7562
214548.0,79.847300000000004,2295.8200000000002,2340.2600000000002,2272.46,20.325099999999999,-4.4170199999999999,-22.504100000000001
214549.0,57.3065,8247.3700000000008,8250.4200000000001,8246.1800000000003,21.663799999999998,-20.041799999999999,-14.7956
214550.0,235.411,8259.1100000000006,8240.2900000000009,8296.9500000000007,30.304200000000002,-52.1843,-118.316
214551.0,270.65800000000002,2000.1099999999999,2056.3099999999999,1974.9000000000001,80.555400000000006,-33.475900000000003,-122.767
214552.0,255.94200000000001,803.93700000000001,865.98299999999995,770.36400000000003,80.3934,-27.8034,-110.66200000000001
214553.0,266.94099999999997,4963.0,5006.1199999999999,4951.1400000000003,73.466399999999993,-39.044699999999999,-126.467
214554.0,264.40699999999998,3350.1900000000001,3379.1500000000001,3349.1999999999998,65.829499999999996,-43.373600000000003,-129.613
214555.0,261.93900000000002,5799.2299999999996,5815.79,5807.7799999999997,58.099699999999999,-46.814300000000003,-131.28200000000001
214556.0,259.51100000000002,6090.3800000000001,6095.6499999999996,6107.2600000000002,50.693300000000001,-49.440199999999997,-131.75700000000001
214557.0,245.773,-6836.2700000000004,-6835.29,-6817.0,45.251399999999997,-49.677100000000003,-124.505
214558.0,246.851,8400.9699999999993,8388.2999999999993,8432.9500000000007,36.511099999999999,-52.281700000000001,-125.363
214559.0,220.673,9630.3799999999992,9607.3500000000004,9672.2000000000007,25.059699999999999,-51.119300000000003,-109.134
214560.0,200.447,9861.2399999999998,9837.1800000000003,9903.8600000000006,21.066800000000001,-48.670299999999997,-97.161500000000004
214561.0,176.76300000000001,9956.9200000000001,9934.2299999999996,9996.8600000000006,18.668500000000002,-45.327399999999997,-83.704999999999998
214562.0,147.119,9963.3199999999997,9944.9400000000005,9996.8500000000004,17.612500000000001,-40.678100000000001,-67.504199999999997
214563.0,129.37100000000001,-9703.8999999999996,-9720.0300000000007,-9664.6299999999992,14.3538,-37.167999999999999,-56.386899999999997
214564.0,79.989500000000007,9073.8099999999995,9072.3500000000004,9081.9400000000005,20.690200000000001,-26.383800000000001,-31.335000000000001
214565.0,61.455100000000002,7418.2299999999996,7416.79,7414.46,24.8826,-20.059799999999999,-15.289
214566.0,69.253799999999998,6660.3800000000001,6661.8599999999997,6651.6099999999997,28.413799999999998,-18.252600000000001,-20.676500000000001
214567.0,64.534800000000004,5861.8000000000002,5881.9899999999998,5845.7600000000002,27.3828,-9.9910399999999999,-14.4537
214568.0,66.9084,4921.8299999999999,4959.7799999999997,4902.4499999999998,23.462599999999998,-3.8979300000000001,-8.7307900000000007
214569.0,66.319100000000006,-4512.1199999999999,-4472.8400000000001,-4532.8000000000002,20.1722,-5.8559099999999997,-9.8631899999999995
214570.0,70.519999999999996,3064.6900000000001,3106.4899999999998,3044.02,18.638500000000001,-5.4104099999999997,-16.376899999999999
214571.0,90.238100000000003,1550.01,1601.98,1520.9300000000001,21.230899999999998,-1.5494000000000001,-23.988199999999999
214572.0,86.314999999999998,802.66300000000001,851.75900000000001,773.673,19.218900000000001,-2.5442399999999998,-23.4422
214573.0,78.150700000000001,201.10599999999999,239.75999999999999,176.48699999999999,17.358799999999999,-5.7022399999999998,-26.167000000000002
214574.0,41.577800000000003,60.7453,19.7059,53.281300000000002,-8.8619500000000002,3.1658300000000001,-3.1313800000000001
214575.0,236.291,-1436.77,-1377.73,-1481.5999999999999,73.540599999999998,-23.877400000000002,-99.594999999999999
214576.0,251.96700000000001,-712.74599999999998,-654.73299999999995,-747.57799999999997,77.474100000000007,-28.232500000000002,-110.28700000000001
214577.0,250.40700000000001,-3637.2600000000002,-3588.5900000000001,-3657.6300000000001,72.5702,-34.564799999999998,-114.812
214578.0,249.72999999999999,-3873.6700000000001,-3838.2800000000002,-3882.4400000000001,66.241,-39.603099999999998,-119.52200000000001
214579.0,249.48599999999999,-3749.25,-3726.5700000000002,-3747.8699999999999,59.369900000000001,-43.952500000000001,-123.002
214580.0,248.80199999999999,-5418.54,-5407.3299999999999,-5408.1599999999999,52.4251,-47.227699999999999,-124.965
214581.0,240.185,-8256.4099999999999,-8264.1299999999992,-8228.6700000000001,38.260300000000001,-51.211100000000002,-121.636
214582.0,231.71700000000001,-7695.6000000000004,-7710.4099999999999,-7660.04,31.747499999999999,-51.808100000000003,-116.342
214583.0,219.94999999999999,-8398.6700000000001,-8418.5300000000007,-8356.7600000000002,25.894500000000001,-51.249400000000001,-108.788
214584.0,204.53299999999999,-9547.2399999999998,-9570.2199999999993,-9500.7999999999993,20.9435,-49.661299999999997,-98.9405
214585.0,184.56399999999999,-9661.7299999999996,-9684.7900000000009,-9614.2800000000007,17.41,-46.727499999999999,-87.036600000000007
214586.0,158.94800000000001,-9768.8099999999995,-9789.6200000000008,-9723.2800000000007,14.931699999999999,-42.564500000000002,-72.357299999999995
214587.0,94.484999999999999,-9301.9200000000001,-9311.2700000000004,-9273.0499999999993,15.6577,-29.994900000000001,-37.868499999999997
214588.0,59.457999999999998,-8638.5699999999997,-8636.7999999999993,-8623.6499999999996,17.557099999999998,-20.8064,-19.2578
214589.0,59.258299999999998,-7779.7700000000004,-7775.3000000000002,-7777.3599999999997,23.293199999999999,-18.0746,-17.212299999999999
214590.0,69.294300000000007,-6959.5100000000002,-6960.3500000000004,-6960.7799999999997,26.869199999999999,-19.748000000000001,-22.095400000000001
214591.0,57.461399999999998,-6274.6499999999996,-6268.4899999999998,-6280.0299999999997,24.6798,-15.6471,-14.606400000000001
214592.0,55.664000000000001,-5475.8199999999997,-5450.04,-5490.3100000000004,22.037800000000001,-8.6616300000000006,-7.48698
214593.0,71.662400000000005,-3556.4899999999998,-3515.3899999999999,-3579.0,19.265599999999999,-6.4923999999999999,-16.060600000000001
214594.0,73.734300000000005,-2723.54,-2684.2800000000002,-2744.8099999999999,19.134499999999999,-7.1234099999999998,-21.267099999999999
214595.0,79.318700000000007,-2006.46,-1961.46,-2030.3599999999999,19.115100000000002,-4.7727000000000004,-22.024799999999999
214596.0,90.389899999999997,-1269.1300000000001,-1218.22,-1300.5599999999999,20.207899999999999,-3.1407099999999999,-24.059799999999999
214597.0,89.781800000000004,-540.83900000000006,-496.83600000000001,-572.351,20.173999999999999,-5.7053799999999999,-28.438199999999998
214598.0,66.7911,35.908099999999997,39.205199999999998,40.898299999999999,8.3752600000000008,-16.183199999999999,-33.890099999999997
214599.0,57.661099999999998,44.097999999999999,22.676600000000001,57.730800000000002,0.65187600000000001,-12.809200000000001,-25.129899999999999
214600.0,46.133299999999998,49.799599999999998,15.3634,57.811700000000002,-4.8084600000000002,-5.5021699999999996,-12.140000000000001
214601.0,45.180199999999999,48.836599999999997,12.9145,55.214199999999998,-5.4518700000000004,-4.41465,-10.5428
214602.0,55.704599999999999,46.288400000000003,22.660499999999999,59.783099999999997,-0.17041799999999999,-11.854200000000001,-23.2531
214603.0,65.901399999999995,50.207700000000003,44.676200000000001,61.863700000000001,5.5163799999999998,-17.227499999999999,-32.302799999999998
214604.0,70.0244,-19.679600000000001,-11.567500000000001,-15.1075,10.0181,-16.964700000000001,-35.068100000000001
214605.0,85.840299999999999,70.181100000000001,63.502699999999997,83.107900000000001,8.7725399999999993,-21.561399999999999,-42.602699999999999
214606.0,63.738100000000003,45.705199999999998,40.104500000000002,55.250999999999998,5.3959000000000001,-15.975,-31.799600000000002
214607.0,63.015700000000002,45.637999999999998,35.508499999999998,57.514400000000002,3.9946600000000001,-15.8011,-30.605699999999999
214608.0,62.474800000000002,45.599499999999999,32.670099999999998,57.7119,3.3742800000000002,-15.186299999999999,-30.0366
214609.0,61.152799999999999,44.2697,28.056799999999999,57.407899999999998,2.3685700000000001,-14.5427,-28.5184
214610.0,59.628300000000003,45.294699999999999,26.398900000000001,58.707799999999999,1.55386,-13.7242,-27.035900000000002
214611.0,53.736499999999999,45.966799999999999,20.293600000000001,59.133400000000002,-1.0066600000000001,-10.8657,-21.290700000000001
214612.0,51.868699999999997,47.798699999999997,20.202999999999999,60.342199999999998,-1.8282799999999999,-9.8283500000000004,-19.369599999999998
214613.0,50.160200000000003,46.755000000000003,17.3035,58.429699999999997,-2.6160999999999999,-8.7581600000000002,-17.491599999999998
214614.0,48.616700000000002,48.493899999999996,17.2974,59.144500000000001,-3.3705099999999999,-7.6886099999999997,-15.633699999999999
214615.0,47.277999999999999,48.569699999999997,15.7514,57.994100000000003,-4.0878100000000002,-6.6156600000000001,-13.8879
214616.0,44.430599999999998,52.674599999999998,15.341200000000001,57.350999999999999,-6.1391600000000004,-3.31941,-8.9016500000000001
214617.0,43.427900000000001,51.679200000000002,13.259499999999999,54.080199999999998,-6.7887000000000004,-2.0775000000000001,-7.3188000000000004
214618.0,42.8033,54.184800000000003,14.683400000000001,54.118899999999996,-7.4891500000000004,-0.83693899999999999,-5.8879299999999999
214619.0,42.2879,54.639299999999999,14.236000000000001,51.703099999999999,-8.1392100000000003,0.432786,-4.70974
214620.0,42.137099999999997,62.0959,20.847300000000001,56.346400000000003,-8.8796300000000006,1.70787,-3.3116099999999999
214621.0,68.488799999999998,30.701799999999999,37.796399999999998,40.355200000000004,7.28512,-15.8141,-35.148299999999999
214622.0,58.144500000000001,45.157699999999998,26.6084,62.189999999999998,-0.021905399999999998,-12.046099999999999,-25.7898
214623.0,46.457599999999999,49.598500000000001,16.728400000000001,59.628500000000003,-5.2882899999999999,-5.4142299999999999,-12.5929
214624.0,45.487900000000003,51.1907,16.637599999999999,59.359900000000003,-5.9663000000000004,-4.4282399999999997,-10.963699999999999
214625.0,56.166800000000002,43.961399999999998,23.006900000000002,60.640599999999999,-0.82914900000000002,-11.1516,-23.894100000000002
214626.0,67.459900000000005,50.480800000000002,48.801600000000001,66.746499999999997,4.7195600000000004,-16.444299999999998,-33.556199999999997
214627.0,72.267399999999995,-23.793700000000001,-11.282,-14.7163,9.1720500000000005,-16.9892,-36.418500000000002
214628.0,87.495400000000004,66.740399999999994,65.1892,84.933199999999999,7.3117599999999996,-20.712800000000001,-44.145200000000003
214629.0,64.795199999999994,39.958300000000001,37.787199999999999,53.801099999999998,4.4924999999999997,-15.2256,-32.741500000000002
214630.0,63.770400000000002,45.869999999999997,39.046700000000001,61.784500000000001,3.1987800000000002,-14.880699999999999,-31.4285
214631.0,62.984499999999997,41.641100000000002,31.942499999999999,57.613199999999999,2.5548199999999999,-14.266299999999999,-30.728999999999999
214632.0,61.602800000000002,44.404299999999999,31.3017,61.210999999999999,1.60799,-13.6233,-29.1891
214633.0,60.063699999999997,42.7883,26.910699999999999,59.747199999999999,0.83556699999999995,-12.876899999999999,-27.683599999999998
214634.0,54.180399999999999,45.595799999999997,22.3551,61.699199999999998,-1.6351199999999999,-10.2148,-21.9148
214635.0,52.305399999999999,45.235399999999998,19.877500000000001,60.533999999999999,-2.3990800000000001,-9.2722099999999994,-19.963799999999999
214636.0,50.6008,47.295699999999997,19.9483,61.603299999999997,-3.1440399999999999,-8.3315099999999997,-18.061800000000002
214637.0,49.028399999999998,47.513100000000001,18.244900000000001,60.603900000000003,-3.8871000000000002,-7.3612599999999997,-16.173500000000001
214638.0,47.639899999999997,48.404800000000002,17.2926,60.015999999999998,-4.5864099999999999,-6.3832500000000003,-14.3779
214639.0,44.737200000000001,50.988,14.7079,57.103299999999997,-6.6515700000000004,-3.40178,-9.2819500000000001
214640.0,43.817,52.184399999999997,14.529,55.837600000000002,-7.2716200000000004,-2.3319899999999998,-7.6625399999999999
214641.0,43.303899999999999,55.308799999999998,16.262699999999999,56.368200000000002,-7.9297500000000003,-1.2890200000000001,-6.1784999999999997
214642.0,42.878300000000003,54.142400000000002,13.8881,52.1997,-8.5662099999999999,-0.22004899999999999,-4.9085400000000003
214643.0,42.929299999999998,55.098199999999999,13.5809,50.078899999999997,-9.3709299999999995,0.94620400000000005,-3.4785599999999999
214644.0,69.595799999999997,31.333200000000001,41.8339,45.0002,6.0877999999999997,-14.866400000000001,-36.128599999999999
214645.0,58.700899999999997,41.972900000000003,25.983000000000001,62.003500000000003,-0.82464099999999996,-10.9688,-26.492899999999999
214646.0,47.001600000000003,49.475200000000001,17.9147,61.460299999999997,-5.7785299999999999,-5.0977800000000002,-13.077400000000001
214647.0,46.0105,48.797600000000003,15.323,58.705199999999998,-6.4224199999999998,-4.2488700000000001,-11.382899999999999
214648.0,56.771799999999999,44.261600000000001,25.729800000000001,63.858899999999998,-1.5636699999999999,-10.1775,-24.591999999999999
214649.0,68.451499999999996,45.097000000000001,46.764400000000002,65.194100000000006,3.68716,-15.057399999999999,-34.600000000000001
214650.0,74.1691,-22.509499999999999,-6.1558999999999999,-9.2004199999999994,7.6799499999999998,-16.108599999999999,-37.941800000000001
214651.0,88.488699999999994,61.287300000000002,64.484499999999997,84.096999999999994,5.6827100000000002,-19.169499999999999,-45.362900000000003
214652.0,65.595699999999994,41.709499999999998,42.644500000000001,59.261600000000001,3.52075,-14.009600000000001,-33.587000000000003
214653.0,64.4833,42.033900000000003,38.271000000000001,61.531500000000001,2.28851,-13.601599999999999,-32.247399999999999
214654.0,63.568899999999999,42.568100000000001,35.830100000000002,61.976799999999997,1.64429,-13.0373,-31.4648
214655.0,62.170099999999998,41.490200000000002,31.2562,61.603900000000003,0.73287800000000003,-12.426399999999999,-29.917200000000001
214656.0,60.596299999999999,42.975200000000001,29.820799999999998,63.075499999999998,-0.023935499999999998,-11.734,-28.386500000000002
214657.0,54.842700000000001,43.9651,23.022400000000001,62.928600000000003,-2.3029799999999998,-9.3637200000000007,-22.6084
214658.0,52.9739,46.067100000000003,22.837700000000002,64.098100000000002,-3.0299800000000001,-8.5253700000000006,-20.632300000000001
214659.0,51.234999999999999,45.495899999999999,20.055,62.326799999999999,-3.7355999999999998,-7.6741599999999996,-18.688400000000001
214660.0,49.641399999999997,47.407499999999999,19.8492,62.852899999999998,-4.4282500000000002,-6.8210899999999999,-16.754999999999999
214661.0,48.218800000000002,47.819200000000002,18.265899999999998,61.643799999999999,-5.09816,-5.9692299999999996,-14.912100000000001
214662.0,45.222000000000001,52.637,17.3062,60.3598,-7.0853000000000002,-3.38069,-9.6502300000000005
214663.0,44.3367,52.390099999999997,15.402200000000001,57.4101,-7.7030900000000004,-2.4516200000000001,-7.97316
214664.0,43.824100000000001,54.931800000000003,16.281199999999998,57.064399999999999,-8.34192,-1.5370999999999999,-6.4252900000000004
214665.0,43.534300000000002,56.052999999999997,15.838699999999999,54.995699999999999,-8.9540000000000006,-0.64403999999999995,-5.0885199999999999
214666.0,43.576000000000001,62.9925,21.1813,58.628300000000003,-9.5886999999999993,0.29941099999999998,-3.5600000000000001
214667.0,70.331100000000006,28.337800000000001,41.557899999999997,45.306600000000003,4.6879,-13.4794,-36.955199999999998
214668.0,59.4938,43.103200000000001,29.5458,65.957899999999995,-1.7102299999999999,-9.7134999999999998,-27.2745
214669.0,47.725200000000001,49.122199999999999,18.771100000000001,63.124299999999998,-6.2526700000000002,-4.6144999999999996,-13.5928
214670.0,46.718800000000002,51.0533,18.613099999999999,62.856900000000003,-6.8613900000000001,-3.90361,-11.8476
214671.0,57.566600000000001,42.1937,25.928799999999999,64.505600000000001,-2.40212,-9.0046800000000005,-25.351400000000002
214672.0,69.112799999999993,46.619300000000003,51.3583,69.750399999999999,2.50203,-13.3392,-35.478200000000001
214673.0,75.996200000000002,-22.669899999999998,-2.7905700000000002,-5.5476700000000001,6.1210800000000001,-14.9719,-39.3386
214674.0,88.492000000000004,59.586399999999998,67.037599999999998,85.7761,3.8389000000000002,-17.069800000000001,-46.065899999999999
214675.0,66.252799999999993,37.447699999999998,41.090899999999998,58.023600000000002,2.33127,-12.501099999999999,-34.363799999999998
214676.0,65.1464,43.186300000000003,42.151400000000002,65.604200000000006,1.2142299999999999,-12.050700000000001,-33.051200000000001
214677.0,64.236599999999996,39.3294,35.262799999999999,61.6755,0.57762400000000003,-11.571199999999999,-32.232999999999997
214678.0,62.877800000000001,42.154800000000002,34.534399999999998,65.152100000000004,-0.26487500000000003,-11.002700000000001,-30.702999999999999
214679.0,61.348399999999998,40.603499999999997,29.9876,63.581400000000002,-0.96977899999999995,-10.395899999999999,-29.166
214680.0,55.6218,44.151400000000002,25.276299999999999,65.675899999999999,-3.0845500000000001,-8.2694299999999998,-23.3398
214681.0,53.752400000000002,43.959299999999999,22.6175,64.440299999999993,-3.7365699999999999,-7.5337300000000003,-21.331700000000001
214682.0,52.029400000000003,46.061100000000003,22.368200000000002,65.283299999999997,-4.3762499999999998,-6.8055399999999997,-19.3596
214683.0,50.414999999999999,46.613500000000002,20.628399999999999,64.332899999999995,-5.0133799999999997,-6.06576,-17.380500000000001
214684.0,48.971699999999998,47.723300000000002,19.5182,63.646900000000002,-5.6282500000000004,-5.3386300000000002,-15.4863
214685.0,45.882100000000001,51.454999999999998,16.886800000000001,60.799900000000001,-7.4783799999999996,-3.16486,-10.0335
214686.0,44.981499999999997,52.658700000000003,16.227900000000002,59.140900000000002,-8.0495199999999993,-2.4198599999999999,-8.2868600000000008
214687.0,44.444200000000002,56.154000000000003,17.874500000000001,59.609099999999998,-8.6435399999999998,-1.6944999999999999,-6.6590199999999999
214688.0,44.155799999999999,55.161299999999997,15.1014,55.270000000000003,-9.2231900000000007,-0.99854600000000004,-5.2401799999999996
214689.0,44.098399999999998,56.470399999999998,14.6952,53.052300000000002,-9.8416300000000003,-0.22797300000000001,-3.6458699999999999
214690.0,70.983000000000004,30.719899999999999,46.4893,50.303899999999999,3.08684,-11.9162,-37.685699999999997
214691.0,60.367699999999999,40.499000000000002,29.1021,65.734200000000001,-2.7307899999999998,-8.23691,-28.0716
214692.0,48.562600000000003,49.412500000000001,20.083200000000001,65.258600000000001,-6.7482899999999999,-3.9185599999999998,-14.1372
214693.0,47.5321,48.783299999999997,17.1541,62.290999999999997,-7.2967300000000002,-3.3668,-12.3217
214694.0,58.468600000000002,42.877400000000002,28.644100000000002,67.538700000000006,-3.34124,-7.6134199999999996,-26.136900000000001
214695.0,69.674099999999996,42.517000000000003,49.918599999999998,67.987700000000004,1.11713,-11.478300000000001,-36.242100000000001
214696.0,77.195300000000003,-18.319900000000001,4.3895099999999996,1.6797,4.5213299999999998,-13.3148,-40.432699999999997
214697.0,88.529300000000006,55.284199999999998,66.248400000000004,84.093199999999996,2.01396,-14.769600000000001,-46.678100000000001
214698.0,66.965199999999996,40.049500000000002,46.247500000000002,63.137900000000002,0.992946,-10.8468,-35.119
214699.0,65.930099999999996,39.970700000000001,41.492899999999999,64.874700000000004,-0.032869000000000002,-10.367000000000001,-33.861199999999997
214700.0,65.057400000000001,40.780099999999997,39.207700000000003,65.650700000000001,-0.635633,-9.9472500000000004,-33.036799999999999
214701.0,63.7346,39.6541,34.457599999999999,65.150999999999996,-1.4138900000000001,-9.4102499999999996,-31.521699999999999
214702.0,62.212200000000003,41.414499999999997,33.100099999999998,66.842399999999998,-2.0680800000000001,-8.8580000000000005,-29.972200000000001
214703.0,56.552199999999999,42.605200000000004,25.6419,66.462100000000007,-3.9401299999999999,-6.9791400000000001,-24.1098
214704.0,54.685000000000002,44.970199999999998,25.387599999999999,67.722700000000003,-4.5239500000000001,-6.3459500000000002,-22.072099999999999
214705.0,52.934899999999999,44.690300000000001,22.558,66.058300000000003,-5.0904699999999998,-5.7235399999999998,-20.056100000000001
214706.0,51.305399999999999,46.783099999999997,22.1815,66.557299999999998,-5.6516599999999997,-5.1079299999999996,-18.031600000000001
214707.0,49.844000000000001,47.383499999999998,20.430700000000002,65.319000000000003,-6.1956600000000002,-4.5115600000000002,-16.09
214708.0,46.656799999999997,52.747900000000001,18.887699999999999,63.7697,-7.8474000000000004,-2.79528,-10.448
214709.0,45.755400000000002,52.951700000000002,17.017499999999998,61.002699999999997,-8.3669700000000002,-2.2261199999999999,-8.6270900000000008
214710.0,45.146700000000003,55.675699999999999,17.704499999999999,60.505000000000003,-8.9058299999999999,-1.6840200000000001,-6.9107700000000003
214711.0,44.875,57.216900000000003,17.2575,58.605499999999999,-9.4488199999999996,-1.18384,-5.4023599999999998
214712.0,44.851599999999998,64.029600000000002,22.108499999999999,61.7744,-10.0205,-0.62082700000000002,-3.7128899999999998
214713.0,71.642200000000003,27.027000000000001,45.474200000000003,48.521599999999999,1.3992800000000001,-10.2667,-38.317599999999999
214714.0,61.3979,41.8705,32.4893,69.182299999999998,-3.8611,-6.5937900000000003,-28.892800000000001
214715.0,49.507100000000001,48.988500000000002,20.591899999999999,66.573400000000007,-7.2850000000000001,-3.04522,-14.7079
214716.0,48.454799999999999,51.251100000000001,20.434699999999999,66.505399999999995,-7.7478400000000001,-2.6318700000000002,-12.839700000000001
214717.0,59.498899999999999,41.161700000000003,28.795999999999999,67.849900000000005,-4.39194,-6.0449799999999998,-26.940899999999999
214718.0,70.4161,45.127699999999997,55.001800000000003,72.704899999999995,-0.45852999999999999,-9.5672700000000006,-36.9572
214719.0,77.834699999999998,-23.466000000000001,1.7527699999999999,-1.59833,2.76613,-11.4899,-41.136000000000003
214720.0,89.521299999999997,57.4497,71.093199999999996,88.534599999999998,-0.094232300000000005,-12.5252,-47.662300000000002
214721.0,67.744200000000006,36.094700000000003,44.765999999999998,61.177199999999999,-0.51375800000000005,-9.0983199999999993,-35.839100000000002
214722.0,66.768900000000002,41.766599999999997,45.651400000000002,68.718299999999999,-1.44937,-8.5577900000000007,-34.618299999999998
214723.0,65.973200000000006,37.889899999999997,38.643999999999998,64.820099999999996,-2.0057100000000001,-8.1836599999999997,-33.832799999999999
214724.0,64.690399999999997,40.791800000000002,37.816499999999998,68.358699999999999,-2.70316,-7.6559999999999997,-32.332999999999998
214725.0,63.217700000000001,39.214199999999998,33.033000000000001,66.722800000000007,-3.28105,-7.1569599999999998,-30.797999999999998
214726.0,57.563099999999999,43.391300000000001,28.116700000000002,69.192599999999999,-4.9064100000000002,-5.49193,-24.8843
214727.0,55.685899999999997,43.288400000000003,25.229500000000002,67.925399999999996,-5.3961399999999999,-4.95878,-22.816500000000001
214728.0,53.937800000000003,45.470500000000001,24.734999999999999,68.714799999999997,-5.8760199999999996,-4.4482900000000001,-20.769400000000001
214729.0,52.290500000000002,46.242199999999997,22.879899999999999,67.843699999999998,-6.3468099999999996,-3.95072,-18.7042
214730.0,50.8018,47.5047,21.586200000000002,67.160200000000003,-6.8103600000000002,-3.4947599999999999,-16.708200000000001
214731.0,47.531300000000002,51.945999999999998,18.6647,64.549899999999994,-8.2100399999999993,-2.2284199999999998,-10.8956
214732.0,46.623600000000003,53.135100000000001,17.596900000000002,62.722499999999997,-8.6586400000000001,-1.8585400000000001,-8.9978400000000001
214733.0,45.933100000000003,56.819499999999998,19.122900000000001,63.120600000000003,-9.1165699999999994,-1.51501,-7.1961899999999996
214734.0,45.651600000000002,56.091099999999997,16.218399999999999,58.888300000000001,-9.6013099999999998,-1.2303299999999999,-5.59131
214735.0,45.584099999999999,57.292299999999997,15.2491,56.311399999999999,-10.083600000000001,-0.89344599999999996,-3.7915899999999998
214736.0,72.416799999999995,28.2563,49.6145,51.2789,-0.373778,-8.6082699999999992,-38.845700000000001
214737.0,62.485100000000003,39.813699999999997,32.196100000000001,68.706199999999995,-5.1125400000000001,-4.7838099999999999,-29.689599999999999
214738.0,50.496699999999997,49.799799999999998,22.1462,68.819199999999995,-7.8438999999999997,-1.98319,-15.287599999999999
214739.0,49.429000000000002,49.0807,18.8048,65.686400000000006,-8.2337199999999999,-1.7554099999999999,-13.360099999999999
214740.0,60.5899,42.277700000000003,31.5412,70.526799999999994,-5.5478899999999998,-4.3050499999999996,-27.7286
214741.0,71.326700000000002,41.998800000000003,54.1967,71.426199999999994,-2.1935799999999999,-7.5553100000000004,-37.620899999999999
214742.0,78.272300000000001,-26.363099999999999,1.5210399999999999,-3.0648499999999999,0.71899999999999997,-9.7529800000000009,-41.508899999999997
214743.0,91.378799999999998,56.231499999999997,72.442599999999999,89.648700000000005,-2.58901,-10.365,-48.887300000000003
214744.0,68.639600000000002,38.688299999999998,49.848599999999998,65.423699999999997,-2.1203599999999998,-7.2605899999999997,-36.509399999999999
214745.0,67.730199999999996,39.034799999999997,45.182699999999997,67.699700000000007,-2.9959799999999999,-6.6291700000000002,-35.333500000000001
214746.0,66.996399999999994,39.7014,42.670200000000001,68.294600000000003,-3.4952299999999998,-6.29183,-34.6006
214747.0,65.752300000000005,38.710900000000002,37.794199999999996,67.940299999999993,-4.12059,-5.7601199999999997,-33.1205
214748.0,64.297600000000003,40.630299999999998,36.379199999999997,69.756900000000002,-4.6254299999999997,-5.3006900000000003,-31.598800000000001
214749.0,58.676000000000002,42.040100000000002,28.268999999999998,69.418300000000002,-5.96469,-3.8370500000000001,-25.662800000000001
214750.0,56.7834,44.648699999999998,27.961400000000001,70.853099999999998,-6.3591899999999999,-3.3972500000000001,-23.5655
214751.0,55.022599999999997,44.563600000000001,25.022300000000001,69.324399999999997,-6.7416600000000004,-2.9990100000000002,-21.489100000000001
214752.0,53.341799999999999,46.776899999999998,24.465399999999999,69.870400000000004,-7.1193299999999997,-2.6206900000000002,-19.376300000000001
214753.0,51.850099999999998,47.536999999999999,22.5749,68.734499999999997,-7.4826300000000003,-2.2835899999999998,-17.351600000000001
214754.0,48.463099999999997,53.1267,20.336400000000001,67.166700000000006,-8.6132100000000005,-1.5055499999999999,-11.352
214755.0,47.523000000000003,53.629399999999997,18.443899999999999,64.658299999999997,-8.9546700000000001,-1.306,-9.3994700000000009
214756.0,46.784700000000001,56.377899999999997,18.872399999999999,64.079300000000003,-9.3187099999999994,-1.1702600000000001,-7.51363
214757.0,46.447000000000003,58.268099999999997,18.4619,62.457000000000001,-9.7151899999999998,-1.1001099999999999,-5.8226199999999997
214758.0,46.270899999999997,64.948599999999999,22.8657,65.320700000000002,-10.0816,-0.99875199999999997,-3.9292899999999999
214759.0,73.307900000000004,24.134,48.359499999999997,48.545200000000001,-2.2126999999999999,-6.8610199999999999,-39.2714
214760.0,63.665999999999997,41.552199999999999,35.508499999999998,71.579599999999999,-6.4742800000000003,-2.8361999999999998,-30.462199999999999
214761.0,51.567100000000003,49.484400000000001,22.466799999999999,69.698499999999996,-8.4980600000000006,-0.76631099999999996,-15.8751
214762.0,50.471400000000003,51.970599999999997,22.288599999999999,69.895899999999997,-8.7609700000000004,-0.63658999999999999,-13.9222
214763.0,61.776699999999998,41.049100000000003,31.7471,70.428100000000001,-6.81386,-2.4238200000000001,-28.4986
214764.0,72.326400000000007,44.852899999999998,59.3782,75.747699999999995,-4.0228299999999999,-5.4013600000000004,-38.202599999999997
214765.0,78.993099999999998,-33.7224,-2.6131899999999999,-8.6935199999999995,-1.4843200000000001,-8.0198199999999993,-41.732300000000002
214766.0,93.191500000000005,58.921199999999999,78.034700000000001,94.4529,-5.3159900000000002,-8.0652299999999997,-49.853299999999997
214767.0,69.570300000000003,34.951300000000003,48.451700000000002,62.933900000000001,-3.8305600000000002,-5.2993399999999999,-37.077599999999997
214768.0,68.7166,41.256399999999999,49.4925,71.126499999999993,-4.6415300000000004,-4.5668800000000003,-35.966299999999997
214769.0,68.054400000000001,37.167400000000001,42.137999999999998,66.912700000000001,-5.1000199999999998,-4.27088,-35.2941
214770.0,66.858400000000003,40.325899999999997,41.2395,70.683899999999994,-5.6494099999999996,-3.7295699999999998,-33.851900000000001
214771.0,65.453199999999995,38.715000000000003,36.173299999999998,68.966499999999996,-6.0782499999999997,-3.3112300000000001,-32.361899999999999
214772.0,59.841700000000003,43.4465,30.9451,71.922300000000007,-7.1276000000000002,-2.0328499999999998,-26.413900000000002
214773.0,57.93,43.452100000000002,27.8809,70.736999999999995,-7.4151600000000002,-1.6898200000000001,-24.293800000000001
214774.0,56.155999999999999,45.6188,27.086500000000001,71.495800000000003,-7.6936099999999996,-1.38971,-22.192299999999999
214775.0,54.4542,46.653500000000001,25.206900000000001,70.869600000000005,-7.9498800000000003,-1.131,-20.050699999999999
214776.0,52.929600000000001,47.846499999999999,23.5595,70.116100000000003,-8.2186800000000009,-0.95154300000000003,-17.9772
214777.0,49.462699999999998,52.840800000000002,20.408000000000001,68.115200000000002,-9.0076199999999993,-0.57595799999999997,-11.8543
214778.0,48.477699999999999,53.8902,18.9252,66.160600000000002,-9.2618799999999997,-0.59828999999999999,-9.8236899999999991
214779.0,47.672699999999999,57.736699999999999,20.3736,66.7483,-9.5233699999999999,-0.65729199999999999,-7.8612799999999998
214780.0,47.253799999999998,56.941899999999997,17.1875,62.4651,-9.8141300000000005,-0.80118999999999996,-6.0980800000000004
214781.0,47.018099999999997,58.362000000000002,16.229700000000001,60.119799999999998,-10.0853,-0.92828900000000003,-4.1106100000000003
214782.0,74.275199999999998,26.407499999999999,53.356900000000003,52.002600000000001,-4.13225,-4.9287000000000001,-39.585700000000003
214783.0,64.893100000000004,40.121400000000001,35.369100000000003,70.701599999999999,-7.9409999999999998,-0.77700800000000003,-31.182600000000001
214784.0,52.636099999999999,50.884500000000003,24.2377,71.803600000000003,-9.1448,0.593337,-16.467600000000001
214785.0,51.5075,49.895499999999998,20.372399999999999,68.481999999999999,-9.3312600000000003,0.47763499999999998,-14.4375
214786.0,63.003100000000003,42.6128,34.455599999999997,72.541399999999996,-8.1846200000000007,-0.43114200000000003,-29.220300000000002
214787.0,73.332700000000003,41.819600000000001,58.537599999999998,73.603999999999999,-5.88361,-3.0975299999999999,-38.672499999999999
214788.0,79.966399999999993,-33.275599999999997,1.1278300000000001,-6.5462499999999997,-3.5665100000000001,-6.0252499999999998,-41.908999999999999
214789.0,94.712400000000002,55.992699999999999,78.103200000000001,93.101900000000001,-7.9680499999999999,-5.4860300000000004,-50.478400000000001
214790.0,70.560199999999995,38.139899999999997,53.804000000000002,66.939999999999998,-5.59849,-3.1917800000000001,-37.552100000000003
214791.0,69.777000000000001,38.9452,49.0929,69.502799999999993,-6.3584899999999998,-2.3811800000000001,-36.532499999999999
214792.0,69.192800000000005,39.590499999999999,46.3596,69.986500000000007,-6.7884099999999998,-2.1290399999999998,-35.924999999999997
214793.0,68.053399999999996,38.758899999999997,41.287500000000001,69.724100000000007,-7.2763099999999996,-1.58674,-34.534700000000001
214794.0,66.681600000000003,40.825000000000003,39.749699999999997,71.661799999999999,-7.6399499999999998,-1.2072099999999999,-33.074300000000001
214795.0,61.060000000000002,42.476500000000001,31.002300000000002,71.534000000000006,-8.3922299999999996,-0.113259,-27.126899999999999
214796.0,59.144500000000001,45.240299999999998,30.576699999999999,73.146900000000002,-8.5693000000000001,0.14655399999999999,-24.998000000000001
214797.0,57.3352,45.363199999999999,27.588200000000001,71.860399999999998,-8.7354699999999994,0.33696300000000001,-22.869299999999999
214798.0,55.608499999999999,47.555300000000003,26.760400000000001,72.438199999999995,-8.8956599999999995,0.49591200000000002,-20.697399999999998
214799.0,54.0473,48.552100000000003,24.875299999999999,71.593500000000006,-9.0286399999999993,0.59809299999999999,-18.6051
214800.0,50.456099999999999,54.107500000000002,21.870699999999999,70.240200000000002,-9.5007800000000007,0.42283900000000002,-12.314500000000001
214801.0,49.409999999999997,54.674599999999998,19.863199999999999,67.917900000000003,-9.60548,0.27744999999999997,-10.264699999999999
214802.0,48.601399999999998,57.552900000000001,20.194700000000001,67.626599999999996,-9.7458500000000008,0.0168185,-8.2402099999999994
214803.0,48.078499999999998,59.340000000000003,19.563700000000001,66.014600000000002,-9.9277700000000006,-0.34904200000000002,-6.4108700000000001
214804.0,47.810200000000002,66.217600000000004,23.9619,69.268799999999999,-10.067600000000001,-0.69052800000000003,-4.34117
214805.0,75.208299999999994,22.811499999999999,52.244799999999998,48.918500000000002,-6.0455199999999998,-2.8340000000000001,-39.762099999999997
214806.0,66.184899999999999,42.363900000000001,38.632199999999997,72.912199999999999,-9.5189000000000004,1.3557399999999999,-31.8432
214807.0,53.712499999999999,50.973599999999998,24.5364,72.163499999999999,-9.9820899999999995,2.0520399999999999,-16.983699999999999
214808.0,52.5657,53.715899999999998,24.4636,72.769000000000005,-10.0101,1.9661900000000001,-14.998799999999999
214809.0,64.305300000000003,42.029899999999998,34.768999999999998,71.962599999999995,-9.6610999999999994,1.64611,-29.894300000000001
214810.0,74.327799999999996,45.202199999999998,63.753700000000002,77.205799999999996,-7.7948300000000001,-0.664493,-39.014299999999999
214811.0,80.860900000000001,-39.431699999999999,-2.1369500000000001,-11.777699999999999,-5.5324600000000004,-3.6977699999999998,-41.957700000000003
214812.0,96.429299999999998,59.105600000000003,83.637600000000006,97.013199999999998,-10.621600000000001,-2.6453199999999999,-51.089199999999998
214813.0,71.511099999999999,35.007599999999996,52.517400000000002,63.920200000000001,-7.4260099999999998,-0.98803700000000005,-37.899799999999999
214814.0,70.814599999999999,41.7759,53.488,72.316299999999998,-8.1485500000000002,-0.112136,-36.983199999999997
214815.0,70.334999999999994,37.568800000000003,45.798499999999997,67.917599999999993,-8.5708000000000002,0.082345600000000005,-36.458199999999998
214816.0,69.263099999999994,40.960900000000002,44.768799999999999,71.848699999999994,-9.0033700000000003,0.622865,-35.128799999999998
214817.0,67.951999999999998,39.311500000000002,39.386200000000002,70.086100000000002,-9.3063800000000008,0.96084599999999998,-33.7149
214818.0,62.324199999999998,44.601300000000002,33.868699999999997,73.661100000000005,-9.7521199999999997,1.8913199999999999,-27.789100000000001
214819.0,60.362099999999998,44.656599999999997,30.586600000000001,72.5655,-9.8116500000000002,2.0576099999999999,-25.6419
214820.0,58.504600000000003,46.855899999999998,29.560099999999998,73.388199999999998,-9.8505800000000008,2.1612300000000002,-23.4923
214821.0,56.7468,48.142800000000001,27.663,73.078000000000003,-9.8676700000000004,2.17543,-21.307600000000001
214822.0,55.142899999999997,49.136699999999998,25.606400000000001,72.244699999999995,-9.9181500000000007,2.0740400000000001,-19.1601
214823.0,51.479900000000001,54.607700000000001,22.379100000000001,71.191500000000005,-9.9717500000000001,1.6797200000000001,-12.8482
214824.0,50.399000000000001,55.322000000000003,20.3858,69.108599999999996,-9.97607,1.23943,-10.718
214825.0,49.5533,59.329799999999999,21.834,70.159199999999998,-10.0174,0.80206299999999997,-8.6272300000000008
214826.0,48.899999999999999,58.084000000000003,18.179400000000001,65.634399999999999,-10.061400000000001,0.22892100000000001,-6.7496400000000003
214827.0,48.6355,60.009,17.5532,64.168499999999995,-10.081099999999999,-0.31113800000000003,-4.6134899999999996
214828.0,76.118300000000005,25.221,56.971299999999999,50.9375,-7.9520299999999997,-0.71227399999999996,-39.790500000000002
214829.0,67.529399999999995,41.634799999999998,38.594799999999999,71.495599999999996,-11.1913,3.5250699999999999,-32.432099999999998
214830.0,54.790599999999998,53.307400000000001,26.6311,74.0518,-10.7241,3.4808400000000002,-17.5623
214831.0,53.565399999999997,51.634099999999997,21.946899999999999,70.399199999999993,-10.6479,2.9592900000000002,-15.408899999999999
214832.0,65.608400000000003,44.146799999999999,37.428800000000003,73.3904,-11.228,3.7469000000000001,-30.4815
214833.0,75.385599999999997,43.494199999999999,63.369,75.023300000000006,-9.7772100000000002,1.8635200000000001,-39.256999999999998
214834.0,81.613100000000003,-42.418799999999997,-2.7905500000000001,-14.946899999999999,-7.3983600000000003,-1.2362,-41.854799999999997
214835.0,98.988600000000005,58.752899999999997,84.877099999999999,96.773700000000005,-13.5177,0.32808399999999999,-52.011000000000003
214836.0,72.482600000000005,38.907499999999999,57.990099999999998,67.198599999999999,-9.2971599999999999,1.2473700000000001,-38.144799999999996
214837.0,71.911100000000005,40.356299999999997,53.294800000000002,70.218999999999994,-10.019,2.2008700000000001,-37.339599999999997
214838.0,71.566500000000005,40.789299999999997,50.211300000000001,70.449100000000001,-10.4399,2.3263400000000001,-36.921199999999999
214839.0,70.578699999999998,40.109099999999998,44.912700000000001,70.311300000000003,-10.8331,2.87323,-35.657400000000003
214840.0,69.311199999999999,42.2562,43.204999999999998,72.353099999999998,-11.077500000000001,3.1728999999999998,-34.290599999999998
214841.0,63.600299999999997,44.120899999999999,33.814799999999998,72.537099999999995,-11.2004,3.9243700000000001,-28.377800000000001
214842.0,61.625900000000001,47.094999999999999,33.344799999999999,74.436599999999999,-11.134399999999999,4.0189199999999996,-26.2348
214843.0,59.742400000000004,47.381999999999998,30.303999999999998,73.415700000000001,-11.052,4.0133299999999998,-24.085899999999999
214844.0,57.924900000000001,49.629399999999997,29.257400000000001,74.108000000000004,-10.951499999999999,3.9892599999999998,-21.869700000000002
214845.0,56.305,51.0092,27.450199999999999,73.667100000000005,-10.8546,3.8797899999999998,-19.743500000000001
214846.0,52.441000000000003,56.188899999999997,23.659800000000001,72.716099999999997,-10.605,2.6718700000000002,-13.1951
214847.0,51.317799999999998,56.637300000000003,21.547699999999999,70.601100000000002,-10.4975,2.2716799999999999,-11.1234
214848.0,50.414999999999999,59.519799999999996,21.793299999999999,70.706500000000005,-10.315,1.67441,-9.0110799999999998
214849.0,49.787500000000001,61.0623,20.876100000000001,69.233800000000002,-10.243499999999999,0.91346700000000003,-7.1044700000000001
214850.0,49.453000000000003,67.948099999999997,25.195599999999999,72.935000000000002,-10.113799999999999,0.16967499999999999,-4.9260799999999998
214851.0,76.970399999999998,21.001999999999999,54.862000000000002,45.351999999999997,-9.8444000000000003,1.2684800000000001,-39.639899999999997
214852.0,68.896600000000007,44.479799999999997,41.826300000000003,72.995999999999995,-12.975899999999999,5.6718400000000004,-32.9101
214853.0,56.228000000000002,53.4435,26.383199999999999,73.841700000000003,-11.5671,5.23909,-18.051100000000002
214854.0,55.1995,57.111600000000003,26.9481,75.243099999999998,-11.6554,4.9970499999999998,-16.114599999999999
214855.0,66.979399999999998,44.332500000000003,37.911799999999999,72.297600000000003,-12.891,5.8596000000000004,-30.9939
214856.0,76.429299999999998,48.459699999999998,69.016099999999994,78.707300000000004,-11.8741,4.3832800000000001,-39.349299999999999
214857.0,82.321100000000001,-55.263399999999997,-13.724600000000001,-28.961400000000001,-9.3272499999999994,1.13083,-41.582099999999997
214858.0,102.553,65.941199999999995,92.835499999999996,103.36499999999999,-16.882899999999999,3.3460999999999999,-53.263500000000001
214859.0,73.374700000000004,36.311900000000001,56.595599999999997,63.129399999999997,-11.2384,3.3823300000000001,-38.2273
214860.0,72.944299999999998,44.120899999999999,57.823700000000002,72.507599999999996,-11.979900000000001,4.4541899999999996,-37.533200000000001
214861.0,72.775000000000006,39.275799999999997,49.492100000000001,67.4589,-12.42,4.4913800000000004,-37.247700000000002
214862.0,71.862300000000005,42.992199999999997,48.388399999999997,71.743499999999997,-12.771000000000001,5.0636400000000004,-36.043300000000002
214863.0,70.674899999999994,41.166899999999998,42.620800000000003,69.855199999999996,-12.960699999999999,5.3271499999999996,-34.748800000000003
214864.0,64.897599999999997,47.082900000000002,36.926699999999997,74.245099999999994,-12.713800000000001,5.9792199999999998,-28.883199999999999
214865.0,62.869799999999998,47.139200000000002,33.405799999999999,73.243700000000004,-12.4977,5.9648500000000002,-26.762799999999999
214866.0,61.009500000000003,49.2986,32.079599999999999,74.2273,-12.2889,5.8921900000000003,-24.615500000000001
214867.0,59.322499999999998,50.588200000000001,30.1341,74.290000000000006,-12.0654,5.6657099999999998,-22.5181
214868.0,57.549199999999999,51.100999999999999,27.6343,73.403400000000005,-11.761900000000001,5.2938499999999999,-20.341799999999999
214869.0,53.613100000000003,57.481699999999996,24.769200000000001,73.640199999999993,-11.3407,4.24634,-13.84
214870.0,52.394599999999997,57.657899999999998,22.114999999999998,71.630300000000005,-10.8803,3.41811,-11.5449
214871.0,51.386699999999998,61.624099999999999,23.4968,72.915599999999998,-10.676399999999999,2.5887799999999999,-9.4310200000000002
214872.0,50.653700000000001,60.206099999999999,19.644300000000001,68.717399999999998,-10.464700000000001,1.6599900000000001,-7.43987
214873.0,50.249400000000001,61.641300000000001,18.527999999999999,67.193700000000007,-10.184100000000001,0.72893200000000002,-5.2688899999999999
214874.0,77.851500000000001,23.0745,58.995399999999997,45.405000000000001,-11.775700000000001,3.0316800000000002,-39.287199999999999
214875.0,70.3262,44.5197,41.9527,71.049700000000001,-14.8428,7.7790999999999997,-33.290500000000002
214876.0,58.372900000000001,53.820700000000002,26.7333,74.170199999999994,-12.7682,6.7462099999999996,-18.997599999999998
214877.0,56.328000000000003,52.525300000000001,23.2258,71.792000000000002,-11.9354,5.86409,-16.8141
214878.0,68.336500000000001,46.908200000000001,40.446199999999997,72.895700000000005,-14.638199999999999,7.8880100000000004,-31.386500000000002
214879.0,77.570499999999996,48.5246,69.328400000000002,76.819299999999998,-14.0776,6.8692799999999998,-39.312199999999997
214880.0,83.170599999999993,-64.614099999999993,-21.369299999999999,-40.079099999999997,-11.3789,3.28559,-41.172199999999997
214881.0,106.889,69.226100000000002,96.316199999999995,105.36799999999999,-20.783799999999999,6.3098999999999998,-54.616799999999998
214882.0,74.358900000000006,40.863300000000002,62.1526,65.593800000000002,-13.2514,5.4031900000000004,-38.194800000000001
214883.0,74.093199999999996,43.761200000000002,57.954900000000002,70.0869,-14.0428,6.6394799999999998,-37.616999999999997
214884.0,74.142600000000002,43.301900000000003,54.125100000000003,69.463300000000004,-14.513999999999999,6.5962899999999998,-37.488700000000001
214885.0,73.297300000000007,42.976199999999999,48.748199999999997,69.728300000000004,-14.8239,7.2230299999999996,-36.341700000000003
214886.0,72.1768,44.972799999999999,46.719099999999997,71.685599999999994,-14.956300000000001,7.4629899999999996,-35.1252
214887.0,66.183400000000006,47.1006,36.801000000000002,72.374600000000001,-14.324299999999999,7.9673400000000001,-29.2636
214888.0,64.124899999999997,50.151299999999999,36.308700000000002,74.482100000000003,-13.9625,7.9044600000000003,-27.198599999999999
214889.0,62.298699999999997,50.727200000000003,33.165799999999997,74.053600000000003,-13.590299999999999,7.8225499999999997,-25.041899999999998
214890.0,60.716200000000001,52.114600000000003,31.3781,74.165199999999999,-13.295199999999999,7.39276,-23.2288
214891.0,59.100999999999999,50.886099999999999,26.563199999999998,71.696700000000007,-12.954000000000001,7.21075,-20.838000000000001
214892.0,55.419699999999999,56.850700000000003,23.1723,73.710400000000007,-11.461600000000001,5.6121600000000003,-14.100300000000001
214893.0,54.0184,59.450899999999997,23.23,73.202699999999993,-11.579599999999999,4.6460499999999998,-12.2719
214894.0,52.135599999999997,61.558700000000002,23.091100000000001,72.659700000000001,-11.0296,3.5864199999999999,-9.7392099999999999
214895.0,51.6267,63.825800000000001,22.7135,72.438800000000001,-10.696099999999999,2.5419499999999999,-7.8360700000000003
214896.0,50.983600000000003,69.781400000000005,26.275600000000001,75.635099999999994,-10.2676,1.3703399999999999,-5.6489700000000003
214897.0,78.704300000000003,18.6907,56.450400000000002,38.640799999999999,-13.719900000000001,4.6215900000000003,-38.7087
214898.0,71.795599999999993,47.828800000000001,45.103200000000001,71.774000000000001,-16.817699999999999,9.7735400000000006,-33.5334
214899.0,59.870800000000003,54.094000000000001,26.4758,72.107100000000003,-14.072699999999999,8.0608299999999993,-20.089300000000001
214900.0,56.670699999999997,44.478099999999998,13.576700000000001,60.244700000000002,-12.9512,7.1962999999999999,-16.9541
214901.0,69.822699999999998,47.872999999999998,41.186900000000001,71.359499999999997,-16.488199999999999,9.8877199999999998,-31.691099999999999
214902.0,78.632800000000003,54.433900000000001,75.129999999999995,80.005200000000002,-16.349299999999999,9.1789000000000005,-39.053199999999997
214903.0,84.488,-80.250500000000002,-35.356299999999997,-57.614199999999997,-13.7911,5.1762499999999996,-40.725099999999998
214904.0,110.97,78.644499999999994,105.898,112.711,-25.052700000000002,9.1339799999999993,-55.3962
214905.0,75.326899999999995,38.594999999999999,60.618099999999998,60.697499999999998,-15.3363,7.2345199999999998,-37.968200000000003
214906.0,75.260099999999994,48.012799999999999,62.391100000000002,71.642700000000005,-16.188300000000002,8.6568900000000006,-37.539900000000003
214907.0,75.491699999999994,42.018599999999999,53.1203,65.525800000000004,-16.703600000000002,8.5277100000000008,-37.545299999999997
214908.0,74.703900000000004,46.256900000000002,52.063299999999998,70.337800000000001,-16.9651,9.2109100000000002,-36.464300000000001
214909.0,73.637200000000007,44.132199999999997,45.835500000000003,68.204599999999999,-17.039899999999999,9.4313500000000001,-35.322899999999997
214910.0,67.598299999999995,50.783099999999997,40.122399999999999,73.607600000000005,-16.013300000000001,9.9104500000000009,-29.595400000000001
214911.0,65.412499999999994,50.695300000000003,36.372500000000002,72.644499999999994,-15.525,9.7475000000000005,-27.503900000000002
214912.0,63.553699999999999,52.840499999999999,34.810400000000001,73.920699999999997,-15.024900000000001,9.58704,-25.4071
214913.0,62.026299999999999,53.903300000000002,32.706299999999999,73.920500000000004,-14.637700000000001,9.3087700000000009,-23.595300000000002
214914.0,61.034999999999997,54.460099999999997,29.286999999999999,73.760900000000007,-14.235200000000001,9.2253500000000006,-21.369399999999999
214915.0,57.115499999999997,56.496400000000001,20.493500000000001,71.323999999999998,-12.374000000000001,7.3839100000000002,-14.0162
214916.0,55.459800000000001,62.9039,25.999400000000001,75.828500000000005,-12.2715,5.9445399999999999,-13.064399999999999
214917.0,52.936999999999998,62.7074,23.536100000000001,73.064400000000006,-11.239599999999999,4.6976100000000001,-10.1616
214918.0,52.6614,64.107100000000003,22.215399999999999,72.417500000000004,-10.937799999999999,3.4561299999999999,-8.2937799999999999
214919.0,51.789700000000003,62.811500000000002,18.718900000000001,68.6922,-10.3367,2.0741800000000001,-6.0740999999999996
214920.0,79.700900000000004,22.618400000000001,61.854599999999998,40.224699999999999,-15.7927,6.2842900000000004,-37.977499999999999
214921.0,73.476100000000002,48.401299999999999,45.325699999999998,69.197599999999994,-18.8398,11.749499999999999,-33.733600000000003
214922.0,60.461300000000001,55.775599999999997,26.7456,70.493600000000001,-14.879,9.9224599999999992,-20.078299999999999
214923.0,58.907400000000003,55.920299999999997,23.1327,68.838800000000006,-14.251099999999999,9.7847100000000005,-17.398199999999999
214924.0,71.378699999999995,50.672600000000003,43.432699999999997,71.023700000000005,-18.381799999999998,11.7514,-31.9011
214925.0,79.855800000000002,54.648699999999998,75.510000000000005,76.944800000000001,-18.6554,11.4001,-38.625599999999999
214926.0,86.482299999999995,-82.658500000000004,-35.929900000000004,-61.761299999999999,-16.731000000000002,7.0736600000000003,-40.189300000000003
214927.0,113.568,80.087400000000002,107.997,111.054,-29.087,11.7851,-54.982900000000001
214928.0,76.673299999999998,43.814500000000002,66.555099999999996,63.070500000000003,-17.5139,9.1125000000000007,-37.680399999999999
214929.0,76.844200000000001,47.923699999999997,62.593899999999998,68.515000000000001,-18.444700000000001,10.673999999999999,-37.440899999999999
214930.0,77.261899999999997,46.713000000000001,58.142299999999999,67.274100000000004,-19.0045,10.5261,-37.572600000000001
214931.0,76.524900000000002,46.7361,52.605200000000004,67.769800000000004,-19.2197,11.2659,-36.577300000000001
214932.0,75.443799999999996,48.756599999999999,50.368299999999998,69.753299999999996,-19.217300000000002,11.4735,-35.493299999999998
214933.0,69.083500000000001,50.958599999999997,39.671799999999998,70.733699999999999,-17.785799999999998,11.7112,-29.8352
214934.0,66.924999999999997,54.341700000000003,39.267000000000003,73.411299999999997,-17.1755,11.558199999999999,-27.777799999999999
214935.0,64.920699999999997,54.772500000000001,36.100200000000001,73.045599999999993,-16.544499999999999,11.2616,-25.750800000000002
214936.0,63.308700000000002,56.415399999999998,34.064500000000002,73.927400000000006,-16.017499999999998,10.9208,-23.6846
214937.0,62.2408,57.386000000000003,31.440200000000001,74.038200000000003,-15.5138,10.418699999999999,-21.937100000000001
214938.0,58.128300000000003,62.139600000000002,25.986499999999999,74.532499999999999,-13.5907,8.8277199999999993,-15.081200000000001
214939.0,56.1584,62.109200000000001,23.968599999999999,73.209999999999994,-12.654,7.0483599999999997,-13.2041
214940.0,54.3919,65.386899999999997,24.863199999999999,74.581000000000003,-11.7163,5.7156399999999996,-10.791700000000001
214941.0,53.5548,66.400199999999998,23.6492,73.936800000000005,-11.1828,4.3211700000000004,-8.7615400000000001
214942.0,52.8887,72.729399999999998,27.662700000000001,78.347399999999993,-10.4702,2.8657699999999999,-6.5304399999999996
214943.0,80.437299999999993,20.802099999999999,60.982500000000002,35.805100000000003,-17.991,7.9067100000000003,-36.854900000000001
214944.0,75.340599999999995,51.760300000000001,48.1997,68.899600000000007,-20.928699999999999,13.6518,-33.840800000000002
214945.0,61.202800000000003,60.7254,30.3399,73.102999999999994,-15.7019,11.151899999999999,-19.836400000000001
214946.0,60.289999999999999,63.807400000000001,30.1737,75.994200000000006,-14.901300000000001,10.3017,-17.895299999999999
214947.0,73.278800000000004,52.185000000000002,44.338000000000001,68.900499999999994,-20.347000000000001,13.6906,-32.110999999999997
214948.0,80.736599999999996,59.3354,80.329800000000006,77.803100000000001,-20.8949,13.2949,-37.789999999999999
214949.0,87.793599999999998,-84.854500000000002,-36.772500000000001,-65.992599999999996,-19.637599999999999,8.8513900000000003,-38.966000000000001
214950.0,114.307,85.911900000000003,114.33499999999999,112.601,-32.568199999999997,14.0999,-53.310699999999997
214951.0,78.012299999999996,41.688499999999998,64.971500000000006,57.750599999999999,-19.757200000000001,10.873799999999999,-37.121600000000001
214952.0,78.481999999999999,51.5199,66.406300000000002,68.572800000000001,-20.7303,12.559799999999999,-37.141199999999998
214953.0,79.080500000000001,44.9955,56.521700000000003,62.052999999999997,-21.328800000000001,12.401300000000001,-37.418300000000002
214954.0,78.374799999999993,49.651600000000002,55.350200000000001,67.045400000000001,-21.4754,13.1548,-36.533000000000001
214955.0,77.2928,47.510199999999998,48.775199999999998,64.856999999999999,-21.399899999999999,13.342700000000001,-35.523099999999999
214956.0,70.913499999999999,55.2943,43.1738,71.447299999999998,-19.5869,13.568899999999999,-30.121099999999998
214957.0,68.607100000000003,54.990000000000002,38.862299999999998,70.533699999999996,-18.821999999999999,13.237500000000001,-28.083400000000001
214958.0,66.462199999999996,57.081600000000002,37.220199999999998,71.946399999999997,-18.102699999999999,12.8163,-26.016999999999999
214959.0,64.660200000000003,59.052300000000002,35.323300000000003,73.121700000000004,-17.339200000000002,12.3771,-23.976099999999999
214960.0,62.9848,59.138300000000001,32.008699999999997,72.126099999999994,-16.601700000000001,11.758900000000001,-22.1236
214961.0,58.592700000000001,64.646900000000002,28.1782,75.387600000000006,-14.029199999999999,9.1706299999999992,-15.846399999999999
214962.0,56.942100000000003,64.545699999999997,25.198899999999998,73.619200000000006,-13.1553,8.0501900000000006,-13.432399999999999
214963.0,55.743200000000002,68.168800000000005,26.364899999999999,75.980199999999996,-12.3233,6.6771399999999996,-11.2965
214964.0,54.616900000000001,65.7166,21.840699999999998,72.146500000000003,-11.5299,5.1437600000000003,-9.2422400000000007
214965.0,54.046599999999998,67.023700000000005,20.821400000000001,72.038700000000006,-10.682600000000001,3.6758299999999999,-6.9913699999999999
214966.0,80.566599999999994,26.504000000000001,67.562600000000003,38.831400000000002,-20.310199999999998,9.2252600000000005,-34.959600000000002
214967.0,77.632199999999997,52.622399999999999,48.386800000000001,65.232299999999995,-23.027000000000001,15.680999999999999,-33.999899999999997
214968.0,62.624000000000002,65.475499999999997,33.453600000000002,74.600099999999998,-16.816199999999998,12.1706,-20.233599999999999
214969.0,61.135399999999997,62.857700000000001,27.418199999999999,70.921999999999997,-15.9444,11.130599999999999,-18.224599999999999
214970.0,75.337400000000002,54.839500000000001,46.030700000000003,67.116900000000001,-22.272500000000001,15.4984,-32.302999999999997
214971.0,81.271100000000004,60.380499999999998,81.5916,74.710999999999999,-23.2498,15.1022,-36.275799999999997
214972.0,86.326099999999997,-79.910600000000002,-31.886600000000001,-63.760800000000003,-22.144100000000002,9.8975100000000005,-36.035600000000002
214973.0,113.411,88.214100000000002,116.254,110.139,-35.8078,15.711600000000001,-50.407299999999999
214974.0,79.411699999999996,47.616999999999997,71.614599999999996,60.0381,-22.155799999999999,12.6753,-36.145499999999998
214975.0,80.330200000000005,51.871699999999997,67.115399999999994,64.867500000000007,-23.168900000000001,14.5501,-36.534399999999998
214976.0,81.3523,50.460500000000003,62.298400000000001,63.432200000000002,-23.829000000000001,14.5009,-37.099200000000003
214977.0,80.811700000000002,50.652200000000001,56.3309,63.705399999999997,-23.905000000000001,15.3444,-36.429400000000001
214978.0,79.749799999999993,53.023699999999998,53.992199999999997,65.911100000000005,-23.713200000000001,15.5227,-35.570099999999996
214979.0,72.902299999999997,55.207500000000003,41.974800000000002,67.0702,-21.3993,15.291499999999999,-30.368099999999998
214980.0,70.613600000000005,59.179200000000002,41.836199999999998,70.526499999999999,-20.515999999999998,14.970700000000001,-28.430399999999999
214981.0,68.391999999999996,59.761400000000002,38.425400000000003,70.552400000000006,-19.5746,14.4542,-26.452999999999999
214982.0,66.267200000000003,61.293799999999997,36.2042,71.569999999999993,-18.624500000000001,13.8125,-24.395800000000001
214983.0,64.309600000000003,62.818800000000003,34.335500000000003,72.679000000000002,-17.713100000000001,13.084899999999999,-22.296800000000001
214984.0,59.595599999999997,67.147000000000006,28.719999999999999,74.515500000000003,-14.8363,10.115600000000001,-16.023299999999999
214985.0,58.263800000000003,66.361999999999995,25.513100000000001,73.182000000000002,-13.8508,8.9125700000000005,-13.9893
214986.0,56.896299999999997,69.188100000000006,25.999099999999999,75.135599999999997,-12.8421,7.5655200000000002,-11.735799999999999
214987.0,55.862400000000001,69.760099999999994,24.540800000000001,74.795900000000003,-11.970800000000001,5.9986699999999997,-9.7448700000000006
214988.0,55.167400000000001,76.141999999999996,28.675899999999999,80.145300000000006,-10.9108,4.4298700000000002,-7.49132
214989.0,78.506500000000003,25.752099999999999,66.932599999999994,35.659999999999997,-22.395099999999999,9.4405000000000001,-31.650700000000001
214990.0,79.443100000000001,56.215800000000002,51.0625,63.606099999999998,-25.075399999999998,17.2685,-33.7196
214991.0,64.331800000000001,65.868300000000005,31.829899999999999,70.959500000000006,-17.852499999999999,13.3005,-20.767700000000001
214992.0,62.920299999999997,68.352599999999995,31.288699999999999,73.337199999999996,-16.871500000000001,12.382099999999999,-18.8126
214993.0,77.482900000000001,57.320599999999999,47.436100000000003,64.206999999999994,-24.245100000000001,17.274000000000001,-32.309800000000003
214994.0,79.310599999999994,66.526399999999995,86.955500000000001,76.892600000000002,-25.206499999999998,15.7615,-33.295499999999997
214995.0,82.036000000000001,-80.503399999999999,-33.6355,-66.347999999999999,-24.051500000000001,9.8556600000000003,-31.4618
214996.0,110.544,98.463399999999993,124.893,116.151,-38.888300000000001,16.258400000000002,-45.993200000000002
214997.0,78.622600000000006,46.265300000000003,70.293999999999997,55.042499999999997,-24.233699999999999,13.4518,-33.829700000000003
214998.0,80.257800000000003,56.195900000000002,71.149600000000007,64.703699999999998,-25.292899999999999,15.650700000000001,-34.729999999999997
214999.0,81.958699999999993,48.783700000000003,60.277999999999999,57.028399999999998,-25.984500000000001,15.715,-35.802399999999999
215000.0,81.852900000000005,53.627800000000001,58.667900000000003,61.663899999999998,-25.9922,16.6601,-35.547899999999998
215001.0,81.164400000000001,51.372,51.560699999999997,59.176600000000001,-25.768699999999999,16.914899999999999,-35.013199999999998
215002.0,75.143000000000001,60.551699999999997,45.923999999999999,67.009399999999999,-23.193200000000001,17.007000000000001,-30.631499999999999
215003.0,72.699399999999997,59.922600000000003,40.895699999999998,66.128900000000002,-22.117699999999999,16.449200000000001,-28.793900000000001
215004.0,70.400899999999993,61.933,38.858199999999997,67.917299999999997,-21.085699999999999,15.837999999999999,-26.8552
215005.0,68.218800000000002,64.405000000000001,37.442700000000002,70.085300000000004,-20.016500000000001,15.145099999999999,-24.8416
215006.0,66.192899999999995,64.258399999999995,33.627400000000002,69.602199999999996,-18.967600000000001,14.2029,-22.851099999999999
215007.0,61.244100000000003,69.456299999999999,29.463799999999999,74.048400000000001,-15.7441,11.216200000000001,-16.5899
215008.0,59.807400000000001,69.090199999999996,26.409500000000001,73.177300000000002,-14.660600000000001,9.8653200000000005,-14.4611
215009.0,58.3005,72.423299999999998,27.4682,76.033799999999999,-13.4299,8.36571,-12.2691
215010.0,57.150599999999997,69.432599999999994,22.578499999999998,72.618899999999996,-12.4009,6.6966999999999999,-10.2562
215011.0,56.317599999999999,70.444199999999995,21.529699999999998,73.066699999999997,-11.173500000000001,5.0410899999999996,-8.0232500000000009
215012.0,74.123500000000007,34.738100000000003,75.638000000000005,43.598300000000002,-24.1873,8.5608400000000007,-26.648499999999999
215013.0,79.601299999999995,60.0944,53.1753,60.4206,-26.9635,17.808,-32.422600000000003
215014.0,66.519999999999996,71.211600000000004,34.852400000000003,71.697500000000005,-19.074300000000001,14.3325,-21.426300000000001
215015.0,64.904799999999994,68.318700000000007,28.681999999999999,68.943899999999999,-17.9771,13.1191,-19.412400000000002
215016.0,77.977599999999995,61.257599999999996,49.507599999999996,61.658299999999997,-25.933700000000002,17.712399999999999,-31.5105
215017.0,74.820400000000006,73.575100000000006,91.985299999999995,80.008899999999997,-27.154699999999998,15.482699999999999,-28.313400000000001
215018.0,77.092799999999997,-76.942400000000006,-31.935199999999998,-64.083699999999993,-25.663399999999999,8.9683899999999994,-26.545100000000001
215019.0,107.21899999999999,105.80500000000001,129.578,120.973,-42.029499999999999,15.725199999999999,-40.905999999999999
215020.0,74.883200000000002,57.3994,80.650000000000006,61.989400000000003,-26.203399999999998,13.065200000000001,-29.3292
215021.0,77.230599999999995,61.908200000000001,75.480699999999999,65.061999999999998,-27.2195,15.5525,-30.9024
215022.0,80.112200000000001,59.684699999999999,69.916200000000003,61.894300000000001,-28.206299999999999,15.814399999999999,-32.628900000000002
215023.0,80.795199999999994,59.536999999999999,63.146799999999999,60.782299999999999,-28.235900000000001,17.039999999999999,-32.938699999999997
215024.0,80.917500000000004,61.517899999999997,60.145000000000003,62.151299999999999,-27.949000000000002,17.4924,-33.081200000000003
215025.0,76.135999999999996,61.145400000000002,44.6875,61.517699999999998,-24.854800000000001,17.629999999999999,-30.1873
215026.0,74.311499999999995,65.614400000000003,44.730200000000004,65.770799999999994,-23.752099999999999,17.4116,-28.7563
215027.0,72.412700000000001,65.947000000000003,40.740299999999998,66.024500000000003,-22.604700000000001,16.875399999999999,-27.1968
215028.0,70.360699999999994,67.006799999999998,37.723399999999998,67.216899999999995,-21.411300000000001,16.128699999999998,-25.3718
215029.0,68.443299999999994,68.560199999999995,35.689599999999999,68.931799999999996,-20.280000000000001,15.328200000000001,-23.473199999999999
215030.0,63.055900000000001,72.090900000000005,29.606400000000001,72.826800000000006,-16.631900000000002,11.8757,-17.188700000000001
215031.0,61.458199999999998,71.006100000000004,26.120799999999999,71.891999999999996,-15.3963,10.5023,-15.053599999999999
215032.0,59.819800000000001,73.614199999999997,26.629999999999999,74.525800000000004,-14.0586,8.9578399999999991,-12.826599999999999
215033.0,58.603000000000002,74.308199999999999,25.533100000000001,75.267899999999997,-12.8713,7.2778499999999999,-10.826700000000001
215034.0,57.6066,79.786900000000003,29.1663,80.6999,-11.4733,5.5307700000000004,-8.6090199999999992
215035.0,68.456299999999999,34.393099999999997,74.880799999999994,44.142000000000003,-24.9163,6.2209599999999998,-21.3551
215036.0,74.896199999999993,67.609499999999997,58.877699999999997,63.779000000000003,-27.9268,15.526,-28.804400000000001
215037.0,68.4893,71.4178,32.282400000000003,66.854500000000002,-20.263400000000001,14.542899999999999,-21.989899999999999
215038.0,67.075599999999994,73.984099999999998,31.662800000000001,69.964699999999993,-19.081399999999999,13.636699999999999,-20.098199999999999
215039.0,75.013199999999998,68.416600000000003,55.023600000000002,63.078099999999999,-27.3248,16.2911,-28.6035
215040.0,66.710999999999999,83.916399999999996,99.288399999999996,90.170900000000003,-26.9727,13.2966,-22.7898
215041.0,75.360100000000003,-91.718400000000003,-46.689700000000002,-78.928200000000004,-26.767700000000001,9.0032899999999998,-23.6022
215042.0,107.925,122.65300000000001,141.76900000000001,135.73599999999999,-46.038699999999999,15.5007,-37.779400000000003
215043.0,65.643100000000004,60.203200000000002,80.724800000000002,64.281599999999997,-25.519100000000002,10.2623,-23.701799999999999
215044.0,68.4178,71.840800000000002,82.303799999999995,73.021799999999999,-26.984300000000001,12.258900000000001,-25.476700000000001
215045.0,71.608000000000004,62.0747,69.885199999999998,62.099499999999999,-27.968800000000002,12.280900000000001,-27.493500000000001
215046.0,73.328599999999994,66.616200000000006,67.7012,65.2376,-28.2074,13.6425,-28.443999999999999
215047.0,74.683300000000003,62.695999999999998,59.359400000000001,60.368899999999996,-28.377300000000002,14.3895,-29.050699999999999
215048.0,74.431299999999993,70.797399999999996,52.458100000000002,64.611400000000003,-26.176100000000002,16.6571,-28.230799999999999
215049.0,73.645899999999997,68.097899999999996,45.125,62.010800000000003,-25.045000000000002,16.588100000000001,-27.637499999999999
215050.0,72.600099999999998,69.228800000000007,41.896799999999999,63.4178,-23.895499999999998,16.441099999999999,-26.613800000000001
215051.0,71.491600000000005,71.403300000000002,39.828299999999999,65.792100000000005,-22.728899999999999,16.114699999999999,-25.369900000000001
215052.0,70.031800000000004,70.418599999999998,34.914099999999998,65.294300000000007,-21.505600000000001,15.3721,-23.827000000000002
215053.0,65.2791,75.021600000000007,29.836400000000001,71.559600000000003,-17.660799999999998,12.4375,-17.928599999999999
215054.0,63.531799999999997,74.703199999999995,27.134499999999999,71.853800000000007,-16.248899999999999,11.0069,-15.762700000000001
215055.0,61.682899999999997,77.406899999999993,27.952200000000001,75.194599999999994,-14.717000000000001,9.3838299999999997,-13.5349
215056.0,60.283900000000003,73.869799999999998,22.861499999999999,72.349400000000003,-13.392300000000001,7.6299900000000003,-11.472200000000001
215057.0,59.108400000000003,74.516400000000004,21.919499999999999,73.506200000000007,-11.832100000000001,5.8799000000000001,-9.2334700000000005
215058.0,67.718699999999998,43.529400000000003,85.457800000000006,53.109699999999997,-25.909300000000002,6.3096399999999999,-18.297799999999999
215059.0,69.351200000000006,78.504999999999995,67.366799999999998,69.760300000000001,-29.024100000000001,11.9488,-24.158899999999999
215060.0,69.730800000000002,78.862200000000001,37.1982,68.818299999999994,-21.499099999999999,13.994,-22.1355
215061.0,68.881,74.981099999999998,29.732099999999999,66.072500000000005,-20.210699999999999,13.2066,-20.5929
215062.0,68.945999999999998,75.799000000000007,60.623699999999999,67.723100000000002,-27.7925,12.4679,-24.474399999999999
215063.0,62.987099999999998,90.111800000000002,101.10899999999999,92.418999999999997,-28.254999999999999,12.3329,-18.395299999999999
215064.0,75.942800000000005,-135.292,-88.665899999999993,-118.194,-26.9636,10.544600000000001,-22.974900000000002
215065.0,115.89700000000001,123.261,139.221,135.761,-51.574199999999998,17.986899999999999,-37.7286
215066.0,59.801299999999998,75.543099999999995,93.085400000000007,76.907300000000006,-26.6662,8.0657300000000003,-17.908200000000001
215067.0,62.110599999999998,87.172799999999995,95.122100000000003,84.960499999999996,-28.0611,9.7575099999999999,-19.357600000000001
215068.0,65.722999999999999,81.488200000000006,86.755399999999995,76.865300000000005,-29.455300000000001,9.5905299999999993,-21.348500000000001
215069.0,68.023899999999998,82.489000000000004,80.738500000000002,75.197800000000001,-30.043700000000001,10.7951,-22.556000000000001
215070.0,69.574600000000004,82.225499999999997,75.939400000000006,73.5441,-30.101700000000001,11.293200000000001,-23.6599
215071.0,68.842399999999998,74.279300000000006,54.816499999999998,65.784099999999995,-26.793500000000002,13.2575,-24.308399999999999
215072.0,69.220100000000002,77.918099999999995,54.085500000000003,67.974699999999999,-25.8718,13.987399999999999,-24.266200000000001
215073.0,69.809399999999997,77.277299999999997,48.645400000000002,66.338200000000001,-24.866199999999999,14.354200000000001,-24.317399999999999
215074.0,70.1601,75.9602,42.687899999999999,65.026799999999994,-23.818100000000001,14.435600000000001,-24.031700000000001
215075.0,70.183999999999997,77.253,39.608199999999997,66.539299999999997,-22.723299999999998,14.3996,-23.281600000000001
215076.0,67.327500000000001,77.843800000000002,29.702000000000002,70.082499999999996,-18.6785,12.207000000000001,-18.5748
215077.0,65.670000000000002,76.079499999999996,25.6404,69.4649,-17.159800000000001,10.975899999999999,-16.467400000000001
215078.0,63.790999999999997,78.657399999999996,26.452999999999999,73.145099999999999,-15.514200000000001,9.5126299999999997,-14.2341
215079.0,62.283200000000001,79.074399999999997,25.508700000000001,74.717600000000004,-14.035299999999999,7.8826299999999998,-12.2056
215080.0,60.9482,84.210099999999997,29.2622,80.976399999999998,-12.2775,6.1460600000000003,-9.9516100000000005
215081.0,68.507199999999997,4.1467099999999997,46.774700000000003,17.946999999999999,-24.779199999999999,8.6934199999999997,-20.042999999999999
215082.0,69.918599999999998,80.012100000000004,68.893900000000002,73.631399999999999,-29.879899999999999,13.0763,-23.121700000000001
215083.0,67.8827,79.550200000000004,36.826900000000002,66.671300000000002,-22.285900000000002,11.425000000000001,-20.700900000000001
215084.0,68.906999999999996,81.114999999999995,34.062199999999997,68.2744,-21.404399999999999,11.595700000000001,-19.963999999999999
215085.0,68.161900000000003,84.909400000000005,68.352599999999995,74.886200000000002,-29.467700000000001,11.724399999999999,-21.7562
215086.0,68.049300000000002,85.994100000000003,96.1233,89.816400000000002,-29.217099999999999,15.063000000000001,-20.901499999999999
215087.0,76.772800000000004,-190.11199999999999,-143.858,-174.05500000000001,-29.577500000000001,11.414,-20.2011
215088.0,120.967,85.994,102.602,99.060000000000002,-55.168900000000001,19.0642,-37.337699999999998
215089.0,64.242400000000004,71.627099999999999,92.964299999999994,76.989000000000004,-27.578399999999998,10.187099999999999,-19.7012
215090.0,64.194299999999998,77.600999999999999,90.315899999999999,81.135999999999996,-27.7835,11.612500000000001,-20.586200000000002
215091.0,67.919399999999996,69.327100000000002,78.404499999999999,71.695800000000006,-29.195699999999999,11.9152,-22.828800000000001
215092.0,71.009600000000006,74.1614,76.808499999999995,74.4529,-30.431100000000001,12.9483,-24.186199999999999
215093.0,71.228399999999993,70.421000000000006,67.865799999999993,68.560400000000001,-30.402200000000001,13.154299999999999,-24.332799999999999
215094.0,65.020899999999997,87.947299999999998,66.989800000000002,76.659400000000005,-27.684799999999999,10.699199999999999,-20.452200000000001
215095.0,63.603000000000002,82.738299999999995,58.403500000000001,72.035799999999995,-26.112200000000001,10.3131,-20.285
215096.0,63.137999999999998,82.054299999999998,53.991799999999998,70.995199999999997,-24.6158,10.4002,-20.368600000000001
215097.0,64.781000000000006,83.651700000000005,50.542099999999998,71.278099999999995,-23.909099999999999,10.7967,-20.7547
215098.0,66.281199999999998,79.772900000000007,42.086399999999998,67.075100000000006,-23.111000000000001,11.040800000000001,-20.993400000000001
215099.0,68.519099999999995,82.166499999999999,31.552099999999999,70.040099999999995,-19.837800000000001,11.2521,-18.6129
215100.0,67.746799999999993,80.757199999999997,27.3614,69.968800000000002,-18.300699999999999,10.450699999999999,-16.988099999999999
215101.0,65.977900000000005,83.192400000000006,28.003900000000002,74.105599999999995,-16.3977,9.2248000000000001,-14.8805
215102.0,64.405000000000001,78.040599999999998,21.779499999999999,70.841399999999993,-14.7933,7.6978900000000001,-12.9306
215103.0,63.044899999999998,79.1494,21.574100000000001,73.575000000000003,-12.8287,6.1813900000000004,-10.6656
215104.0,66.622500000000002,-43.061399999999999,-5.2727300000000001,-32.744300000000003,-27.588000000000001,7.8304099999999996,-16.6008
215105.0,73.289900000000003,27.014500000000002,14.8063,24.3278,-31.936399999999999,14.1815,-22.984100000000002
215106.0,63.418500000000002,91.641199999999998,50.009999999999998,77.659499999999994,-22.8447,7.7171200000000004,-17.616700000000002
215107.0,66.289400000000001,82.870500000000007,35.7254,69.009799999999998,-21.904499999999999,8.4427000000000003,-18.071200000000001
215108.0,72.0077,54.216299999999997,39.361600000000003,50.081699999999998,-30.842199999999998,14.1891,-22.738
215109.0,70.4756,25.4924,35.303699999999999,29.933499999999999,-31.9937,14.1027,-20.223299999999998
215110.0,79.352400000000003,-179.65899999999999,-133.869,-171.12100000000001,-33.728499999999997,10.712999999999999,-15.9269
215111.0,117.438,28.432600000000001,45.665900000000001,33.365499999999997,-57.787199999999999,16.046399999999998,-30.357900000000001
215112.0,66.825400000000002,19.356300000000001,40.680199999999999,27.552299999999999,-29.177900000000001,10.4091,-20.325900000000001
215113.0,66.8386,16.781400000000001,30.138100000000001,22.4358,-29.7651,11.1884,-20.8096
215114.0,69.128200000000007,5.2928899999999999,14.023899999999999,9.7889099999999996,-31.090900000000001,11.245100000000001,-21.925899999999999
215115.0,72.898700000000005,8.3790200000000006,9.5122499999999999,10.391500000000001,-32.867400000000004,12.0237,-23.357099999999999
215116.0,73.5595,10.5938,6.8650900000000004,10.674099999999999,-33.020899999999997,12.354799999999999,-23.5776
215117.0,65.390000000000001,67.419799999999995,46.471200000000003,59.411000000000001,-27.170300000000001,12.7095,-20.341799999999999
215118.0,63.550699999999999,94.663399999999996,66.050299999999993,82.331699999999998,-26.5228,10.1271,-18.2821
215119.0,59.724400000000003,93.813999999999993,65.628100000000003,81.953599999999994,-25.636600000000001,7.1155900000000001,-16.759
215120.0,58.154200000000003,91.167400000000001,59.398899999999998,79.378100000000003,-23.679400000000001,6.7381399999999996,-16.226199999999999
215121.0,60.642699999999998,91.082899999999995,54.100900000000003,77.717799999999997,-23.2531,7.0849099999999998,-16.860199999999999
215122.0,67.086100000000002,86.336399999999998,35.192900000000002,73.028899999999993,-20.483499999999999,8.5065200000000001,-17.441199999999998
215123.0,68.091700000000003,80.377600000000001,25.535299999999999,67.879499999999993,-19.357299999999999,8.4927499999999991,-16.507999999999999
215124.0,66.941999999999993,85.299499999999995,28.096699999999998,73.883899999999997,-17.261399999999998,7.9352799999999997,-14.7081
215125.0,65.974199999999996,83.138199999999998,24.685600000000001,73.357200000000006,-15.6988,6.8772099999999998,-13.3004
215126.0,65.157200000000003,89.8994,29.597799999999999,81.928600000000003,-13.5062,5.7664799999999996,-11.244
215127.0,69.692999999999998,-45.130000000000003,-9.8692700000000002,-42.333199999999998,-32.569899999999997,6.6175100000000002,-11.4139
215128.0,76.294399999999996,-7.6049699999999998,-22.110900000000001,-18.8156,-37.208399999999997,10.7789,-19.5397
215129.0,59.095300000000002,91.173100000000005,50.529000000000003,81.835400000000007,-22.0959,4.5577699999999997,-14.208500000000001
215130.0,62.118600000000001,90.018100000000004,44.572400000000002,78.911100000000005,-22.503,4.3670099999999996,-14.123799999999999
215131.0,73.028000000000006,-7.5737500000000004,-25.957599999999999,-16.0398,-34.341700000000003,10.651,-20.005800000000001
215132.0,72.349299999999999,0.34123599999999998,10.702400000000001,-3.0356700000000001,-37.192599999999999,10.800599999999999,-13.9147
215133.0,78.083399999999997,-156.08099999999999,-112.645,-150.60900000000001,-34.995899999999999,8.8409999999999993,-13.031599999999999
215134.0,112.99299999999999,27.797699999999999,44.420999999999999,25.028099999999998,-58.412599999999998,13.3475,-23.571100000000001
215135.0,67.720200000000006,-18.867599999999999,-2.2320700000000002,-19.591899999999999,-34.302199999999999,8.0937599999999996,-13.7873
215136.0,69.784199999999998,-9.2954799999999995,-1.4712099999999999,-14.123699999999999,-35.758200000000002,9.0348900000000008,-14.907400000000001
215137.0,72.5625,-17.976400000000002,-13.5067,-25.409400000000002,-37.259500000000003,8.9934799999999999,-15.805199999999999
215138.0,75.602400000000003,-11.887499999999999,-15.745900000000001,-22.9514,-38.444000000000003,10.113,-17.131599999999999
215139.0,77.980099999999993,-8.5429499999999994,-17.270499999999998,-20.874500000000001,-39.082000000000001,10.377700000000001,-18.752600000000001
215140.0,67.003299999999996,10.2927,-13.6845,2.4069699999999998,-29.413,11.3142,-18.815200000000001
215141.0,66.375100000000003,58.847700000000003,27.0245,48.966999999999999,-26.9604,12.1343,-18.142399999999999
215142.0,63.0685,94.963099999999997,63.855699999999999,84.666300000000007,-26.416499999999999,9.0461200000000002,-17.178000000000001
215143.0,57.375700000000002,92.160399999999996,61.659399999999998,82.968500000000006,-24.377400000000002,5.9636699999999996,-14.922700000000001
215144.0,55.813499999999998,89.144599999999997,54.955100000000002,81.055099999999996,-22.240400000000001,4.9989600000000003,-14.1244
215145.0,62.276200000000003,94.266999999999996,45.354399999999998,82.024100000000004,-20.7333,4.6192599999999997,-13.918799999999999
215146.0,66.342600000000004,86.949700000000007,32.214799999999997,73.814999999999998,-20.237400000000001,5.3172499999999996,-14.587199999999999
215147.0,65.779799999999994,92.453599999999994,34.9786,80.402500000000003,-17.7529,5.1368499999999999,-13.4953
215148.0,66.207999999999998,81.286900000000003,22.061199999999999,71.070999999999998,-16.4968,4.6900199999999996,-12.8331
215149.0,66.429699999999997,85.464500000000001,23.456,76.567800000000005,-14.2583,4.3374800000000002,-11.166
215150.0,67.116100000000003,-29.5535,3.6770200000000002,-24.276399999999999,-32.512999999999998,5.1468400000000001,-9.9510199999999998
215151.0,74.946200000000005,-6.20723,-21.3843,-21.297799999999999,-38.607900000000001,7.5565100000000003,-15.7575
215152.0,59.594499999999996,98.262200000000007,54.762599999999999,89.697000000000003,-22.575600000000001,3.4785400000000002,-11.449
215153.0,59.514099999999999,94.123699999999999,50.689599999999999,87.826099999999997,-22.2118,1.9726900000000001,-11.510999999999999
215154.0,73.998900000000006,-6.6513999999999998,-28.601400000000002,-24.2257,-37.400500000000001,7.0504100000000003,-15.5502
215155.0,70.104200000000006,4.6700400000000002,14.929600000000001,1.46288,-37.226199999999999,8.7464899999999997,-11.2439
215156.0,72.1477,-134.17500000000001,-95.573099999999997,-127.199,-34.254399999999997,6.1614100000000001,-10.0303
215157.0,104.95699999999999,31.672899999999998,45.730400000000003,30.531199999999998,-55.894799999999996,10.2546,-19.259699999999999
215158.0,66.253,-8.3073300000000003,6.5841799999999999,-9.9547399999999993,-35.066000000000003,6.83073,-10.191700000000001
215159.0,68.202100000000002,-1.97265,3.7807300000000001,-7.11585,-36.503399999999999,7.95336,-11.1821
215160.0,70.3523,-3.19739,-0.043701299999999998,-9.7315100000000001,-37.523299999999999,7.8097399999999997,-12.506399999999999
215161.0,72.006100000000004,-3.8735499999999998,-7.6209100000000003,-13.244899999999999,-38.091500000000003,8.4080100000000009,-13.578900000000001
215162.0,74.415499999999994,-2.2764099999999998,-11.4595,-13.984999999999999,-38.9039,8.2771500000000007,-15.0299
215163.0,70.781999999999996,-6.8659400000000002,-33.101300000000002,-22.217400000000001,-34.8063,6.9817600000000004,-15.3645
215164.0,67.143799999999999,4.0196899999999998,-27.778300000000002,-7.1117800000000004,-30.557500000000001,8.2809299999999997,-15.494400000000001
215165.0,66.731099999999998,37.757399999999997,1.9641200000000001,29.390599999999999,-27.9757,9.2111000000000001,-16.3187
215166.0,62.760599999999997,64.864099999999993,31.2455,58.575299999999999,-26.367799999999999,7.2149700000000001,-15.6907
215167.0,56.849899999999998,65.855500000000006,29.072099999999999,58.787399999999998,-22.7041,4.7218,-12.591100000000001
215168.0,57.701599999999999,97.158500000000004,52.013500000000001,92.663200000000003,-19.317,0.96363799999999999,-10.8308
215169.0,63.071199999999997,85.508300000000006,34.630800000000001,80.378500000000003,-20.270700000000001,1.32382,-11.345700000000001
215170.0,62.088000000000001,94.0411,40.165599999999998,87.911500000000004,-17.586400000000001,1.49675,-10.172499999999999
215171.0,64.180800000000005,88.217299999999994,31.0745,81.087000000000003,-17.043399999999998,1.6621999999999999,-10.5001
215172.0,66.203599999999994,96.172300000000007,34.512,88.574100000000001,-15.115500000000001,2.0267499999999998,-9.8983399999999993
215173.0,62.252800000000001,-28.517399999999999,1.08388,-20.319800000000001,-31.699400000000001,2.7413099999999999,-6.7707899999999999
215174.0,66.248500000000007,5.32064,-9.8237100000000002,-4.15402,-35.517800000000001,4.2839700000000001,-11.16
215175.0,63.840699999999998,62.735300000000002,19.229600000000001,57.923699999999997,-24.724399999999999,6.0818500000000002,-11.891299999999999
215176.0,61.670000000000002,74.8399,27.438600000000001,70.421599999999998,-21.572399999999998,3.5418699999999999,-10.2057
215177.0,68.309700000000007,5.1528499999999999,-15.3095,-6.8240699999999999,-35.601199999999999,4.8975200000000001,-12.581099999999999
215178.0,64.297499999999999,12.696099999999999,20.0749,12.612299999999999,-35.511299999999999,5.8359699999999997,-8.0364500000000003
215179.0,68.875799999999998,-124.482,-89.289199999999994,-116.697,-34.005400000000002,4.2811300000000001,-8.0544600000000006
215180.0,98.340299999999999,37.145699999999998,48.362099999999998,37.132300000000001,-53.978900000000003,7.0486599999999999,-14.7719
215181.0,60.155299999999997,-4.5224299999999999,7.82498,-1.9138500000000001,-33.063000000000002,4.27325,-7.2420299999999997
215182.0,61.014499999999998,5.1061500000000004,8.8280200000000004,4.82613,-33.995800000000003,4.8222199999999997,-7.5473400000000002
215183.0,62.025300000000001,-1.21438,-0.288858,-2.3499599999999998,-34.642400000000002,4.2078600000000002,-7.9695
215184.0,63.110100000000003,4.2220399999999998,-0.86720799999999998,0.268536,-35.050600000000003,4.0432300000000003,-8.6945899999999998
215185.0,64.472499999999997,1.0584899999999999,-8.7392299999999992,-5.5687600000000002,-35.370600000000003,3.8247599999999999,-9.73996
215186.0,69.5441,4.0510099999999998,-21.209,-10.0259,-35.4559,4.6540299999999997,-13.1579
215187.0,69.106300000000005,-1.25891,-32.591700000000003,-16.386800000000001,-34.188899999999997,4.2145999999999999,-12.6379
215188.0,68.670000000000002,-1.48583,-37.718400000000003,-13.991400000000001,-32.363300000000002,4.7311800000000002,-12.782500000000001
215189.0,67.505499999999998,10.2027,-29.631599999999999,0.59664899999999998,-29.577999999999999,5.7407599999999999,-13.381
215190.0,65.386799999999994,35.501600000000003,-7.4501799999999996,27.528300000000002,-26.480799999999999,6.6141399999999999,-12.576700000000001
215191.0,60.1905,107.762,58.968000000000004,103.407,-20.338799999999999,0.179399,-8.0512499999999996
215192.0,61.898299999999999,97.937799999999996,48.463900000000002,94.605400000000003,-21.309100000000001,-1.19112,-7.5497899999999998
215193.0,60.426499999999997,102.46599999999999,50.8934,100.367,-17.864899999999999,-0.92263799999999996,-6.7194200000000004
215194.0,62.219099999999997,86.819199999999995,33.148299999999999,85.683400000000006,-17.2377,-0.44503300000000001,-7.2642899999999999
215195.0,64.766599999999997,90.308599999999998,31.561199999999999,87.6357,-15.6578,-0.0296732,-7.2535299999999996
215196.0,619.73199999999997,14785.5,15149.799999999999,14984.9,-254.79499999999999,-17.792899999999999,171.76499999999999
215197.0,591.91399999999999,-14911.6,-14553.799999999999,-14698.700000000001,-235.048,3.2437999999999998,170.726
215198.0,621.22199999999998,15210.799999999999,15597.200000000001,15447.4,-253.84399999999999,17.590900000000001,161.08199999999999
215199.0,632.91099999999994,-15460.700000000001,-15062.0,-15214.0,-260.928,27.4223,155.52199999999999
215200.0,663.63800000000003,15429.700000000001,15846.200000000001,15681.4,-279.58600000000001,10.1739,156.62200000000001
215201.0,713.23800000000006,-15650.0,-15207.4,-15386.1,-304.78899999999999,-20.425000000000001,163.32400000000001
215202.0,745.44899999999996,15582.5,16043.200000000001,15856.9,-320.76600000000002,-28.156400000000001,166.86600000000001
215203.0,772.29200000000003,-15898.6,-15422.9,-15617.0,-335.05799999999999,-26.137699999999999,169.28
215204.0,799.899,15389.299999999999,15879.9,15674.9,-350.42700000000002,-18.5518,171.495
215205.0,822.64200000000005,-15927.4,-15421.700000000001,-15633.0,-360.52999999999997,-18.891999999999999,175.34100000000001
215206.0,849.10000000000002,15621.9,16148.4,15938.200000000001,-368.85599999999999,-28.555900000000001,182.29900000000001
215207.0,861.5,-16146.1,-15608.9,-15819.1,-371.92899999999997,-31.196899999999999,186.61799999999999
215208.0,864.94299999999998,15662.200000000001,16204.200000000001,15995.4,-371.18299999999999,-32.259,189.29300000000001
215209.0,867.49599999999998,-16410.0,-15862.5,-16066.299999999999,-368.995,-34.798099999999998,192.084
215210.0,856.64499999999998,15485.5,16021.299999999999,15806.299999999999,-366.899,-27.848400000000002,191.06299999999999
215211.0,839.35699999999997,-16557.799999999999,-16037.1,-16266.1,-362.267,-21.7578,187.148
215212.0,816.07799999999997,15909.6,16427.0,16203.700000000001,-349.29899999999998,-23.054500000000001,179.20400000000001
215213.0,811.84100000000001,-16916.200000000001,-16379.5,-16576.200000000001,-338.11099999999999,-26.3932,175.94399999999999
215214.0,801.94299999999998,15572.299999999999,16109.200000000001,15915.5,-331.358,-25.789200000000001,173.148
215215.0,753.36400000000003,-16892.700000000001,-16385.700000000001,-16599.299999999999,-315.49900000000002,-29.286999999999999,154.91499999999999
215216.0,700.73400000000004,15734.9,16213.700000000001,15983.6,-296.82999999999998,-35.964100000000002,130.054
215217.0,655.81399999999996,-16909.5,-16457.400000000001,-16705.200000000001,-281.08800000000002,-45.527299999999997,104.91500000000001
215218.0,631.75199999999995,15776.5,16229.200000000001,15986.4,-269.08199999999999,-45.2164,85.255099999999999
215219.0,610.39300000000003,-17356.599999999999,-16900.700000000001,-17136.599999999999,-257.46199999999999,-42.782200000000003,64.019400000000005
215220.0,597.80799999999999,16523.200000000001,16975.5,16736.099999999999,-251.47900000000001,-45.871299999999998,50.7331
215221.0,591.89300000000003,-16826.5,-16379.5,-16625.799999999999,-249.05500000000001,-52.185699999999997,43.570999999999998
215222.0,235.495,-1968.0,-1908.45,-2006.6500000000001,50.752200000000002,-40.117899999999999,-108.873
215223.0,227.67500000000001,-586.79100000000005,-495.63,-612.02499999999998,65.727400000000003,-27.216699999999999,-92.025499999999994
215224.0,266.291,7171.6800000000003,7170.6000000000004,7203.0600000000004,44.096200000000003,-51.137900000000002,-136.88499999999999
215225.0,94.088099999999997,9719.1299999999992,9724.5799999999999,9738.5499999999993,14.407299999999999,-27.089099999999998,-43.693600000000004
215226.0,62.302700000000002,3510.8400000000001,3544.6399999999999,3492.7399999999998,18.1934,-6.99247,-14.841200000000001
215227.0,75.606399999999994,2068.9099999999999,2111.0799999999999,2044.95,18.1691,-6.1136900000000001,-20.420300000000001
215228.0,42.720500000000001,7869.2600000000002,7892.7299999999996,7863.5200000000004,15.842700000000001,-9.9738600000000002,-4.2750700000000004
215229.0,247.44900000000001,10031.4,10017.1,10077.4,29.9405,-51.938000000000002,-125.785
215230.0,267.81099999999998,3271.5799999999999,3331.1300000000001,3248.9899999999998,76.523399999999995,-33.241700000000002,-123.06999999999999
215231.0,249.37200000000001,2296.3899999999999,2366.5700000000002,2268.3200000000002,73.396299999999997,-29.137499999999999,-109.232
215232.0,266.08100000000002,2447.5900000000001,2492.5799999999999,2437.9899999999998,71.597099999999998,-38.261699999999998,-127.122
215233.0,267.13,6156.6800000000003,6187.5699999999997,6158.75,65.489699999999999,-43.008099999999999,-131.71799999999999
215234.0,268.49799999999999,5744.8699999999999,5763.54,5757.6700000000001,58.907600000000002,-46.269500000000001,-135.38200000000001
215235.0,269.12400000000002,7403.0299999999997,7411.0900000000001,7425.3400000000001,51.602499999999999,-49.101900000000001,-137.626
215236.0,256.04300000000001,-7057.29,-7054.04,-7032.8699999999999,45.973799999999997,-49.356999999999999,-130.87100000000001
215237.0,259.476,8521.0100000000002,8512.1700000000001,8560.4799999999996,36.756999999999998,-52.184199999999997,-133.06700000000001
215238.0,230.57300000000001,9725.6399999999994,9708.2199999999993,9775.9500000000007,24.025300000000001,-50.377099999999999,-115.626
215239.0,206.37,10201.0,10184.200000000001,10251.700000000001,19.128,-46.940100000000001,-101.952
215240.0,176.18799999999999,10385.5,10372.4,10431.700000000001,15.7652,-42.039900000000003,-85.806799999999996
215241.0,137.70400000000001,10169.200000000001,10163.5,10205.700000000001,13.7715,-35.358899999999998,-65.999700000000004
215242.0,115.16200000000001,-9833.2099999999991,-9838.1299999999992,-9791.4400000000005,9.7715399999999999,-31.3567,-51.806100000000001
215243.0,53.789000000000001,8940.5100000000002,8959.6200000000008,8944.3400000000001,15.3688,-16.216699999999999,-19.052900000000001
215244.0,44.498800000000003,6760.25,6776.2700000000004,6750.4899999999998,18.0608,-11.1701,-6.3010799999999998
215245.0,51.867100000000001,5886.46,5900.2700000000004,5875.54,20.874099999999999,-11.756600000000001,-13.0067
215246.0,54.8444,5087.0699999999997,5108.29,5074.0299999999997,20.973299999999998,-9.7338299999999993,-13.000500000000001
215247.0,57.394100000000002,4277.7299999999996,4306.6000000000004,4262.1800000000003,19.401199999999999,-7.9522199999999996,-12.263
215248.0,60.301299999999998,-3862.1999999999998,-3831.5599999999999,-3877.79,18.6557,-10.009399999999999,-14.520899999999999
215249.0,68.161699999999996,2782.5999999999999,2820.3600000000001,2761.5799999999999,17.727599999999999,-6.5356899999999998,-17.450500000000002
215250.0,83.863799999999998,1391.6900000000001,1438.71,1364.98,18.620200000000001,-5.2826199999999996,-24.004000000000001
215251.0,83.049999999999997,747.01800000000003,793.17600000000004,721.83500000000004,17.141100000000002,-5.2607400000000002,-25.8565
215252.0,77.879199999999997,182.387,223.10599999999999,161.29400000000001,15.5632,-6.5044500000000003,-27.384899999999998
215253.0,42.127600000000001,48.106000000000002,6.7401,41.823599999999999,-8.9999400000000005,1.8457699999999999,-3.20329
215254.0,229.53,-754.85400000000004,-683.625,-793.98000000000002,67.972700000000003,-25.758400000000002,-95.640699999999995
215255.0,249.27500000000001,-3408.3800000000001,-3342.21,-3438.6700000000001,72.521299999999997,-28.398399999999999,-110.515
215256.0,248.84399999999999,-2511.2399999999998,-2460.4099999999999,-2529.2600000000002,70.462900000000005,-33.628900000000002,-115.197
215257.0,249.98599999999999,-4282.9300000000003,-4245.3400000000001,-4289.3800000000001,64.789100000000005,-38.616399999999999,-120.733
215258.0,253.893,-6387.9499999999998,-6363.5900000000001,-6383.6099999999997,59.809600000000003,-42.995100000000001,-126.066
215259.0,256.51600000000002,-6644.1700000000001,-6631.1800000000003,-6629.8500000000004,53.163699999999999,-46.573900000000002,-129.905
215260.0,251.96199999999999,-7321.71,-7326.8599999999997,-7287.6599999999999,38.657400000000003,-51.147399999999998,-128.83099999999999
215261.0,243.554,-9366.5900000000001,-9378.7199999999993,-9323.75,31.4072,-51.732300000000002,-123.59699999999999
215262.0,230.61000000000001,-9893.2900000000009,-9909.9899999999998,-9843.4300000000003,24.939900000000002,-50.968899999999998,-115.35899999999999
215263.0,212.529,-9667.2000000000007,-9686.2299999999996,-9612.6299999999992,19.174199999999999,-48.767000000000003,-104.167
215264.0,187.88399999999999,-10110.9,-10128.4,-10055.799999999999,14.6515,-44.7376,-90.082300000000004
215265.0,154.97,-10130.9,-10143.799999999999,-10079.6,11.264799999999999,-38.914099999999998,-72.1875
215266.0,65.169399999999996,-9322.4099999999999,-9315.2299999999996,-9296.4300000000003,10.7301,-21.106400000000001,-25.983699999999999
215267.0,38.375500000000002,-8429.2000000000007,-8407.4599999999991,-8420.3199999999997,12.970599999999999,-11.534800000000001,-8.3734800000000007
215268.0,45.8202,-7245.8400000000001,-7222.0,-7250.5,17.5107,-9.6100100000000008,-8.1940299999999997
215269.0,53.846800000000002,-6209.4899999999998,-6192.3999999999996,-6217.9399999999996,21.3416,-12.151199999999999,-13.9278
215270.0,53.4133,-5425.21,-5405.8999999999996,-5432.8199999999997,20.805599999999998,-11.664300000000001,-13.7659
215271.0,55.331699999999998,-4645.04,-4618.9300000000003,-4656.3000000000002,19.675000000000001,-10.508699999999999,-12.4688
215272.0,65.109200000000001,-3145.7399999999998,-3111.0799999999999,-3164.3200000000002,17.700500000000002,-9.0948600000000006,-16.9407
215273.0,71.145899999999997,-2436.73,-2398.4200000000001,-2458.1500000000001,17.823,-8.5374199999999991,-19.520499999999998
215274.0,78.244600000000005,-1754.0799999999999,-1711.5799999999999,-1778.0699999999999,18.214500000000001,-7.7696100000000001,-22.685700000000001
215275.0,85.472399999999993,-1115.25,-1068.73,-1142.24,18.3123,-6.5631700000000004,-25.959900000000001
215276.0,85.180700000000002,-507.19600000000003,-463.303,-533.09900000000005,17.392399999999999,-6.81487,-28.7197
215277.0,227.667,430.39800000000002,494.291,397.56599999999997,50.571399999999997,-38.234900000000003,-104.10899999999999
215278.0,219.83099999999999,1556.01,1641.75,1530.28,67.906400000000005,-23.4145,-86.846900000000005
215279.0,275.0,8206.1499999999996,8204.6499999999996,8241.2000000000007,45.528700000000001,-49.930599999999998,-142.178
215280.0,85.408000000000001,9874.4699999999993,9893.3799999999992,9896.2700000000004,11.339700000000001,-20.619499999999999,-41.683500000000002
215281.0,59.323599999999999,3239.02,3273.9099999999999,3226.5,13.5505,-8.5890599999999999,-17.665400000000002
215282.0,74.330100000000002,1969.71,2014.5,1951.3800000000001,14.754899999999999,-7.3041,-22.718499999999999
215283.0,46.278399999999998,7617.7399999999998,7657.6800000000003,7612.9099999999999,9.4987200000000005,-4.3895299999999997,0.83188300000000004
215284.0,258.35700000000003,8636.4400000000005,8624.1399999999994,8688.5799999999999,30.265799999999999,-51.172499999999999,-132.45599999999999
215285.0,261.62799999999999,1775.6600000000001,1836.74,1754.71,73.731200000000001,-32.906799999999997,-120.336
215286.0,241.69900000000001,572.62599999999998,644.63900000000001,547.26300000000003,72.295100000000005,-29.4193,-104.062
215287.0,260.892,4734.8900000000003,4780.75,4726.3500000000004,68.948999999999998,-36.901800000000001,-125.36499999999999
215288.0,263.78500000000003,3119.6700000000001,3151.4899999999998,3123.8099999999999,63.872999999999998,-41.421700000000001,-130.76400000000001
215289.0,269.52600000000001,5624.75,5643.7299999999996,5640.1000000000004,58.865600000000001,-45.0471,-136.45099999999999
215290.0,274.62,6022.6000000000004,6030.6400000000003,6048.3299999999999,52.984900000000003,-47.770699999999998,-140.982
215291.0,263.28399999999999,-6841.5699999999997,-6839.0900000000001,-6814.5900000000001,47.298900000000003,-47.9908,-135.43799999999999
215292.0,270.04899999999998,8630.1100000000006,8622.2000000000007,8674.6299999999992,37.556199999999997,-51.330199999999998,-139.51599999999999
215293.0,240.155,10124.9,10110.299999999999,10181.700000000001,23.9436,-49.3752,-121.619
215294.0,213.05000000000001,10424.6,10411.6,10481.5,18.989000000000001,-45.439300000000003,-106.422
215295.0,179.03999999999999,10515.700000000001,10508.200000000001,10567.4,15.395899999999999,-39.626899999999999,-88.530699999999996
215296.0,135.13399999999999,10416.0,10418.6,10456.799999999999,12.676299999999999,-31.337399999999999,-66.490899999999996
215297.0,109.702,-10092.200000000001,-10090.200000000001,-10047.1,8.4276999999999997,-27.7315,-50.227600000000002
215298.0,46.975099999999998,8863.0200000000004,8898.1900000000005,8866.7800000000007,9.7650500000000005,-9.7804599999999997,-13.099299999999999
215299.0,43.414900000000003,6501.04,6534.3999999999996,6493.8599999999997,10.973100000000001,-5.2227800000000002,-3.56379
215300.0,45.060000000000002,5503.0900000000001,5530.7299999999996,5494.5200000000004,12.7821,-7.1720699999999997,-10.194599999999999
215301.0,49.4925,4664.3599999999997,4691.5900000000001,4653.8699999999999,13.6698,-8.1289400000000001,-13.585000000000001
215302.0,53.687199999999997,3930.1799999999998,3960.3600000000001,3918.21,13.569900000000001,-8.4897899999999993,-15.258800000000001
215303.0,58.570599999999999,-3539.23,-3505.52,-3549.5100000000002,14.182499999999999,-9.9432200000000002,-17.717600000000001
215304.0,66.430000000000007,2586.5100000000002,2626.4400000000001,2572.1900000000001,13.935600000000001,-8.2478300000000004,-20.456
215305.0,82.788899999999998,1341.45,1389.8099999999999,1318.49,16.091000000000001,-6.8294899999999998,-25.567399999999999
215306.0,83.080200000000005,714.33100000000002,761.35199999999998,692.21600000000001,16.106400000000001,-7.4226999999999999,-27.195699999999999
215307.0,79.012900000000002,181.898,224.488,163.89599999999999,15.025499999999999,-8.7322399999999991,-28.473800000000001
215308.0,42.944099999999999,62.181199999999997,20.485399999999998,56.537399999999998,-9.5014000000000003,1.1150500000000001,-3.3942999999999999
215309.0,220.28399999999999,-1183.6500000000001,-1109.6700000000001,-1219.5,66.380600000000001,-25.233899999999998,-89.4148
215310.0,244.726,-442.488,-369.74799999999999,-469.07299999999998,71.066400000000002,-28.128699999999998,-107.13500000000001
215311.0,243.75299999999999,-3424.1399999999999,-3371.0999999999999,-3439.9699999999998,67.1477,-32.104300000000002,-113.86199999999999
215312.0,245.56200000000001,-3656.7199999999998,-3616.75,-3660.9400000000001,62.9206,-36.628900000000002,-119.184
215313.0,252.184,-3555.6700000000001,-3530.2399999999998,-3549.5700000000002,58.636699999999998,-41.022500000000001,-126.101
215314.0,259.74299999999999,-5303.1400000000003,-5289.5900000000001,-5286.5500000000002,54.021500000000003,-44.899999999999999,-132.19800000000001
215315.0,261.18900000000002,-8406.5799999999999,-8412.1200000000008,-8368.9699999999993,39.4925,-50.211799999999997,-134.565
215316.0,253.96700000000001,-7994.9700000000003,-8006.0500000000002,-7946.8900000000003,31.968499999999999,-51.122500000000002,-129.905
215317.0,240.60599999999999,-8832.8099999999995,-8847.9899999999998,-8776.7600000000002,25.072199999999999,-50.3337,-121.357
215318.0,220.50200000000001,-10079.799999999999,-10096.799999999999,-10018.700000000001,19.091000000000001,-47.783299999999997,-108.962
215319.0,192.72399999999999,-10237.1,-10252.200000000001,-10176.299999999999,14.631500000000001,-43.256799999999998,-93.160200000000003
215320.0,155.309,-10305.6,-10314.700000000001,-10249.5,10.9125,-36.528799999999997,-73.075999999999993
215321.0,52.166699999999999,-9392.2800000000007,-9371.6700000000001,-9365.0100000000002,6.4327899999999998,-15.757300000000001,-20.3811
215322.0,39.972499999999997,-8239.7399999999998,-8201.9899999999998,-8232.7900000000009,8.5972299999999997,-7.0029000000000003,-2.4564300000000001
215323.0,49.625300000000003,-7006.6800000000003,-6965.8699999999999,-7011.21,12.063700000000001,-5.30877,-4.8614100000000002
215324.0,50.551499999999997,-5928.75,-5894.79,-5935.8299999999999,13.885,-7.1700999999999997,-11.240399999999999
215325.0,51.867699999999999,-4992.3699999999999,-4962.5299999999997,-5000.0500000000002,14.634600000000001,-8.9236299999999993,-14.496
215326.0,54.2361,-4231.3100000000004,-4200.75,-4240.4200000000001,14.4011,-9.5988900000000008,-15.7872
215327.0,63.540700000000001,-2879.4200000000001,-2841.9899999999998,-2890.48,14.0198,-9.8019099999999995,-20.181999999999999
215328.0,68.667299999999997,-2278.8099999999999,-2237.9499999999998,-2292.5300000000002,14.2143,-9.0368399999999998,-21.956299999999999
215329.0,76.232900000000001,-1687.3199999999999,-1643.0,-1705.6500000000001,15.2165,-8.2386999999999997,-24.4969
215330.0,84.5458,-1072.45,-1024.95,-1095.54,16.676500000000001,-7.8295500000000002,-27.346499999999999
215331.0,85.524699999999996,-485.31999999999999,-439.36500000000001,-507.245,16.517499999999998,-8.5799299999999992,-29.860800000000001
215332.0,220.15799999999999,-2086.73,-2015.02,-2113.4699999999998,44.443100000000001,-36.923900000000003,-101.126
215333.0,209.672,-587.12699999999995,-506.97399999999999,-614.65800000000002,63.5428,-19.8398,-84.220299999999995
215334.0,279.75700000000001,6905.0699999999997,6904.3900000000003,6944.5100000000002,44.625,-47.854100000000003,-145.874
215335.0,93.634699999999995,9984.2999999999993,10010.5,10017.9,8.8165999999999993,-18.3704,-46.860500000000002
215336.0,67.979900000000001,3299.6999999999998,3348.4499999999998,3293.4699999999998,10.0663,-9.16432,-21.183499999999999
215337.0,78.579099999999997,1945.25,1995.3299999999999,1928.75,14.8299,-9.0643799999999999,-23.537199999999999
215338.0,53.497399999999999,7885.8199999999997,7939.9300000000003,7889.1499999999996,3.9392100000000001,-2.9368300000000001,-3.1691400000000001
215339.0,268.291,10087.9,10077.5,10145.5,28.945799999999998,-49.178699999999999,-139.27199999999999
215340.0,248.012,2987.0,3044.8099999999999,2965.9400000000001,68.504599999999996,-31.235900000000001,-114.747
215341.0,226.81399999999999,2126.9099999999999,2192.0999999999999,2099.6300000000001,66.716499999999996,-27.954999999999998,-98.275300000000001
215342.0,251.52799999999999,2095.27,2141.0100000000002,2087.5900000000001,65.1477,-35.2761,-121.51600000000001
215343.0,256.33199999999999,5757.1300000000001,5790.4300000000003,5763.29,60.900100000000002,-38.670000000000002,-127.999
215344.0,263.38099999999997,5327.75,5347.4899999999998,5344.0,56.979399999999998,-42.665500000000002,-133.96000000000001
215345.0,271.40699999999998,7024.6700000000001,7032.7299999999996,7052.4200000000001,51.629100000000001,-45.377600000000001,-140.09100000000001
215346.0,263.82900000000001,-6733.8000000000002,-6729.1400000000003,-6704.9899999999998,46.319899999999997,-45.389699999999998,-136.95599999999999
215347.0,280.36099999999999,8412.6399999999994,8405.4599999999991,8462.0599999999995,37.091000000000001,-49.631900000000002,-146.32900000000001
215348.0,248.90000000000001,9921.8999999999996,9910.4500000000007,9984.9200000000001,21.9359,-47.447600000000001,-127.70999999999999
215349.0,219.28899999999999,10489.4,10480.700000000001,10552.799999999999,16.914400000000001,-43.110100000000003,-111.074
215350.0,184.20099999999999,10713.6,10711.0,10772.299999999999,13.3969,-37.186999999999998,-92.431299999999993
215351.0,139.91999999999999,10488.9,10497.4,10537.9,10.8194,-28.805599999999998,-69.933899999999994
215352.0,115.444,-10153.9,-10146.6,-10101.5,7.73339,-26.2242,-53.754300000000001
215353.0,56.183199999999999,9112.5100000000002,9157.6399999999994,9127.8799999999992,5.8331900000000001,-8.3489400000000007,-20.5426
215354.0,52.8889,6598.4300000000003,6650.2799999999997,6599.0299999999997,4.3383000000000003,-2.8645800000000001,-4.4038399999999998
215355.0,52.329900000000002,5594.3100000000004,5640.6099999999997,5595.3800000000001,5.2517899999999997,-5.0871700000000004,-12.6791
215356.0,56.191299999999998,4757.9499999999998,4802.1599999999999,4760.0,5.7169400000000001,-6.7083300000000001,-18.767800000000001
215357.0,62.6327,4002.27,4048.2800000000002,4002.0799999999999,7.1864499999999998,-8.4946300000000008,-21.796700000000001
215358.0,64.287800000000004,-3633.6300000000001,-3586.4400000000001,-3633.48,8.9870800000000006,-9.1869300000000003,-21.7409
215359.0,72.604699999999994,2619.02,2668.6500000000001,2607.0700000000002,12.8903,-8.8920300000000001,-21.105
215360.0,85.447400000000002,1309.5899999999999,1361.24,1289.1700000000001,15.9153,-9.0016800000000003,-26.825600000000001
215361.0,84.590900000000005,704.02300000000002,753.46500000000003,685.00099999999998,15.1326,-9.2135599999999993,-28.677099999999999
215362.0,79.807000000000002,171.24199999999999,215.88800000000001,156.90700000000001,13.510300000000001,-9.8584800000000001,-29.9512
215363.0,43.579799999999999,50.2254,8.2009899999999991,45.247399999999999,-9.6716599999999993,0.40022799999999997,-3.48637
215364.0,206.751,-697.53700000000003,-627.41499999999996,-732.76599999999996,60.072400000000002,-24.188099999999999,-84.727599999999995
215365.0,230.148,-3187.4000000000001,-3118.5,-3214.2399999999998,65.454499999999996,-25.7864,-101.32899999999999
215366.0,232.68600000000001,-2206.6799999999998,-2151.5500000000002,-2221.0100000000002,61.608199999999997,-29.759799999999998,-109.642
215367.0,237.738,-3923.5999999999999,-3882.04,-3926.27,60.097999999999999,-34.118699999999997,-115.96899999999999
215368.0,245.89699999999999,-5992.8699999999999,-5964.5,-5984.4300000000003,55.880699999999997,-38.045900000000003,-123.986
215369.0,254.35900000000001,-6256.3000000000002,-6241.7299999999996,-6238.5900000000001,52.706000000000003,-41.873399999999997,-130.17500000000001
215370.0,269.48200000000003,-7127.1499999999996,-7130.9799999999996,-7086.0200000000004,39.174999999999997,-48.674599999999998,-140.291
215371.0,264.37799999999999,-9336.2800000000007,-9346.7900000000009,-9283.4699999999993,31.579999999999998,-50.119700000000002,-136.52099999999999
215372.0,249.64599999999999,-10017.1,-10029.6,-9955.0300000000007,23.613900000000001,-48.970199999999998,-127.374
215373.0,227.80099999999999,-9911.3199999999997,-9924.6499999999996,-9843.3400000000001,17.671399999999998,-46.119700000000002,-113.827
215374.0,198.07499999999999,-10427.4,-10437.799999999999,-10359.700000000001,13.3529,-41.256100000000004,-96.945499999999996
215375.0,159.62100000000001,-10471.1,-10475.299999999999,-10408.1,10.035299999999999,-34.5351,-76.019300000000001
215376.0,63.854700000000001,-9582.1599999999999,-9555.8700000000008,-9545.2600000000002,4.20296,-15.7455,-27.0656
215377.0,43.497900000000001,-8582.2900000000009,-8536.9699999999993,-8565.7399999999998,3.43723,-7.0972400000000002,-6.5126799999999996
215378.0,54.865600000000001,-7229.0100000000002,-7174.9099999999999,-7226.1800000000003,5.75685,-4.0756600000000001,-5.1557599999999999
215379.0,58.635899999999999,-6030.9899999999998,-5978.7399999999998,-6030.3400000000001,6.9179300000000001,-4.7861500000000001,-13.2826
215380.0,59.840400000000002,-5133.0699999999997,-5085.5100000000002,-5131.2299999999996,7.1321000000000003,-6.8452900000000003,-19.2361
215381.0,62.405200000000001,-4340.71,-4294.3199999999997,-4337.6099999999997,7.1272200000000003,-8.4650300000000005,-22.431899999999999
215382.0,68.698499999999996,-2973.46,-2925.1900000000001,-2979.6999999999998,12.0482,-8.9485700000000001,-21.401599999999998
215383.0,74.515199999999993,-2305.1500000000001,-2256.6599999999999,-2316.8099999999999,14.166399999999999,-8.8856000000000002,-23.534800000000001
215384.0,80.5291,-1660.46,-1611.5599999999999,-1676.6199999999999,15.431800000000001,-9.3541000000000007,-26.2393
215385.0,86.880600000000001,-1059.01,-1008.4400000000001,-1079.1300000000001,15.987299999999999,-9.3140999999999998,-29.103899999999999
215386.0,86.541799999999995,-481.37799999999999,-433.23599999999999,-500.02999999999997,15.0868,-9.7724299999999999,-31.3935
215387.0,213.21000000000001,519.995,597.23699999999997,497.428,40.692,-35.4407,-97.475399999999993
215388.0,200.29300000000001,1542.1199999999999,1628.8499999999999,1516.5,53.100499999999997,-20.089500000000001,-81.742699999999999
215389.0,280.13999999999999,7541.5500000000002,7543.3699999999999,7585.5299999999997,42.925400000000003,-45.640300000000003,-147.02000000000001
215390.0,110.836,10219.5,10251.5,10268.9,3.5146199999999999,-18.802499999999998,-55.686300000000003
215391.0,82.200400000000002,3629.3499999999999,3693.6700000000001,3618.9400000000001,12.371,-9.24315,-19.375599999999999
215392.0,84.802700000000002,1965.0,2022.3599999999999,1948.1099999999999,15.132,-9.6274800000000003,-23.678699999999999
215393.0,61.765900000000002,8385.8500000000004,8448.0400000000009,8402.6000000000004,2.66601,-5.2065599999999996,-14.212199999999999
215394.0,281.53399999999999,8381.5300000000007,8374.8799999999992,8446.75,24.661999999999999,-46.703099999999999,-148.505
215395.0,230.15199999999999,1444.8599999999999,1511.8099999999999,1431.4300000000001,56.833199999999998,-28.776700000000002,-108.372
215396.0,208.75800000000001,445.09199999999998,521.60199999999998,424.12,51.885100000000001,-28.215699999999998,-91.682500000000005
215397.0,239.02600000000001,4271.1099999999997,4320.8000000000002,4266.3100000000004,57.700099999999999,-32.374699999999997,-117.289
215398.0,244.089,2577.6799999999998,2613.4499999999998,2584.48,56.590899999999998,-36.395400000000002,-122.36
215399.0,248.98500000000001,5014.6999999999998,5035.6999999999998,5031.0799999999999,53.392899999999997,-38.539900000000003,-127.30500000000001
215400.0,261.19299999999998,5336.3800000000001,5345.4099999999999,5365.46,48.511499999999998,-41.791400000000003,-135.71700000000001
215401.0,258.58600000000001,-6131.9399999999996,-6121.54,-6101.6499999999996,44.957900000000002,-42.428600000000003,-135.02099999999999
215402.0,288.96699999999998,8151.6899999999996,8146.6999999999998,8207.2700000000004,34.369500000000002,-46.878799999999998,-152.72399999999999
215403.0,262.76999999999998,10058.799999999999,10054.1,10131.799999999999,16.430900000000001,-44.676099999999998,-137.309
215404.0,229.69800000000001,10499.6,10499.6,10573.6,10.3939,-39.623399999999997,-118.675
215405.0,193.97300000000001,10681.1,10687.9,10751.4,6.6736500000000003,-33.855400000000003,-99.244799999999998
215406.0,151.09399999999999,10654.200000000001,10671.6,10716.1,4.4098300000000004,-26.451699999999999,-76.617999999999995
215407.0,128.84399999999999,-10389.9,-10373.299999999999,-10324.700000000001,2.8128799999999998,-24.6006,-61.4285
215408.0,75.489699999999999,9434.0200000000004,9483.6800000000003,9467.1000000000004,2.7919399999999999,-10.988200000000001,-33.6434
215409.0,60.847799999999999,7225.46,7288.6400000000003,7236.1800000000003,2.07111,-2.93215,-8.8450100000000003
215410.0,63.085799999999999,6092.0699999999997,6151.1199999999999,6105.8500000000004,1.2195400000000001,-5.5804,-18.429200000000002
215411.0,71.988200000000006,5189.0200000000004,5247.4799999999996,5202.7600000000002,2.8858700000000002,-10.0741,-26.139800000000001
215412.0,78.302700000000002,4437.3599999999997,4499.5,4440.25,7.8064400000000003,-11.143000000000001,-25.0718
215413.0,71.803799999999995,-4127.6499999999996,-4068.27,-4126.3199999999997,9.7669499999999996,-8.3025099999999998,-20.117000000000001
215414.0,83.379999999999995,2750.9099999999999,2812.5599999999999,2734.7800000000002,14.5563,-8.5613700000000001,-18.633700000000001
215415.0,88.0197,1274.54,1330.0899999999999,1256.5799999999999,15.1577,-10.1624,-27.939900000000002
215416.0,85.414299999999997,656.52700000000004,708.06100000000004,641.74400000000003,13.897399999999999,-10.461499999999999,-30.285699999999999
215417.0,80.140199999999993,162.58000000000001,208.624,153.06999999999999,11.9978,-10.8162,-31.577100000000002
215418.0,44.084800000000001,61.783000000000001,19.793700000000001,57.703699999999998,-9.9413300000000007,-0.163991,-3.5796999999999999
215419.0,192.95400000000001,-1180.0899999999999,-1103.4200000000001,-1209.51,49.357799999999997,-24.841799999999999,-79.732799999999997
215420.0,212.28100000000001,-261.76600000000002,-182.58199999999999,-281.72199999999998,54.152799999999999,-24.086300000000001,-93.588999999999999
215421.0,220.81800000000001,-3030.4200000000001,-2966.6399999999999,-3040.1500000000001,53.733400000000003,-26.764600000000002,-105.145
215422.0,225.88200000000001,-3170.4200000000001,-3126.04,-3171.0300000000002,54.024900000000002,-31.290700000000001,-111.554
215423.0,233.32499999999999,-3005.54,-2974.8000000000002,-2995.8299999999999,52.742899999999999,-34.523499999999999,-118.009
215424.0,240.89699999999999,-4676.0299999999997,-4658.4799999999996,-4657.9200000000001,48.4422,-37.398099999999999,-124.46899999999999
215425.0,275.09100000000001,-7791.9300000000003,-7791.1000000000004,-7747.0299999999997,38.714700000000001,-46.718000000000004,-144.51300000000001
215426.0,275.89600000000002,-7614.7299999999996,-7620.8599999999997,-7555.6099999999997,28.1782,-48.225000000000001,-144.75800000000001
215427.0,263.10399999999998,-8662.4799999999996,-8669.2299999999996,-8591.7800000000007,19.7516,-47.594999999999999,-136.304
215428.0,239.529,-10087.0,-10092.9,-10008.1,12.5138,-44.029400000000003,-121.59699999999999
215429.0,207.63399999999999,-10365.9,-10366.6,-10286.799999999999,7.6866500000000002,-38.367600000000003,-103.61499999999999
215430.0,169.08600000000001,-10517.700000000001,-10511.700000000001,-10442.6,4.4669800000000004,-31.7105,-82.242000000000004
215431.0,86.644300000000001,-9842.1200000000008,-9811.2299999999996,-9790.4400000000005,1.1128499999999999,-17.000299999999999,-39.1907
215432.0,54.822499999999998,-8987.4899999999998,-8940.6700000000001,-8954.2299999999996,0.56784699999999999,-9.5768500000000003,-18.1526
215433.0,55.956800000000001,-7908.4700000000003,-7850.2200000000003,-7893.7600000000002,2.6051700000000002,-5.5997500000000002,-9.3854299999999995
215434.0,66.412800000000004,-6688.0,-6626.2399999999998,-6678.6400000000003,3.12765,-6.2550600000000003,-17.700900000000001
215435.0,73.027299999999997,-5615.79,-5555.8299999999999,-5601.8199999999997,2.8342999999999998,-9.1848799999999997,-26.473299999999998
215436.0,72.253799999999998,-4828.8699999999999,-4771.1700000000001,-4815.6300000000001,5.5676199999999998,-10.634600000000001,-26.125499999999999
215437.0,79.578999999999994,-3289.0599999999999,-3228.1500000000001,-3300.6399999999999,13.433,-6.9407800000000002,-19.127800000000001
215438.0,85.107299999999995,-2419.9000000000001,-2361.73,-2436.1700000000001,15.1576,-8.4892900000000004,-24.104600000000001
215439.0,86.840900000000005,-1678.9200000000001,-1624.1099999999999,-1695.77,15.279500000000001,-9.9432899999999993,-27.8843
215440.0,89.892899999999997,-1019.91,-966.07600000000002,-1037.6500000000001,15.0901,-10.529199999999999,-31.0749
215441.0,87.5745,-449.20499999999998,-399.03500000000003,-463.56700000000001,13.638299999999999,-10.894299999999999,-33.223599999999998
215442.0,205.005,-2246.7199999999998,-2163.4899999999998,-2265.6500000000001,34.836500000000001,-37.925600000000003,-91.667299999999997
215443.0,196.18299999999999,-543.36800000000005,-451.33199999999999,-566.63,51.281599999999997,-17.595099999999999,-78.5642
215444.0,274.49799999999999,5969.7600000000002,5974.6199999999999,6016.0200000000004,38.204099999999997,-42.3324,-145.666
215445.0,130.785,10568.9,10610.0,10633.299999999999,-3.4692099999999999,-18.260300000000001,-65.514200000000002
215446.0,95.479299999999995,3898.27,3975.6900000000001,3878.4099999999999,13.9343,-6.4517699999999998,-12.6944
215447.0,89.108500000000006,1932.9400000000001,1996.8699999999999,1917.05,13.572699999999999,-9.5147600000000008,-24.225300000000001
215448.0,71.782899999999998,8933.8600000000006,9002.1499999999996,8964.4099999999999,-0.063287599999999999,-6.4077400000000004,-22.498200000000001
215449.0,302.54199999999997,9548.5799999999999,9548.7399999999998,9626.4599999999991,17.812899999999999,-44.618400000000001,-161.81700000000001
215450.0,216.642,2558.9099999999999,2636.8000000000002,2554.7600000000002,53.307099999999998,-26.7684,-99.751900000000006
215451.0,198.846,1912.3599999999999,1998.78,1897.1400000000001,50.635199999999998,-26.5471,-83.103999999999999
215452.0,227.614,1595.1700000000001,1653.5799999999999,1594.8599999999999,51.857700000000001,-29.632200000000001,-112.066
215453.0,225.661,5142.0200000000004,5182.7799999999997,5148.29,50.870800000000003,-33.032299999999999,-113.19799999999999
215454.0,226.88300000000001,4516.1800000000003,4542.54,4535.8199999999997,47.200699999999998,-33.179600000000001,-116.8
215455.0,250.37799999999999,6081.9200000000001,6096.5200000000004,6114.0699999999997,43.482399999999998,-38.3324,-131.44300000000001
215456.0,251.374,-5753.25,-5736.7299999999996,-5721.1199999999999,41.2699,-39.450499999999998,-132.458
215457.0,291.90300000000002,7600.5600000000004,7600.6899999999996,7664.3400000000001,28.1965,-42.953899999999997,-156.23400000000001
215458.0,286.95400000000001,9726.6399999999994,9730.4300000000003,9813.2999999999993,8.7673199999999998,-42.241300000000003,-152.27600000000001
215459.0,248.65100000000001,10565.6,10576.4,10653.799999999999,2.2016499999999999,-36.281100000000002,-130.268
215460.0,212.22399999999999,10976.6,10995.0,11061.9,-1.6742999999999999,-30.580200000000001,-109.80500000000001
215461.0,169.613,10906.299999999999,10935.0,10983.700000000001,-3.61137,-23.941299999999998,-86.448400000000007
215462.0,147.91800000000001,-10659.1,-10632.0,-10578.700000000001,-4.6218000000000004,-22.276199999999999,-71.426400000000001
215463.0,94.058999999999997,9928.1499999999996,9984.3799999999992,9974.9799999999996,-1.6194500000000001,-12.807600000000001,-43.304699999999997
215464.0,67.716899999999995,7734.8000000000002,7804.0,7763.5799999999999,-1.4507699999999999,-4.0246399999999998,-17.3719
215465.0,79.116299999999995,6786.8500000000004,6852.7299999999996,6817.75,-1.67787,-9.2775200000000009,-30.188500000000001
215466.0,87.324700000000007,6008.3800000000001,6077.7200000000003,6024.1199999999999,3.2844199999999999,-12.655200000000001,-32.396799999999999
215467.0,91.116,5048.1899999999996,5124.9300000000003,5040.0200000000004,10.2073,-9.2240400000000005,-19.582100000000001
215468.0,83.204499999999996,-4683.7399999999998,-4612.7799999999997,-4695.4300000000003,11.054600000000001,-4.7371299999999996,-12.7502
215469.0,91.600099999999998,2819.6300000000001,2890.4000000000001,2800.4099999999999,14.297700000000001,-7.7079300000000002,-16.950500000000002
215470.0,89.976799999999997,1227.74,1288.01,1212.95,13.0449,-10.3348,-28.990600000000001
215471.0,86.172300000000007,634.73299999999995,689.25300000000004,623.93200000000002,11.8139,-10.662699999999999,-31.558700000000002
215472.0,80.400300000000001,151.21899999999999,198.95699999999999,145.536,10.239599999999999,-10.764900000000001,-32.7592
215473.0,44.838900000000002,51.830199999999998,9.67957,48.917499999999997,-10.1226,-0.615595,-3.6335199999999999
215474.0,184.43100000000001,-655.30200000000002,-571.29200000000003,-677.88699999999994,45.9636,-23.725100000000001,-74.213899999999995
215475.0,200.08199999999999,-2825.2399999999998,-2734.1799999999998,-2836.98,52.900300000000001,-22.136399999999998,-83.002799999999993
215476.0,212.702,-1702.75,-1626.73,-1706.5,49.706400000000002,-24.216200000000001,-99.987399999999994
215477.0,213.21299999999999,-3396.0700000000002,-3344.0900000000001,-3392.3499999999999,47.365099999999998,-27.771000000000001,-106.292
215478.0,210.67099999999999,-5311.9099999999999,-5276.8800000000001,-5300.6999999999998,47.721499999999999,-29.759799999999998,-106.354
215479.0,226.03800000000001,-5356.6000000000004,-5327.7700000000004,-5336.2700000000004,42.8506,-33.1404,-117.801
215480.0,271.62599999999998,-6206.96,-6199.3400000000001,-6158.6099999999997,34.798999999999999,-43.325499999999998,-144.32400000000001
215481.0,288.78899999999999,-8580.3299999999999,-8574.2900000000009,-8513.0699999999997,22.898399999999999,-45.896500000000003,-154.221
215482.0,286.55900000000003,-9608.2999999999993,-9606.7000000000007,-9524.5100000000002,13.829000000000001,-46.595700000000001,-150.708
215483.0,260.05599999999998,-9855.1299999999992,-9852.5100000000002,-9760.8899999999994,5.1318099999999998,-41.822899999999997,-133.744
215484.0,225.22499999999999,-10607.6,-10597.799999999999,-10513.700000000001,-0.203102,-35.275799999999997,-114.012
215485.0,186.501,-10822.0,-10805.200000000001,-10731.799999999999,-3.4339599999999999,-28.5898,-91.983599999999996
215486.0,107.517,-10271.4,-10232.1,-10204.700000000001,-4.5100899999999999,-16.0943,-49.501800000000003
215487.0,70.900400000000005,-9549.5200000000004,-9496.1800000000003,-9501.7800000000007,-2.27305,-9.8283500000000004,-26.7347
215488.0,65.491399999999999,-8428.1399999999994,-8362.0699999999997,-8398.3600000000006,-0.74891200000000002,-6.1905000000000001,-17.2011
215489.0,79.120699999999999,-7266.5900000000001,-7199.5299999999997,-7239.5500000000002,-1.38951,-9.2132400000000008,-29.356400000000001
215490.0,80.608099999999993,-6464.6300000000001,-6404.8100000000004,-6436.8699999999999,-0.41215800000000002,-11.885,-33.591099999999997
215491.0,68.871099999999998,-5728.1400000000003,-5666.8400000000001,-5717.21,4.94733,-8.4656099999999999,-20.386299999999999
215492.0,94.566800000000001,-3498.8400000000001,-3425.8299999999999,-3519.9400000000001,14.204499999999999,-6.0811000000000002,-17.431899999999999
215493.0,94.282799999999995,-2458.2199999999998,-2391.2600000000002,-2477.5300000000002,14.5626,-9.2390299999999996,-24.816700000000001
215494.0,91.931200000000004,-1643.49,-1582.1199999999999,-1659.27,13.674200000000001,-10.4785,-29.314699999999998
215495.0,92.347800000000007,-992.12699999999995,-934.01999999999998,-1006.83,13.1273,-11.0002,-32.665500000000002
215496.0,88.349800000000002,-433.53800000000001,-381.05200000000002,-444.291,11.808400000000001,-11.214,-34.522100000000002
215497.0,193.83099999999999,556.52700000000004,647.45000000000005,544.01700000000005,28.192399999999999,-41.716200000000001,-82.471199999999996
215498.0,192.30799999999999,1519.0699999999999,1616.54,1499.5899999999999,49.748600000000003,-14.472799999999999,-75.609300000000005
215499.0,264.80099999999999,6449.8100000000004,6464.3400000000001,6501.2299999999996,30.024899999999999,-37.602200000000003,-142.67099999999999
215500.0,152.19999999999999,11100.299999999999,11147.700000000001,11177.9,-8.0315200000000004,-17.2926,-76.360200000000006
215501.0,99.931899999999999,4022.1900000000001,4105.8900000000003,4003.0999999999999,13.2638,-5.6315600000000003,-11.4894
215502.0,91.876900000000006,2018.74,2088.52,2004.95,10.563599999999999,-8.9332600000000006,-24.8079
215503.0,82.610600000000005,9490.6499999999996,9564.8600000000006,9534.3799999999992,-3.41662,-6.9342199999999998,-28.702500000000001
215504.0,325.26999999999998,7647.6499999999996,7656.0900000000001,7739.1300000000001,10.965400000000001,-42.515000000000001,-175.452
215505.0,200.48400000000001,1027.79,1104.71,1025.1199999999999,52.602200000000003,-24.597999999999999,-89.347099999999998
215506.0,190.54599999999999,264.14299999999997,349.12400000000002,247.88499999999999,51.515599999999999,-22.994299999999999,-77.227400000000003
215507.0,212.79599999999999,3717.4499999999998,3780.0799999999999,3719.9699999999998,50.633000000000003,-27.058700000000002,-102.669
215508.0,207.13200000000001,1887.6700000000001,1931.3900000000001,1893.1900000000001,47.150500000000001,-27.998999999999999,-103.57299999999999
215509.0,204.99600000000001,4049.7800000000002,4080.8099999999999,4070.8899999999999,42.460000000000001,-28.8733,-105.452
215510.0,236.143,4231.71,4255.29,4267.6199999999999,37.233199999999997,-34.473100000000002,-125.221
215511.0,240.02000000000001,-4993.25,-4963.4399999999996,-4956.5699999999997,34.900500000000001,-35.516500000000001,-127.842
215512.0,294.73599999999999,7100.46,7109.25,7174.21,21.2011,-39.749400000000001,-159.072
215513.0,314.97699999999998,9812.2600000000002,9823.8099999999995,9912.8799999999992,2.1705899999999998,-40.579099999999997,-168.48400000000001
215514.0,272.71800000000002,10645.6,10664.299999999999,10747.799999999999,-3.3067500000000001,-33.989899999999999,-143.755
215515.0,235.65700000000001,11116.700000000001,11142.5,11216.299999999999,-6.9830899999999998,-28.4314,-122.405
215516.0,192.14699999999999,11330.299999999999,11365.5,11421.6,-8.5796799999999998,-22.3002,-98.059299999999993
215517.0,169.74000000000001,-11167.700000000001,-11136.0,-11073.799999999999,-9.7141099999999998,-20.591699999999999,-82.498699999999999
215518.0,110.90900000000001,10471.5,10534.4,10529.299999999999,-5.3653899999999997,-12.3658,-51.966799999999999
215519.0,80.554000000000002,8420.3700000000008,8495.5300000000007,8462.1900000000005,-2.78728,-8.82653,-25.666899999999998
215520.0,89.752399999999994,7464.3199999999997,7538.1499999999996,7496.8999999999996,1.16414,-13.251099999999999,-33.751199999999997
215521.0,91.701400000000007,6513.7799999999997,6593.5200000000004,6520.9300000000003,8.1977399999999996,-9.8989100000000008,-26.298999999999999
215522.0,99.422200000000004,5317.1499999999996,5403.0299999999997,5303.0799999999999,12.9598,-5.65123,-12.964
215523.0,95.557699999999997,-4872.3900000000003,-4791.5200000000004,-4889.1300000000001,12.6295,-5.6416399999999998,-11.292400000000001
215524.0,94.509299999999996,2901.5500000000002,2978.0,2885.3699999999999,11.579599999999999,-7.4687099999999997,-18.431100000000001
215525.0,92.132499999999993,1282.2,1347.46,1268.6099999999999,10.526,-9.9330599999999993,-29.0395
215526.0,87.648799999999994,649.54600000000005,707.93499999999995,639.65200000000004,9.8542299999999994,-10.3438,-31.544599999999999
215527.0,81.343500000000006,158.06299999999999,208.76300000000001,153.34999999999999,8.7947600000000001,-10.269299999999999,-32.846499999999999
215528.0,45.573399999999999,64.878699999999995,22.567699999999999,63.198500000000003,-10.183999999999999,-0.91947699999999999,-3.7107600000000001
215529.0,180.34800000000001,-1094.6099999999999,-1006.78,-1113.29,45.103400000000001,-22.300000000000001,-71.244600000000005
215530.0,184.83000000000001,60.082999999999998,145.67400000000001,48.713900000000002,52.198300000000003,-19.497699999999998,-73.981200000000001
215531.0,198.41,-2496.6900000000001,-2417.8400000000001,-2498.7600000000002,48.864600000000003,-21.175799999999999,-90.319800000000001
215532.0,199.399,-2553.5999999999999,-2496.3000000000002,-2548.0700000000002,44.777299999999997,-23.832999999999998,-98.392600000000002
215533.0,188.76900000000001,-2192.3800000000001,-2151.8400000000001,-2179.5700000000002,42.4861,-24.861499999999999,-95.002300000000005
215534.0,210.654,-3560.2600000000002,-3519.6599999999999,-3538.0900000000001,39.576500000000003,-29.861799999999999,-109.181
215535.0,265.82499999999999,-6667.0500000000002,-6644.7600000000002,-6612.4300000000003,27.953199999999999,-39.360399999999998,-143.072
215536.0,302.94200000000001,-6572.7799999999997,-6553.6199999999999,-6497.1700000000001,18.884799999999998,-44.170200000000001,-163.51900000000001
215537.0,312.51100000000002,-8101.1599999999999,-8090.5,-8003.7799999999997,7.18452,-44.508899999999997,-166.339
215538.0,284.87799999999999,-10032.0,-10023.299999999999,-9922.9099999999999,-0.84585299999999997,-39.153799999999997,-147.79499999999999
215539.0,247.94,-10656.4,-10640.799999999999,-10548.700000000001,-5.6836500000000001,-32.732300000000002,-126.495
215540.0,208.66399999999999,-11073.700000000001,-11052.0,-10969.700000000001,-8.8077000000000005,-26.295200000000001,-103.61499999999999
215541.0,126.86,-10802.5,-10758.5,-10722.9,-8.9936600000000002,-14.834199999999999,-58.945399999999999
215542.0,84.124300000000005,-10072.6,-10012.799999999999,-10013.4,-5.73719,-8.9462299999999999,-32.639800000000001
215543.0,79.886300000000006,-9036.8799999999992,-8963.3600000000006,-8993.2199999999993,-4.1793899999999997,-7.4706400000000004,-26.210100000000001
215544.0,88.247200000000007,-7978.9200000000001,-7908.6400000000003,-7939.8500000000004,-2.0794899999999998,-10.8947,-35.109900000000003
215545.0,75.950800000000001,-7130.8100000000004,-7066.96,-7103.5299999999997,2.8554200000000001,-9.1325199999999995,-28.368400000000001
215546.0,76.647900000000007,-6160.8400000000001,-6088.7799999999997,-6158.6999999999998,8.3934300000000004,-4.5223699999999996,-13.655200000000001
215547.0,100.074,-3581.0700000000002,-3501.7399999999998,-3600.96,12.9124,-8.5525000000000002,-18.520499999999998
215548.0,96.570499999999996,-2550.71,-2478.1199999999999,-2567.21,11.542400000000001,-9.7036499999999997,-25.186900000000001
215549.0,93.888300000000001,-1730.6300000000001,-1664.0999999999999,-1744.78,10.8644,-10.1873,-29.334299999999999
215550.0,94.168800000000005,-1032.2,-969.73900000000003,-1046.04,10.894,-10.8239,-32.6738
215551.0,89.823400000000007,-448.517,-392.59300000000002,-458.55200000000002,10.222799999999999,-11.0792,-34.627000000000002
215552.0,179.24199999999999,-2113.0100000000002,-2015.25,-2117.9499999999998,23.087499999999999,-41.192799999999998,-71.584699999999998
215553.0,188.15799999999999,-668.38800000000003,-567.54999999999995,-683.84400000000005,49.556600000000003,-13.530799999999999,-71.928299999999993
215554.0,254.11500000000001,4743.1400000000003,4764.79,4797.9499999999998,23.877600000000001,-34.069600000000001,-137.95699999999999
215555.0,174.44800000000001,11473.6,11520.0,11562.6,-10.4679,-16.780100000000001,-88.164400000000001
215556.0,94.745000000000005,4039.3099999999999,4120.2399999999998,4028.46,12.7799,-8.0404599999999995,-15.782999999999999
215557.0,92.895399999999995,2139.8200000000002,2212.1300000000001,2127.4499999999998,9.4034899999999997,-9.3589699999999993,-24.658799999999999
215558.0,93.527000000000001,10150.4,10225.799999999999,10202.0,-3.9457599999999999,-9.9497900000000001,-36.263800000000003
215559.0,336.608,8696.6800000000003,8707.7299999999996,8794.9200000000001,7.65313,-40.611600000000003,-182.11099999999999
215560.0,180.65299999999999,2248.54,2325.3800000000001,2246.3499999999999,48.110700000000001,-22.7776,-77.583500000000001
215561.0,181.44900000000001,1797.6800000000001,1884.1600000000001,1781.1199999999999,46.982199999999999,-22.1218,-72.222300000000004
215562.0,189.304,976.899,1040.8399999999999,980.74599999999998,47.518099999999997,-22.163,-88.9405
215563.0,189.215,4322.6599999999999,4372.8100000000004,4331.5699999999997,42.531700000000001,-23.275099999999998,-94.167699999999996
215564.0,188.72300000000001,3518.4899999999998,3557.1300000000001,3540.9499999999998,37.378500000000003,-25.0075,-97.329899999999995
215565.0,218.36799999999999,4930.4399999999996,4959.0600000000004,4966.6199999999999,31.1159,-29.385999999999999,-117.042
215566.0,225.977,-4495.04,-4453.5200000000004,-4456.1499999999996,29.329799999999999,-31.473199999999999,-120.956
215567.0,295.61099999999999,6458.9399999999996,6472.9200000000001,6538.1199999999999,16.1145,-38.169600000000003,-160.08199999999999
215568.0,335.15300000000002,9303.9799999999996,9315.8899999999994,9412.3400000000001,0.92750900000000003,-38.9148,-179.99000000000001
215569.0,294.35199999999998,10552.9,10569.6,10662.4,-3.7339000000000002,-32.913899999999998,-155.88200000000001
215570.0,258.25200000000001,11309.299999999999,11333.4,11418.200000000001,-8.1463999999999999,-27.4452,-134.68799999999999
215571.0,215.559,11546.0,11579.700000000001,11648.200000000001,-10.5145,-21.531500000000001,-110.46899999999999
215572.0,192.51599999999999,-11407.6,-11378.1,-11302.700000000001,-12.045500000000001,-19.790099999999999,-94.274900000000002
215573.0,129.303,11035.6,11099.0,11104.4,-7.9000300000000001,-12.449,-62.390900000000002
215574.0,85.738699999999994,9021.5499999999993,9100.7600000000002,9057.4599999999991,1.61046,-12.172499999999999,-26.9482
215575.0,87.260999999999996,7874.3500000000004,7955.1199999999999,7889.0699999999997,9.3610900000000008,-11.9411,-21.386199999999999
215576.0,92.595399999999998,6544.0699999999997,6627.7200000000003,6541.3900000000003,15.1991,-8.4316700000000004,-12.0892
215577.0,95.944800000000001,5207.4700000000003,5291.5200000000004,5198.3999999999996,15.3903,-7.5785200000000001,-11.744199999999999
215578.0,95.781199999999998,-4728.9499999999998,-4647.3299999999999,-4738.4099999999999,14.172700000000001,-9.5834700000000002,-16.043600000000001
215579.0,93.136399999999995,3030.4000000000001,3106.8499999999999,3018.8499999999999,10.5099,-8.68933,-20.4573
215580.0,94.342699999999994,1377.1600000000001,1446.4200000000001,1363.3099999999999,9.2006800000000002,-10.1044,-28.239899999999999
215581.0,89.844700000000003,711.24300000000005,773.97199999999998,700.50400000000002,8.48109,-10.293200000000001,-30.629799999999999
215582.0,82.964500000000001,165.41499999999999,220.24199999999999,160.08099999999999,7.4994300000000003,-9.9664800000000007,-32.090800000000002
215583.0,46.244199999999999,53.239600000000003,10.897600000000001,52.948300000000003,-10.167199999999999,-1.06155,-3.8486199999999999
215584.0,178.29400000000001,-551.72900000000004,-460.82999999999998,-567.61400000000003,44.232799999999997,-22.1295,-69.500500000000002
215585.0,165.964,-2705.5599999999999,-2624.5700000000002,-2715.7800000000002,45.049900000000001,-18.407699999999998,-65.692899999999995
215586.0,178.018,-1256.26,-1178.6400000000001,-1257.8,47.473999999999997,-16.975200000000001,-77.282899999999998
215587.0,179.87200000000001,-2639.9699999999998,-2577.7600000000002,-2634.3099999999999,41.727899999999998,-19.418900000000001,-86.504000000000005
215588.0,175.71299999999999,-4375.79,-4322.7299999999996,-4359.0299999999997,38.253399999999999,-21.6449,-87.316900000000004
215589.0,195.94300000000001,-4216.9499999999998,-4168.25,-4193.1400000000003,36.5289,-26.630500000000001,-100.804
215590.0,260.86200000000002,-4937.8199999999997,-4903.2700000000004,-4879.4399999999996,22.798999999999999,-36.315100000000001,-141.36000000000001
215591.0,308.39999999999998,-7484.7799999999997,-7460.4700000000003,-7405.4399999999996,15.158799999999999,-41.462800000000001,-167.637
215592.0,328.14800000000002,-8903.3099999999995,-8889.8899999999994,-8800.4899999999998,4.7208600000000001,-41.162500000000001,-176.21899999999999
215593.0,305.38600000000002,-9620.8099999999995,-9614.6000000000004,-9505.1499999999996,-2.42509,-36.492199999999997,-159.739
215594.0,268.815,-10752.799999999999,-10740.299999999999,-10637.6,-6.85276,-31.166899999999998,-138.11500000000001
215595.0,230.95099999999999,-11286.5,-11267.1,-11173.0,-10.4796,-25.133500000000002,-115.556
215596.0,147.857,-11258.299999999999,-11216.0,-11167.1,-11.6076,-14.413399999999999,-69.726399999999998
215597.0,99.338300000000004,-10705.299999999999,-10646.700000000001,-10635.299999999999,-8.5467099999999991,-9.4434400000000007,-41.417099999999998
215598.0,83.277900000000002,-9663.7600000000002,-9593.8799999999992,-9614.2299999999996,-3.5569199999999999,-9.3074399999999997,-30.340800000000002
215599.0,76.404300000000006,-8552.6000000000004,-8482.2700000000004,-8521.5499999999993,4.03714,-9.4968599999999999,-24.4377
215600.0,77.162000000000006,-7390.7299999999996,-7316.46,-7380.25,11.4696,-6.9481099999999998,-13.7409
215601.0,90.960899999999995,-6007.2200000000003,-5925.6999999999998,-6011.2200000000003,14.8643,-7.4414899999999999,-12.3409
215602.0,95.128500000000003,-3638.4499999999998,-3560.75,-3649.7399999999998,11.767300000000001,-10.305899999999999,-20.601800000000001
215603.0,94.001800000000003,-2675.3600000000001,-2602.2199999999998,-2687.4099999999999,10.018700000000001,-10.3438,-24.7575
215604.0,93.994299999999996,-1837.71,-1768.45,-1850.55,9.3283699999999996,-10.523099999999999,-28.231000000000002
215605.0,95.850899999999996,-1122.78,-1056.23,-1136.8900000000001,9.3546399999999998,-11.084300000000001,-31.5669
215606.0,91.853899999999996,-494.00799999999998,-433.68200000000002,-504.80200000000002,8.7825000000000006,-11.1859,-33.781399999999998
215607.0,163.55799999999999,772.59400000000005,877.298,775.13800000000003,17.734300000000001,-37.8123,-60.042499999999997
215608.0,180.96000000000001,1392.3199999999999,1496.27,1381.6199999999999,47.782699999999998,-14.164199999999999,-66.494399999999999
215609.0,243.22200000000001,5278.2600000000002,5305.54,5333.1700000000001,14.891999999999999,-30.922899999999998,-133.369
215610.0,195.529,11680.200000000001,11722.200000000001,11778.5,-12.535600000000001,-16.362100000000002,-99.429299999999998
215611.0,90.109499999999997,4027.5300000000002,4104.6999999999998,4020.6599999999999,11.931699999999999,-9.5197299999999991,-17.2119
215612.0,92.189400000000006,2200.7800000000002,2273.3499999999999,2190.71,9.1977899999999995,-10.4231,-24.632200000000001
215613.0,101.42700000000001,10566.5,10639.200000000001,10618.9,-2.8845100000000001,-11.354900000000001,-43.411000000000001
215614.0,324.71600000000001,6599.54,6612.3999999999996,6696.5699999999997,3.3189099999999998,-38.072699999999998,-175.80799999999999
215615.0,162.14099999999999,668.98000000000002,747.41999999999996,667.154,46.3566,-21.6511,-63.605800000000002
215616.0,175.35599999999999,118.193,212.41200000000001,104.98,43.969299999999997,-20.422799999999999,-66.837299999999999
215617.0,165.47300000000001,3024.5300000000002,3087.4400000000001,3030.5100000000002,47.546500000000002,-16.869199999999999,-73.322000000000003
215618.0,177.083,940.42399999999998,990.048,949.548,43.260100000000001,-18.297999999999998,-86.884299999999996
215619.0,181.21600000000001,3021.21,3060.2399999999998,3040.9699999999998,36.3962,-22.219200000000001,-93.526200000000003
215620.0,203.518,3130.8400000000001,3163.8000000000002,3166.7199999999998,24.843,-24.889800000000001,-110.33
215621.0,214.43600000000001,-3821.6199999999999,-3772.4400000000001,-3782.8000000000002,21.072199999999999,-27.969100000000001,-115.884
215622.0,285.0,5962.8199999999997,5982.3699999999999,6041.0799999999999,7.7427700000000002,-35.538699999999999,-155.22
215623.0,334.37799999999999,8961.3799999999992,8969.3999999999996,9069.8500000000004,-0.68858299999999995,-35.6173,-179.85400000000001
215624.0,310.76499999999999,10118.6,10129.0,10232.4,-5.7043100000000004,-30.3355,-165.166
215625.0,282.66399999999999,10966.1,10983.700000000001,11081.9,-10.795999999999999,-25.907,-148.14699999999999
215626.0,239.947,11560.799999999999,11589.1,11671.700000000001,-13.255800000000001,-20.535399999999999,-123.586
215627.0,215.04599999999999,-11526.4,-11502.1,-11411.700000000001,-14.408200000000001,-18.732600000000001,-105.849
215628.0,146.107,11340.700000000001,11399.1,11418.0,-8.9105399999999992,-12.856999999999999,-72.441299999999998
215629.0,86.220399999999998,9435.0499999999993,9518.4599999999991,9460.5699999999997,5.0328999999999997,-10.7044,-22.620100000000001
215630.0,91.623999999999995,7974.5600000000004,8063.3400000000001,7978.3999999999996,12.2486,-8.2729199999999992,-7.8342200000000002
215631.0,94.185299999999998,6478.5200000000004,6565.29,6473.6999999999998,14.976699999999999,-7.6550099999999999,-4.1665400000000004
215632.0,91.135900000000007,5164.1899999999996,5245.4499999999998,5158.3699999999999,13.6592,-8.8427000000000007,-11.5778
215633.0,92.169799999999995,-4684.9399999999996,-4606.1099999999997,-4691.1300000000001,12.947100000000001,-10.4475,-17.552
215634.0,90.331699999999998,3043.9299999999998,3118.27,3035.6700000000001,10.359,-9.8600399999999997,-21.109400000000001
215635.0,95.488299999999995,1435.05,1506.8699999999999,1422.4300000000001,8.7624899999999997,-11.113899999999999,-27.643599999999999
215636.0,91.634299999999996,737.75999999999999,804.35799999999995,727.61199999999997,7.6745599999999996,-10.7836,-29.7606
215637.0,84.736500000000007,175.911,235.14099999999999,171.18199999999999,6.2652999999999999,-9.9883799999999994,-31.372299999999999
215638.0,46.9666,65.662499999999994,23.2639,66.736999999999995,-10.1671,-1.0326,-4.0080799999999996
215639.0,174.351,-976.702,-883.69399999999996,-989.54700000000003,43.661299999999997,-22.720099999999999,-66.132499999999993
215640.0,153.017,239.76300000000001,325.274,234.66200000000001,40.479599999999998,-15.9657,-57.6173
215641.0,156.16,-1990.8499999999999,-1916.05,-1991.3099999999999,49.176900000000003,-13.9968,-60.314
215642.0,166.88900000000001,-1656.5899999999999,-1587.72,-1651.05,44.056699999999999,-14.8994,-75.213399999999993
215643.0,170.80799999999999,-1130.6300000000001,-1075.5699999999999,-1115.72,39.298099999999998,-19.732399999999998,-83.547899999999998
215644.0,184.774,-2481.71,-2431.1599999999999,-2457.8899999999999,34.082700000000003,-24.230699999999999,-94.826700000000002
215645.0,250.887,-5482.75,-5442.5,-5424.6300000000001,13.525399999999999,-32.618099999999998,-137.28899999999999
215646.0,294.89699999999999,-5482.3500000000004,-5453.4700000000003,-5403.9700000000003,7.5791599999999999,-36.139600000000002,-161.41
215647.0,319.786,-7121.0,-7107.3800000000001,-7022.6800000000003,1.95871,-35.775300000000001,-173.107
215648.0,312.61599999999999,-9305.0,-9300.5400000000009,-9191.3199999999997,-4.4163199999999998,-32.480600000000003,-165.39699999999999
215649.0,289.51799999999997,-10273.0,-10265.299999999999,-10153.6,-9.2056000000000004,-29.307099999999998,-150.096
215650.0,255.07300000000001,-11067.299999999999,-11053.700000000001,-10945.6,-12.712199999999999,-24.206600000000002,-128.44200000000001
215651.0,167.90000000000001,-11484.700000000001,-11448.1,-11384.299999999999,-12.8962,-13.8035,-80.350099999999998
215652.0,114.124,-11018.6,-10967.0,-10940.799999999999,-8.7901600000000002,-9.7329100000000004,-50.991799999999998
215653.0,78.346100000000007,-10146.9,-10082.0,-10096.799999999999,-0.90791100000000002,-8.5638000000000005,-28.5776
215654.0,73.027299999999997,-8888.25,-8812.0300000000007,-8866.4899999999998,8.0863600000000009,-6.8334799999999998,-11.143599999999999
215655.0,88.614400000000003,-7370.96,-7286.1099999999997,-7369.6300000000001,13.4999,-6.6513299999999997,-5.3013000000000003
215656.0,94.368499999999997,-5913.21,-5829.1400000000003,-5918.8199999999997,14.564399999999999,-9.4400399999999998,-11.983599999999999
215657.0,91.094300000000004,-3613.8400000000001,-3538.7800000000002,-3620.9400000000001,11.111499999999999,-10.692399999999999,-21.351199999999999
215658.0,91.506299999999996,-2703.6900000000001,-2631.3600000000001,-2712.0100000000002,9.5936800000000009,-10.991300000000001,-24.7104
215659.0,93.214200000000005,-1904.8399999999999,-1834.24,-1914.99,8.8147099999999998,-11.384600000000001,-27.469799999999999
215660.0,96.764399999999995,-1169.8599999999999,-1099.97,-1182.5,8.5740999999999996,-11.9206,-30.488
215661.0,93.684600000000003,-520.48000000000002,-455.60700000000003,-530.34299999999996,7.5047199999999998,-11.572699999999999,-32.966700000000003
215662.0,150.03800000000001,-1952.0899999999999,-1838.3,-1941.6300000000001,11.9795,-33.094700000000003,-48.054600000000001
215663.0,170.33799999999999,-769.721,-665.68299999999999,-776.15999999999997,46.3155,-16.370100000000001,-58.4253
215664.0,235.274,3738.8000000000002,3770.7600000000002,3791.8099999999999,6.1892699999999996,-27.587900000000001,-130.15199999999999
215665.0,213.53299999999999,11553.200000000001,11589.0,11657.299999999999,-15.973599999999999,-14.691800000000001,-109.23
215666.0,89.090000000000003,4022.6900000000001,4101.1000000000004,4017.3800000000001,10.014799999999999,-9.3624200000000002,-16.138000000000002
215667.0,91.781499999999994,2202.29,2276.7399999999998,2195.4400000000001,7.72302,-10.5106,-24.592600000000001
215668.0,109.30500000000001,10760.6,10829.1,10815.799999999999,-3.4558300000000002,-9.5399700000000003,-50.587200000000003
215669.0,290.38400000000001,7499.29,7517.0900000000001,7587.4099999999999,-2.9631500000000002,-32.826300000000003,-157.63900000000001
215670.0,147.68299999999999,1863.9400000000001,1933.3800000000001,1855.1199999999999,48.2637,-16.862100000000002,-53.093000000000004
215671.0,169.501,1617.8499999999999,1712.3800000000001,1606.75,46.503700000000002,-19.097100000000001,-60.664499999999997
215672.0,142.351,173.571,222.62100000000001,174.70599999999999,48.891800000000003,-13.5158,-58.2898
215673.0,158.84399999999999,3314.8099999999999,3355.23,3321.1900000000001,39.439999999999998,-15.286899999999999,-78.417199999999994
215674.0,173.13999999999999,2550.2399999999998,2583.6599999999999,2564.75,28.891100000000002,-20.833200000000001,-91.885000000000005
215675.0,194.238,3927.1999999999998,3958.8699999999999,3960.4200000000001,18.309200000000001,-22.784400000000002,-106.631
215676.0,206.79599999999999,-3525.6100000000001,-3477.5700000000002,-3489.8600000000001,13.524699999999999,-26.447900000000001,-112.91500000000001
215677.0,267.80000000000001,5446.6300000000001,5472.3299999999999,5518.4700000000003,-0.129187,-32.822000000000003,-146.63999999999999
215678.0,309.83600000000001,7916.3400000000001,7927.04,8021.8000000000002,-6.7391199999999998,-29.8581,-166.41200000000001
215679.0,317.07799999999997,9287.4300000000003,9297.0599999999995,9406.2900000000009,-11.761200000000001,-26.2074,-168.315
215680.0,305.14499999999998,10496.700000000001,10510.0,10619.299999999999,-16.601500000000001,-22.577200000000001,-160.38900000000001
215681.0,264.15499999999997,11227.1,11249.200000000001,11344.299999999999,-17.993500000000001,-18.4497,-136.804
215682.0,235.81299999999999,-11234.0,-11216.4,-11111.799999999999,-18.145399999999999,-16.377400000000002,-116.517
215683.0,159.35400000000001,11418.1,11469.6,11501.1,-10.9964,-11.2668,-80.381799999999998
215684.0,86.800899999999999,9593.8600000000006,9678.5599999999995,9618.4500000000007,5.9508900000000002,-8.8552800000000005,-22.3307
215685.0,94.917699999999996,8122.71,8214.9300000000003,8125.1800000000003,13.2508,-7.8757400000000004,-2.0329000000000002
215686.0,96.196600000000004,6551.6700000000001,6640.8100000000004,6546.3100000000004,14.335000000000001,-7.8290899999999999,-0.30129699999999998
215687.0,91.017600000000002,5163.6700000000001,5246.54,5157.9899999999998,11.935,-8.6623400000000004,-9.3241999999999994
215688.0,92.156999999999996,-4680.0,-4599.2299999999996,-4686.0100000000002,10.748799999999999,-10.028700000000001,-16.3262
215689.0,89.173599999999993,3056.2600000000002,3131.8099999999999,3050.8200000000002,8.6674699999999998,-9.8570899999999995,-20.712900000000001
215690.0,96.128699999999995,1448.3,1523.23,1438.45,7.4191099999999999,-11.252800000000001,-27.3687
215691.0,92.918999999999997,755.67399999999998,826.24599999999998,747.83799999999997,6.3959400000000004,-10.8004,-29.248999999999999
215692.0,86.272400000000005,173.31200000000001,236.76599999999999,170.51300000000001,4.9396899999999997,-9.7561900000000001,-30.9421
215693.0,47.725900000000003,54.118699999999997,11.608700000000001,56.512700000000002,-10.131500000000001,-0.83197699999999997,-4.2086100000000002
215694.0,165.923,-438.33999999999997,-345.16899999999998,-447.58199999999999,43.9846,-22.959800000000001,-59.2102
215695.0,146.62,-2466.5599999999999,-2382.0900000000001,-2470.1399999999999,43.1982,-14.2644,-51.112499999999997
215696.0,135.92099999999999,-671.98400000000004,-608.26900000000001,-676.00400000000002,50.133899999999997,-9.9108999999999998,-45.853999999999999
215697.0,150.99600000000001,-1651.6300000000001,-1589.4400000000001,-1651.47,46.756500000000003,-12.8195,-62.954300000000003
215698.0,160.155,-3367.6199999999999,-3316.4099999999999,-3358.79,31.805399999999999,-18.152899999999999,-80.3703
215699.0,173.09200000000001,-3316.5799999999999,-3273.5999999999999,-3296.9000000000001,25.731100000000001,-22.8415,-91.324100000000001
215700.0,240.69,-4004.6199999999999,-3963.1500000000001,-3949.2600000000002,2.1539799999999998,-29.083100000000002,-132.78
215701.0,266.86000000000001,-6488.2200000000003,-6457.4700000000003,-6415.2200000000003,-0.289186,-30.221299999999999,-146.566
215702.0,285.87599999999998,-7613.2700000000004,-7590.4099999999999,-7523.6599999999999,-4.0188800000000002,-28.4983,-155.71000000000001
215703.0,302.839,-8168.6300000000001,-8152.3699999999999,-8059.4399999999996,-8.7131600000000002,-27.059699999999999,-162.149
215704.0,305.91500000000002,-9582.3299999999999,-9571.0400000000009,-9458.8299999999999,-13.8165,-25.466100000000001,-160.29300000000001
215705.0,279.60399999999998,-10649.5,-10639.9,-10520.9,-17.961200000000002,-20.9849,-142.0
215706.0,183.71299999999999,-11440.1,-11410.1,-11333.299999999999,-14.7454,-11.8193,-88.664199999999994
215707.0,127.443,-11158.0,-11113.4,-11074.200000000001,-9.0345600000000008,-8.1598400000000009,-59.223999999999997
215708.0,77.849500000000006,-10324.799999999999,-10264.4,-10270.799999999999,-0.24632799999999999,-6.3210100000000002,-29.671900000000001
215709.0,72.214200000000005,-9063.0699999999997,-8985.9200000000001,-9041.3299999999999,9.3314599999999999,-5.8578400000000004,-5.8844599999999998
215710.0,91.677199999999999,-7513.1899999999996,-7425.8500000000004,-7513.3500000000004,13.943300000000001,-7.6292999999999997,-1.2583200000000001
215711.0,95.198899999999995,-5962.5299999999997,-5876.4099999999999,-5969.0699999999997,12.927,-9.4690300000000001,-9.4900400000000005
215712.0,90.672600000000003,-3627.0500000000002,-3550.2800000000002,-3632.3000000000002,9.2438699999999994,-10.519,-20.887799999999999
215713.0,90.965000000000003,-2709.5599999999999,-2635.4400000000001,-2714.7399999999998,7.9888599999999999,-10.8904,-24.650400000000001
215714.0,92.864699999999999,-1909.0,-1835.98,-1915.79,7.3661099999999999,-11.2471,-27.1311
215715.0,97.329999999999998,-1194.98,-1121.4200000000001,-1204.6600000000001,7.1761699999999999,-11.9488,-29.853100000000001
215716.0,94.993200000000002,-533.88599999999997,-464.63900000000001,-541.22199999999998,6.0539399999999999,-11.577,-32.4283
215717.0,140.423,914.221,1036.3800000000001,932.64599999999996,9.8813399999999998,-28.9803,-36.027700000000003
215718.0,156.46100000000001,1285.3299999999999,1386.27,1280.5699999999999,44.405700000000003,-16.366199999999999,-48.539000000000001
215719.0,222.477,4432.8400000000001,4474.1999999999998,4484.8900000000003,-4.7822399999999998,-24.427700000000002,-122.97799999999999
215720.0,235.434,11217.9,11248.0,11327.799999999999,-23.1525,-10.825699999999999,-120.813
215721.0,88.490200000000002,4075.9400000000001,4157.0600000000004,4073.5799999999999,7.1801700000000004,-8.6149400000000007,-15.0017
215722.0,92.446899999999999,2249.9200000000001,2328.4000000000001,2245.71,5.3261399999999997,-9.7092399999999994,-23.598099999999999
215723.0,117.80500000000001,10722.0,10787.0,10783.200000000001,-7.0638399999999999,-6.7790299999999997,-56.5672
215724.0,257.81799999999998,5400.0699999999997,5426.1800000000003,5479.5600000000004,-10.859299999999999,-25.994499999999999,-140.43299999999999
215725.0,135.04900000000001,234.017,298.85599999999999,222.53399999999999,44.429099999999998,-12.8826,-47.392099999999999
215726.0,156.488,-180.19800000000001,-92.787199999999999,-191.09100000000001,46.859299999999998,-17.1966,-52.6068
215727.0,115.379,2366.1199999999999,2408.7800000000002,2361.25,39.775700000000001,-10.879300000000001,-45.313000000000002
215728.0,128.905,-18.158899999999999,24.213699999999999,-9.5617400000000004,27.485600000000002,-11.882300000000001,-64.346999999999994
215729.0,161.78800000000001,2056.7399999999998,2102.5500000000002,2076.77,13.2096,-17.112100000000002,-87.922700000000006
215730.0,187.11199999999999,2270.6300000000001,2311.9000000000001,2305.3800000000001,3.55654,-21.305399999999999,-103.497
215731.0,197.035,-3069.6799999999998,-3018.25,-3033.4899999999998,0.635073,-24.139099999999999,-107.98099999999999
215732.0,247.75999999999999,5074.3299999999999,5110.0100000000002,5140.2200000000003,-9.8381900000000009,-27.089700000000001,-136.173
215733.0,280.07900000000001,7351.3900000000003,7369.9700000000003,7451.1199999999999,-13.569699999999999,-24.2608,-150.20699999999999
215734.0,303.233,8428.8500000000004,8442.2600000000002,8545.9099999999999,-18.168399999999998,-22.354600000000001,-160.36099999999999
215735.0,307.45800000000003,9567.3299999999999,9578.8700000000008,9691.8099999999995,-22.950500000000002,-17.6815,-161.059
215736.0,284.19,10634.700000000001,10651.6,10756.9,-25.3598,-13.724,-147.34
215737.0,257.93900000000002,-10730.6,-10715.9,-10602.5,-25.000299999999999,-11.3978,-128.49600000000001
215738.0,174.047,11223.4,11270.0,11312.4,-16.440100000000001,-8.0278700000000001,-88.208399999999997
215739.0,86.336200000000005,9739.5100000000002,9822.4799999999996,9768.2399999999998,4.0795599999999999,-6.93689,-25.3888
215740.0,93.381299999999996,8253.8500000000004,8345.5300000000007,8257.3299999999999,12.525399999999999,-6.9218000000000002,-1.4651799999999999
215741.0,96.271299999999997,6653.25,6743.1000000000004,6648.1499999999996,13.422700000000001,-7.2281700000000004,2.0947900000000002
215742.0,90.517399999999995,5248.4499999999998,5333.3299999999999,5244.6499999999996,9.9710800000000006,-8.09497,-7.2319500000000003
215743.0,92.180199999999999,-4758.8699999999999,-4674.9499999999998,-4762.0299999999997,8.2282299999999999,-10.0032,-15.0036
215744.0,89.314300000000003,3089.25,3168.3000000000002,3086.71,5.7996699999999999,-9.0390899999999998,-19.782800000000002
215745.0,97.341999999999999,1481.76,1561.1099999999999,1474.4300000000001,5.5346099999999998,-10.7349,-26.502199999999998
215746.0,94.766199999999998,769.37800000000004,844.61300000000006,763.66700000000003,4.9155100000000003,-10.435700000000001,-28.6294
215747.0,88.238200000000006,182.155,250.17400000000001,180.66499999999999,3.8021799999999999,-9.2320399999999996,-30.313800000000001
215748.0,48.514099999999999,66.374099999999999,23.6661,69.876599999999996,-10.131,-0.50120399999999998,-4.4394900000000002
215749.0,154.24799999999999,-759.40499999999997,-667.42499999999995,-765.23199999999997,45.178800000000003,-21.239999999999998,-49.279600000000002
215750.0,137.39099999999999,612.45399999999995,690.08900000000006,606.601,44.084000000000003,-13.0396,-44.796999999999997
215751.0,118.399,-1529.99,-1472.8,-1535.55,43.533200000000001,-8.1341999999999999,-38.795000000000002
215752.0,119.78400000000001,-896.99400000000003,-843.06700000000001,-901.11699999999996,37.1751,-10.1631,-47.415900000000001
215753.0,144.614,-149.06299999999999,-85.817499999999995,-140.126,20.495100000000001,-14.991099999999999,-71.796499999999995
215754.0,166.03700000000001,-1662.27,-1608.3900000000001,-1639.73,8.0586699999999993,-19.779800000000002,-89.447599999999994
215755.0,226.91800000000001,-4712.7600000000002,-4664.54,-4659.3299999999999,-8.0734300000000001,-25.2151,-124.881
215756.0,239.77000000000001,-4579.1899999999996,-4542.46,-4510.75,-10.0062,-24.450500000000002,-131.5
215757.0,254.184,-5716.5699999999997,-5682.2700000000004,-5633.25,-10.2295,-23.287800000000001,-138.333
215758.0,280.89800000000002,-7505.9099999999999,-7477.7299999999996,-7403.2700000000004,-13.8436,-22.367999999999999,-150.98599999999999
215759.0,298.46899999999999,-8559.7600000000002,-8541.2099999999991,-8440.3700000000008,-18.4481,-19.693000000000001,-157.60400000000001
215760.0,292.17399999999998,-9756.2600000000002,-9743.25,-9627.3299999999999,-24.235099999999999,-15.140599999999999,-150.333
215761.0,201.77799999999999,-11132.6,-11108.200000000001,-11018.5,-20.127099999999999,-7.5847899999999999,-97.469300000000004
215762.0,140.155,-10981.700000000001,-10942.5,-10891.6,-12.6835,-4.40008,-65.785300000000007
215763.0,82.212999999999994,-10389.9,-10334.6,-10330.5,-2.6729099999999999,-2.81643,-33.684899999999999
215764.0,66.825299999999999,-9239.5900000000001,-9166.7299999999996,-9214.4599999999991,8.1532099999999996,-3.8676900000000001,-6.10222
215765.0,89.1524,-7644.1800000000003,-7558.3800000000001,-7643.1800000000003,13.0008,-7.2996299999999996,1.25895
215766.0,94.956699999999998,-6070.6599999999999,-5982.6999999999998,-6075.7799999999997,11.1775,-9.6883700000000008,-6.9836900000000002
215767.0,90.499899999999997,-3664.8000000000002,-3584.54,-3666.6500000000001,6.3104199999999997,-9.7883200000000006,-19.9207
215768.0,91.260300000000001,-2753.6999999999998,-2675.6300000000001,-2755.8600000000001,5.4173400000000003,-9.9085999999999999,-23.649699999999999
215769.0,93.738200000000006,-1958.3900000000001,-1881.0799999999999,-1962.46,5.2783899999999999,-10.355,-26.291799999999999
215770.0,98.690700000000007,-1219.6400000000001,-1141.48,-1226.6700000000001,5.4541700000000004,-11.4213,-29.1633
215771.0,96.642600000000002,-552.34799999999996,-478.39800000000002,-557.56799999999998,4.7768300000000004,-11.191800000000001,-31.694700000000001
215772.0,133.89699999999999,-1888.48,-1759.5699999999999,-1860.6600000000001,11.459,-26.364100000000001,-23.4085
215773.0,144.352,-857.904,-767.21100000000001,-866.63499999999999,46.235199999999999,-13.625500000000001,-39.892000000000003
215774.0,208.78200000000001,2950.9200000000001,3002.3000000000002,3001.6900000000001,-8.7818699999999996,-21.127700000000001,-114.61499999999999
215775.0,257.15300000000002,10607.700000000001,10630.700000000001,10722.1,-31.5166,-6.4004700000000003,-131.69399999999999
215776.0,86.247,4229.8999999999996,4312.5100000000002,4231.5200000000004,2.7223199999999999,-6.8722700000000003,-13.927899999999999
215777.0,93.287499999999994,2380.6700000000001,2463.2600000000002,2377.6700000000001,2.7015899999999999,-8.7323799999999991,-21.3992
215778.0,121.813,10584.6,10643.6,10647.9,-8.6796699999999998,-5.2681500000000003,-59.9176
215779.0,241.786,6361.8599999999997,6399.8800000000001,6438.9499999999998,-18.674199999999999,-20.458400000000001,-131.27799999999999
215780.0,123.295,1415.71,1484.3699999999999,1408.28,39.079900000000002,-11.574,-40.575099999999999
215781.0,142.89099999999999,1266.53,1348.1199999999999,1255.8399999999999,45.352600000000002,-14.3796,-44.658999999999999
215782.0,100.925,-344.20299999999997,-292.94799999999998,-346.63499999999999,32.777700000000003,-7.1273400000000002,-36.7545
215783.0,112.923,2549.5500000000002,2598.2800000000002,2559.3800000000001,23.536799999999999,-8.63504,-54.386200000000002
215784.0,153.97200000000001,1656.5699999999999,1713.3599999999999,1680.8800000000001,9.5380199999999995,-13.782400000000001,-82.520799999999994
215785.0,183.03399999999999,3146.7399999999998,3203.4899999999998,3184.98,-1.8008,-18.57,-99.907600000000002
215786.0,189.68000000000001,-2795.3499999999999,-2730.4099999999999,-2755.7800000000002,-4.9758800000000001,-19.916,-102.47199999999999
215787.0,230.15100000000001,4503.8500000000004,4549.7700000000004,4567.0,-14.970000000000001,-20.9147,-126.212
215788.0,256.76400000000001,6553.4399999999996,6581.6199999999999,6645.2700000000004,-21.7439,-19.561,-137.505
215789.0,275.37,7708.2600000000002,7727.4399999999996,7815.1999999999998,-25.667300000000001,-17.3005,-145.14500000000001
215790.0,288.62299999999999,8814.2099999999991,8826.0499999999993,8933.1499999999996,-28.651299999999999,-12.516400000000001,-149.99100000000001
215791.0,291.512,9776.1100000000006,9788.5400000000009,9899.7000000000007,-32.509099999999997,-8.5710099999999994,-150.21799999999999
215792.0,274.30399999999997,-9855.1499999999996,-9841.5100000000002,-9727.0799999999999,-32.397500000000001,-5.8761700000000001,-138.02199999999999
215793.0,190.47399999999999,10939.799999999999,10979.9,11032.799999999999,-22.184999999999999,-5.2836499999999997,-96.946100000000001
215794.0,81.754599999999996,9595.6000000000004,9671.7000000000007,9626.3299999999999,4.5839600000000003,-6.1155999999999997,-26.528400000000001
215795.0,84.829999999999998,8222.0699999999997,8307.1299999999992,8229.8199999999997,11.9039,-5.8873499999999996,-3.1926899999999998
215796.0,87.687600000000003,6703.9799999999996,6789.9099999999999,6705.1999999999998,10.1028,-5.8567299999999998,-0.038462499999999997
215797.0,85.496899999999997,5350.2799999999997,5434.4099999999999,5352.1800000000003,5.1991899999999998,-6.4042599999999998,-7.8208700000000002
215798.0,87.587299999999999,-4869.3000000000002,-4784.96,-4865.8000000000002,3.6824300000000001,-8.3833900000000003,-14.0198
215799.0,88.924899999999994,3264.4699999999998,3346.48,3264.21,2.2838500000000002,-7.6246499999999999,-17.985399999999998
215800.0,99.722899999999996,1578.5599999999999,1663.3299999999999,1572.0899999999999,3.6781199999999998,-10.346,-24.540400000000002
215801.0,98.091399999999993,831.70899999999995,912.88999999999999,826.22000000000003,3.81304,-10.301600000000001,-27.042000000000002
215802.0,91.323700000000002,189.221,262.78399999999999,187.13800000000001,3.2794400000000001,-8.9298199999999994,-28.8642
215803.0,49.319099999999999,55.560499999999998,12.583,59.964399999999998,-10.1488,-0.060995500000000001,-4.7480200000000004
215804.0,144.04499999999999,-198.19300000000001,-110.989,-204.029,47.735799999999998,-17.933199999999999,-40.002800000000001
215805.0,126.32299999999999,-2060.73,-1985.1400000000001,-2066.4899999999998,41.249099999999999,-11.425000000000001,-37.767699999999998
215806.0,104.705,-305.08300000000003,-246.50800000000001,-307.84399999999999,37.180900000000001,-7.2254300000000002,-31.931699999999999
215807.0,103.03100000000001,-1124.0899999999999,-1065.5,-1126.1400000000001,29.392900000000001,-7.2956799999999999,-37.887599999999999
215808.0,134.14400000000001,-2498.7399999999998,-2430.0100000000002,-2490.29,18.680299999999999,-12.91,-63.857999999999997
215809.0,164.64099999999999,-2453.02,-2382.1199999999999,-2426.4899999999998,3.0062500000000001,-16.598700000000001,-86.415800000000004
215810.0,211.84200000000001,-3155.1999999999998,-3096.3699999999999,-3102.3400000000001,-10.3863,-20.991199999999999,-115.595
215811.0,225.249,-5469.1099999999997,-5417.8800000000001,-5401.4399999999996,-16.422899999999998,-19.678100000000001,-122.514
215812.0,237.81899999999999,-6383.0299999999997,-6340.8599999999997,-6302.5600000000004,-18.549900000000001,-19.309100000000001,-128.51300000000001
215813.0,254.75,-6683.5100000000002,-6649.6199999999999,-6589.29,-21.367100000000001,-17.8781,-136.303
215814.0,271.05799999999999,-7865.3500000000004,-7841.2299999999996,-7757.0699999999997,-24.239899999999999,-14.176500000000001,-143.07599999999999
215815.0,286.04700000000003,-8882.1800000000003,-8863.9699999999993,-8760.9099999999999,-28.698699999999999,-10.445600000000001,-148.54300000000001
215816.0,221.90299999999999,-10639.6,-10622.5,-10521.299999999999,-27.499700000000001,-1.8970899999999999,-107.533
215817.0,150.15000000000001,-10783.200000000001,-10752.6,-10689.6,-15.769399999999999,-0.17965,-70.658799999999999
215818.0,82.700299999999999,-10206.5,-10158.700000000001,-10145.9,-2.3811599999999999,-0.35660700000000001,-35.419400000000003
215819.0,62.231299999999997,-9096.3099999999995,-9029.0,-9068.6399999999994,8.7093799999999995,-2.89913,-7.8767500000000004
215820.0,82.340800000000002,-7626.3999999999996,-7543.5600000000004,-7618.6300000000001,10.9506,-6.7807700000000004,-1.0669200000000001
215821.0,88.381799999999998,-6120.1300000000001,-6033.3299999999999,-6116.6999999999998,7.04237,-8.7234400000000001,-7.8757200000000003
215822.0,87.947999999999993,-3833.7600000000002,-3751.73,-3831.4000000000001,2.41432,-8.0425400000000007,-18.0961
215823.0,90.405900000000003,-2911.77,-2830.6300000000001,-2911.6399999999999,2.4140000000000001,-8.4350000000000005,-21.364699999999999
215824.0,94.634200000000007,-2072.9299999999998,-1991.22,-2075.6599999999999,3.05823,-9.3265999999999991,-24.222899999999999
215825.0,101.13,-1311.01,-1227.3199999999999,-1317.1900000000001,4.0297099999999997,-10.941700000000001,-27.4465
215826.0,99.685900000000004,-600.19299999999998,-520.46199999999999,-605.41600000000005,4.0685000000000002,-10.9367,-30.155799999999999
215827.0,128.34800000000001,1190.4400000000001,1321.3199999999999,1224.52,16.205100000000002,-22.264900000000001,-11.072699999999999
215828.0,131.91900000000001,1128.3699999999999,1211.7,1118.1500000000001,45.797499999999999,-11.109500000000001,-30.7668
215829.0,198.54400000000001,3594.0100000000002,3648.3099999999999,3640.9200000000001,-8.3815100000000005,-18.445,-108.91500000000001
215830.0,263.709,9923.1100000000006,9938.9899999999998,10036.1,-38.337699999999998,-1.5832299999999999,-134.053
215831.0,81.690200000000004,4506.6899999999996,4587.4099999999999,4512.21,-1.6043700000000001,-5.3879099999999998,-12.613
215832.0,94.1447,2629.8000000000002,2716.1300000000001,2627.5500000000002,0.348275,-8.0538100000000004,-18.404399999999999
215833.0,123.518,10192.6,10241.200000000001,10253.200000000001,-13.0396,-2.7446299999999999,-62.2727
215834.0,230.631,4331.5,4375.3800000000001,4404.54,-22.741299999999999,-16.943100000000001,-124.797
215835.0,115.066,-194.41499999999999,-125.238,-201.16399999999999,37.880600000000001,-8.9869000000000003,-33.641599999999997
215836.0,132.06800000000001,-487.80200000000002,-408.74799999999999,-496.94799999999998,43.966099999999997,-12.2942,-37.117400000000004
215837.0,96.2637,1814.3399999999999,1869.6900000000001,1814.77,33.082299999999996,-4.6830100000000003,-30.9682
215838.0,104.34,-638.44899999999996,-586.55399999999997,-628.37099999999998,22.676100000000002,-7.2850799999999998,-48.004399999999997
215839.0,143.136,1346.6400000000001,1402.5799999999999,1368.3699999999999,10.1015,-12.8926,-75.932900000000004
215840.0,174.977,1484.77,1542.3299999999999,1519.27,0.35427500000000001,-16.468299999999999,-95.369
215841.0,182.06,-2229.1900000000001,-2160.4499999999998,-2191.73,-3.3064499999999999,-17.884699999999999,-97.638599999999997
215842.0,217.20500000000001,4095.4200000000001,4145.3999999999996,4155.46,-15.774100000000001,-18.3324,-118.773
215843.0,240.05699999999999,6203.04,6238.2799999999997,6287.1899999999996,-27.724,-15.218299999999999,-128.154
215844.0,254.10900000000001,7076.0200000000004,7101.2399999999998,7173.3000000000002,-33.001800000000003,-12.297700000000001,-133.17099999999999
215845.0,264.255,7991.9799999999996,8007.9200000000001,8101.1000000000004,-35.361899999999999,-8.6021900000000002,-135.93600000000001
215846.0,279.11399999999998,9034.4500000000007,9045.2299999999996,9152.1499999999996,-39.156199999999998,-4.3346600000000004,-142.066
215847.0,270.59199999999998,-9113.8299999999999,-9101.1000000000004,-8995.2600000000002,-38.207000000000001,-1.3697999999999999,-136.77799999999999
215848.0,203.57400000000001,10383.4,10413.6,10475.1,-28.193899999999999,-1.96286,-104.08199999999999
215849.0,73.910899999999998,9371.3500000000004,9436.9099999999999,9403.3400000000001,-0.67749800000000004,-3.0098500000000001,-27.144500000000001
215850.0,69.9696,8070.5299999999997,8145.1899999999996,8085.96,4.5037399999999996,-2.7138100000000001,-7.1252500000000003
215851.0,73.938400000000001,6742.7200000000003,6820.6499999999996,6753.8900000000003,2.3321299999999998,-3.3868900000000002,-5.4376800000000003
215852.0,77.444599999999994,5572.1199999999999,5651.3699999999999,5580.9700000000003,-0.71290399999999998,-4.3868600000000004,-9.6725300000000001
215853.0,79.397900000000007,-5107.6400000000003,-5027.5900000000001,-5097.3000000000002,-1.36757,-5.5378600000000002,-13.1471
215854.0,87.026300000000006,3524.8099999999999,3607.8400000000001,3526.5300000000002,-1.0316399999999999,-6.3835300000000004,-15.206200000000001
215855.0,103.858,1768.8,1860.0,1761.8499999999999,2.5342699999999998,-10.8561,-21.700600000000001
215856.0,103.542,933.20000000000005,1021.95,926.00199999999995,3.7561100000000001,-11.1463,-24.071100000000001
215857.0,96.097099999999998,216.024,296.59699999999998,211.715,3.57464,-9.3360500000000002,-26.3125
215858.0,50.0961,68.641099999999994,25.3276,73.674599999999998,-10.2036,0.45869700000000002,-5.0738300000000001
215859.0,134.72499999999999,-502.529,-418.12900000000002,-507.685,48.034300000000002,-15.1839,-31.369700000000002
215860.0,118.08799999999999,963.01199999999994,1037.1700000000001,958.20600000000002,40.470199999999998,-9.7060200000000005,-30.925899999999999
215861.0,97.017499999999998,-1081.4300000000001,-1022.77,-1083.99,35.915599999999998,-4.7719800000000001,-25.010000000000002
215862.0,98.690600000000003,-351.61000000000001,-289.56400000000002,-351.25999999999999,28.9359,-6.6179500000000004,-33.006999999999998
215863.0,124.574,496.27600000000001,564.79300000000001,504.13499999999999,17.396000000000001,-12.5739,-57.499699999999997
215864.0,157.14400000000001,-864.75300000000004,-793.56299999999999,-841.31500000000005,5.9473500000000001,-15.8367,-81.418499999999995
215865.0,200.66300000000001,-3784.6199999999999,-3721.4299999999998,-3734.2399999999998,-10.8416,-18.277899999999999,-108.878
215866.0,215.08199999999999,-3508.6199999999999,-3451.29,-3444.5500000000002,-17.8233,-17.1251,-116.488
215867.0,226.03,-4627.4300000000003,-4579.1999999999998,-4551.21,-24.019100000000002,-15.3443,-121.37
215868.0,236.05699999999999,-6307.4899999999998,-6267.8599999999997,-6220.5500000000002,-27.907800000000002,-13.6236,-125.36
215869.0,247.83500000000001,-7096.6000000000004,-7067.9799999999996,-6997.3199999999997,-31.641100000000002,-9.7510600000000007,-129.48599999999999
215870.0,264.85500000000002,-8076.8500000000004,-8055.6999999999998,-7967.3699999999999,-34.503999999999998,-6.8406500000000001,-137.01400000000001
215871.0,234.43799999999999,-9935.8199999999997,-9926.4899999999998,-9821.6700000000001,-33.760899999999999,3.1878700000000002,-114.68600000000001
215872.0,158.21899999999999,-10244.299999999999,-10225.799999999999,-10152.700000000001,-20.0227,4.2151699999999996,-74.694999999999993
215873.0,82.75,-9870.9699999999993,-9831.0200000000004,-9811.2099999999991,-5.5611199999999998,2.58257,-36.308500000000002
215874.0,58.079000000000001,-8838.7299999999996,-8776.2399999999998,-8806.25,3.4192399999999998,-0.57889800000000002,-11.6486
215875.0,71.269000000000005,-7464.4899999999998,-7387.4700000000003,-7445.8199999999997,3.6230899999999999,-4.1206100000000001,-6.9878900000000002
215876.0,77.006100000000004,-6204.7799999999997,-6124.5,-6190.4799999999996,0.60192999999999997,-5.5351699999999999,-10.5586
215877.0,83.105699999999999,-4088.4200000000001,-4007.5100000000002,-4082.2800000000002,-1.36168,-5.9332500000000001,-15.3673
215878.0,88.499700000000004,-3164.96,-3082.1500000000001,-3162.8699999999999,-0.43078699999999998,-6.83629,-18.275300000000001
215879.0,95.165800000000004,-2308.9299999999998,-2223.4699999999998,-2311.0599999999999,1.27491,-8.5259300000000007,-21.159400000000002
215880.0,104.589,-1479.8099999999999,-1389.97,-1487.02,3.5734599999999999,-11.2148,-24.1633
215881.0,104.94799999999999,-689.21699999999998,-602.08000000000004,-696.53300000000002,4.2850000000000001,-11.567299999999999,-27.529900000000001
215882.0,125.324,-1710.9000000000001,-1581.53,-1672.6600000000001,22.415199999999999,-17.734300000000001,1.08589
215883.0,124.482,-986.68600000000004,-910.774,-998.69799999999998,47.763399999999997,-8.2674500000000002,-23.294
215884.0,186.874,2095.25,2154.5799999999999,2139.3000000000002,-13.524800000000001,-15.817600000000001,-101.28400000000001
215885.0,247.06899999999999,9092.75,9105.6599999999999,9196.9200000000001,-41.683199999999999,1.87052,-124.02500000000001
215886.0,80.6845,4951.7399999999998,5032.9700000000003,4960.6599999999999,-8.3434899999999992,-2.14472,-10.561299999999999
215887.0,97.845600000000005,2982.6300000000001,3075.1100000000001,2980.4699999999998,-1.1685399999999999,-7.8845099999999997,-14.439399999999999
215888.0,140.84999999999999,9696.6499999999996,9729.0599999999995,9758.6299999999992,-23.6234,3.72898,-71.274799999999999
215889.0,218.90600000000001,5340.8699999999999,5389.1199999999999,5408.4200000000001,-27.682600000000001,-13.6311,-117.51900000000001
215890.0,106.518,998.12900000000002,1063.97,992.10900000000004,37.742699999999999,-7.5597799999999999,-26.669899999999998
215891.0,123.532,974.57399999999996,1051.4300000000001,966.12199999999996,43.460500000000003,-10.328799999999999,-29.695599999999999
215892.0,88.637100000000004,-858.79999999999995,-809.17700000000002,-860.28300000000002,33.812100000000001,-4.3598699999999999,-24.708300000000001
215893.0,94.933999999999997,1941.3800000000001,1991.1800000000001,1949.8599999999999,22.803599999999999,-6.3427600000000002,-41.643999999999998
215894.0,131.245,955.09500000000003,1011.8,974.923,7.5335900000000002,-11.462300000000001,-68.742999999999995
215895.0,162.857,2368.0,2427.5300000000002,2399.54,-4.27827,-14.8027,-87.842299999999994
215896.0,171.161,-1992.99,-1921.5899999999999,-1958.1600000000001,-7.5799000000000003,-16.289899999999999,-90.375900000000001
215897.0,204.77799999999999,3567.2199999999998,3622.3400000000001,3623.0999999999999,-20.9878,-15.438000000000001,-110.78100000000001
215898.0,228.26599999999999,5457.4300000000003,5498.8199999999997,5535.4499999999998,-32.946100000000001,-11.291399999999999,-120.962
215899.0,241.60499999999999,6520.25,6552.3299999999999,6610.3199999999997,-39.352800000000002,-8.2033500000000004,-125.529
215900.0,244.24199999999999,7500.1599999999999,7522.5299999999997,7598.1000000000004,-42.058599999999998,-4.38809,-124.34999999999999
215901.0,256.27100000000002,8286.5699999999997,8301.9300000000003,8393.4500000000007,-44.6843,-1.27715,-128.66200000000001
215902.0,247.858,-8276.0,-8260.9400000000005,-8170.7700000000004,-41.110599999999998,2.1749000000000001,-124.678
215903.0,205.87100000000001,9682.8500000000004,9700.7800000000007,9768.7999999999993,-34.376800000000003,4.09931,-104.27200000000001
215904.0,83.564499999999995,9083.4400000000005,9133.1599999999999,9123.5900000000001,-13.765599999999999,2.4617399999999998,-37.897599999999997
215905.0,62.542999999999999,8137.9200000000001,8199.5799999999999,8163.75,-9.1450899999999997,1.7536,-16.066800000000001
215906.0,66.567999999999998,7053.0,7121.7799999999997,7071.8800000000001,-10.2287,0.80336600000000002,-10.4358
215907.0,73.6751,5973.0100000000002,6048.1099999999997,5986.8599999999997,-10.586399999999999,-0.385519,-10.0052
215908.0,75.645799999999994,-5494.8500000000004,-5417.3000000000002,-5479.6899999999996,-9.3536099999999998,-0.24934000000000001,-11.435600000000001
215909.0,88.057299999999998,3963.8299999999999,4050.3899999999999,3967.1799999999998,-4.6437999999999997,-4.6922300000000003,-11.682399999999999
215910.0,111.28100000000001,2030.45,2130.79,2021.95,2.4567600000000001,-11.8691,-17.798400000000001
215911.0,112.026,1080.8199999999999,1179.4400000000001,1071.0999999999999,4.6681600000000003,-12.652699999999999,-20.219799999999999
215912.0,102.926,237.64699999999999,326.745,230.71000000000001,4.5394500000000004,-10.496,-23.070699999999999
215913.0,50.770800000000001,57.999600000000001,14.329700000000001,63.388599999999997,-10.247299999999999,1.0605800000000001,-5.4110199999999997
215914.0,129.268,15.6126,98.246300000000005,10.8712,49.126100000000001,-12.380699999999999,-24.273299999999999
215915.0,109.977,-1718.98,-1647.1900000000001,-1723.1099999999999,40.058300000000003,-7.7869799999999998,-23.319900000000001
215916.0,90.393699999999995,137.41999999999999,192.541,133.97200000000001,35.620100000000001,-3.8317800000000002,-18.976500000000001
215917.0,91.153700000000001,-587.68799999999999,-529.88999999999999,-588.49400000000003,29.524100000000001,-6.7650600000000001,-26.887599999999999
215918.0,116.542,-1872.49,-1802.46,-1864.49,16.898599999999998,-12.121600000000001,-51.238999999999997
215919.0,146.881,-1724.71,-1652.5799999999999,-1703.1400000000001,2.7390099999999999,-15.129899999999999,-74.729200000000006
215920.0,189.78,-2286.1399999999999,-2218.5700000000002,-2238.7600000000002,-15.798,-15.956899999999999,-101.48
215921.0,203.66200000000001,-4500.6599999999999,-4439.8800000000001,-4441.5600000000004,-22.293600000000001,-14.644,-109.161
215922.0,215.32300000000001,-5334.6099999999997,-5281.6000000000004,-5263.8100000000004,-28.386600000000001,-12.178100000000001,-114.648
215923.0,225.04400000000001,-5573.5799999999999,-5527.7799999999997,-5492.8100000000004,-33.7117,-9.9400700000000004,-118.346
215924.0,232.874,-6653.1099999999997,-6619.8100000000004,-6561.3599999999997,-38.123199999999997,-5.5037099999999999,-120.148
215925.0,242.79499999999999,-7509.3100000000004,-7482.96,-7410.8699999999999,-41.313899999999997,-2.6481499999999998,-123.852
215926.0,226.04400000000001,-9111.6499999999996,-9104.8099999999995,-9010.1700000000001,-36.3369,6.8907699999999998,-111.56699999999999
215927.0,171.209,-9576.4599999999991,-9566.0100000000002,-9489.7199999999993,-27.575099999999999,9.1211000000000002,-81.762699999999995
215928.0,104.476,-9358.4200000000001,-9330.6100000000006,-9292.2800000000007,-15.9085,7.1027800000000001,-47.243699999999997
215929.0,62.752699999999997,-8622.2000000000007,-8572.7099999999991,-8577.4300000000003,-8.6585099999999997,3.91194,-21.8232
215930.0,63.172899999999998,-7608.21,-7542.8000000000002,-7578.1999999999998,-8.8124400000000005,1.2785599999999999,-13.378299999999999
215931.0,69.863799999999998,-6529.21,-6456.7200000000003,-6507.6000000000004,-10.2927,0.482792,-11.6441
215932.0,81.1798,-4526.2200000000003,-4444.5699999999997,-4517.3400000000001,-6.2749899999999998,-1.9801,-12.0893
215933.0,88.686899999999994,-3569.8200000000002,-3483.8800000000001,-3567.0799999999999,-2.9889199999999998,-4.6641899999999996,-14.3248
215934.0,98.378600000000006,-2634.2199999999998,-2543.04,-2637.4499999999998,0.46629300000000001,-7.8117999999999999,-17.0793
215935.0,111.535,-1721.26,-1622.8099999999999,-1731.02,4.0342399999999996,-11.883900000000001,-20.157699999999998
215936.0,113.11799999999999,-806.00199999999995,-709.36099999999999,-816.21199999999999,5.1681600000000003,-13.023400000000001,-24.332799999999999
215937.0,126.45399999999999,1448.1099999999999,1573.9100000000001,1489.8399999999999,29.573,-13.241300000000001,13.2102
215938.0,118.73099999999999,990.34199999999998,1060.6700000000001,976.49699999999996,48.709499999999998,-4.6376400000000002,-16.363700000000001
215939.0,176.53299999999999,2752.7399999999998,2817.77,2794.5300000000002,-16.342600000000001,-13.4922,-94.088700000000003
215940.0,221.48099999999999,8423.8500000000004,8436.8700000000008,8513.2900000000009,-45.450499999999998,6.09382,-109.149
215941.0,89.513599999999997,5761.9700000000003,5852.3999999999996,5775.25,-14.3087,0.430261,-9.0346200000000003
215942.0,109.226,3494.9200000000001,3600.3699999999999,3492.0100000000002,0.206428,-8.3970599999999997,-9.7120800000000003
215943.0,171.89099999999999,9078.6299999999992,9097.8899999999994,9148.4500000000007,-40.840400000000002,13.266,-81.883200000000002
215944.0,209.625,3356.8499999999999,3412.6100000000001,3420.48,-32.260599999999997,-10.364599999999999,-110.88800000000001
215945.0,98.067999999999998,-609.428,-543.46799999999996,-612.375,37.186900000000001,-5.6775700000000002,-16.514600000000002
215946.0,118.09399999999999,-763.12199999999996,-687.08399999999995,-771.21299999999997,43.735700000000001,-8.7058999999999997,-22.493200000000002
215947.0,80.1464,1287.4100000000001,1338.46,1287.6900000000001,31.599799999999998,-1.8196399999999999,-16.593299999999999
215948.0,86.361500000000007,-1259.0999999999999,-1207.6199999999999,-1251.3900000000001,20.284300000000002,-4.7989100000000002,-35.788499999999999
215949.0,120.895,649.101,709.44899999999996,667.89999999999998,5.0673199999999996,-9.9430800000000001,-61.593499999999999
215950.0,152.31899999999999,715.18600000000004,780.45100000000002,746.02300000000002,-6.7895300000000001,-12.9033,-80.343999999999994
215951.0,161.96799999999999,-1466.8399999999999,-1390.3299999999999,-1433.52,-10.0242,-14.5221,-83.436499999999995
215952.0,194.761,3181.5999999999999,3243.3899999999999,3234.2800000000002,-24.740500000000001,-12.5016,-103.745
215953.0,218.584,5183.5600000000004,5232.4200000000001,5256.1999999999998,-37.4223,-7.8940000000000001,-114.42
215954.0,231.57300000000001,6005.25,6044.1999999999998,6087.9700000000003,-43.855699999999999,-4.2833300000000003,-119.251
215955.0,232.07499999999999,6839.8299999999999,6868.9499999999998,6928.9899999999998,-46.1935,-0.26883400000000002,-117.27
215956.0,237.48599999999999,7746.75,7768.6700000000001,7840.4499999999998,-48.6462,1.9401999999999999,-118.43899999999999
215957.0,222.149,-7751.0299999999997,-7733.4799999999996,-7659.4399999999996,-43.1875,5.9709599999999998,-110.392
215958.0,201.83500000000001,8827.7700000000004,8839.2600000000002,8909.8600000000006,-43.082999999999998,10.7712,-98.138199999999998
215959.0,126.497,9047.8099999999995,9081.1499999999996,9100.8400000000001,-35.232300000000002,12.6396,-56.694899999999997
215960.0,89.226299999999995,8501.2000000000007,8548.1499999999996,8539.3400000000001,-29.015499999999999,11.450100000000001,-32.524299999999997
215961.0,80.269499999999994,7694.0799999999999,7752.96,7722.6800000000003,-27.254000000000001,10.1578,-20.849
215962.0,83.381,6789.6899999999996,6864.7399999999998,6812.0200000000004,-23.686299999999999,5.8776299999999999,-15.3887
215963.0,77.435699999999997,-6335.4300000000003,-6259.29,-6312.1499999999996,-17.683399999999999,6.8186099999999996,-10.825699999999999
215964.0,98.062200000000004,4629.8100000000004,4728.3500000000004,4633.0799999999999,-5.1054199999999996,-3.5855199999999998,-5.7924199999999999
215965.0,124.31699999999999,2355.5900000000001,2469.7399999999998,2346.1100000000001,5.3806799999999999,-14.275700000000001,-13.580299999999999
215966.0,123.003,1229.1700000000001,1339.24,1217.76,7.5650700000000004,-15.026400000000001,-16.131599999999999
215967.0,110.25,269.59699999999998,367.38200000000001,261.66800000000001,5.7143699999999997,-12.025399999999999,-20.1922
215968.0,51.531799999999997,71.865200000000002,27.624400000000001,77.3018,-10.293200000000001,1.7256899999999999,-5.8145499999999997
215969.0,126.146,-289.11099999999999,-207.631,-294.358,49.903599999999997,-9.6441199999999991,-18.8733
215970.0,104.28100000000001,1301.52,1371.0899999999999,1298.47,41.036200000000001,-5.37941,-14.984
215971.0,86.822100000000006,-608.36800000000005,-550.44299999999998,-609.81600000000003,35.618699999999997,-1.6968799999999999,-9.6979900000000008
215972.0,87.214799999999997,218.376,280.58600000000001,218.702,27.902699999999999,-5.3118999999999996,-21.104700000000001
215973.0,109.72,1132.4100000000001,1204.5699999999999,1141.29,15.261100000000001,-11.4314,-45.835099999999997
215974.0,137.70599999999999,-166.036,-89.234700000000004,-144.42500000000001,0.26638299999999998,-13.8262,-67.536199999999994
215975.0,180.50899999999999,-2950.2199999999998,-2877.29,-2905.5,-18.7636,-13.841100000000001,-94.683899999999994
215976.0,194.977,-2605.3600000000001,-2538.0100000000002,-2549.71,-26.309100000000001,-12.038600000000001,-102.664
215977.0,206.703,-3665.3400000000001,-3606.4400000000001,-3599.1799999999998,-32.8386,-9.3011700000000008,-108.446
215978.0,215.99799999999999,-5300.9099999999999,-5248.8800000000001,-5226.0900000000001,-37.711500000000001,-6.8176199999999998,-112.30500000000001
215979.0,222.20500000000001,-6025.8199999999997,-5987.2299999999996,-5941.4799999999996,-42.103299999999997,-1.8878900000000001,-113.57599999999999
215980.0,229.846,-6903.3699999999999,-6872.1000000000004,-6813.5900000000001,-45.357900000000001,0.95000499999999999,-116.08
215981.0,206.62700000000001,-8293.4300000000003,-8281.3600000000006,-8205.4400000000005,-40.665900000000001,10.459899999999999,-100.95999999999999
215982.0,185.91300000000001,-8640.9799999999996,-8627.9899999999998,-8556.8999999999996,-38.915199999999999,14.2643,-88.061300000000003
215983.0,147.11699999999999,-8907.6800000000003,-8889.5100000000002,-8833.2299999999996,-34.9619,15.9879,-65.037800000000004
215984.0,101.125,-8728.5,-8696.1499999999996,-8669.6200000000008,-28.356400000000001,14.252700000000001,-39.140900000000002
215985.0,80.546599999999998,-8050.6999999999998,-8000.4300000000003,-8006.1400000000003,-25.598500000000001,11.2767,-24.9529
215986.0,78.843100000000007,-7224.7600000000002,-7160.9300000000003,-7190.5600000000004,-24.988600000000002,9.8226999999999993,-18.191299999999998
215987.0,85.756699999999995,-5306.3999999999996,-5218.29,-5296.8599999999997,-8.2627400000000009,1.9990000000000001,-6.4061700000000004
215988.0,97.914400000000001,-4193.8699999999999,-4097.7799999999997,-4194.1599999999999,-3.08616,-2.8944999999999999,-9.5075599999999998
215989.0,108.589,-3101.1700000000001,-2999.0900000000001,-3107.2800000000002,2.3506200000000002,-8.1638099999999998,-12.821400000000001
215990.0,123.63200000000001,-2003.79,-1893.3299999999999,-2016.3599999999999,6.8755100000000002,-14.175800000000001,-16.243200000000002
215991.0,123.773,-931.06799999999998,-823.49599999999998,-943.64300000000003,6.3413300000000001,-15.3056,-21.7087
215992.0,130.376,-1443.04,-1322.8299999999999,-1404.8599999999999,34.831099999999999,-6.3323600000000004,25.292200000000001
215993.0,115.532,-1140.5999999999999,-1073.3599999999999,-1149.0899999999999,51.280700000000003,-3.6608299999999998,-9.2095500000000001
215994.0,166.471,1277.02,1347.6300000000001,1316.78,-19.023599999999998,-11.473100000000001,-86.548400000000001
215995.0,215.19800000000001,7802.6700000000001,7818.5299999999997,7882.3900000000003,-53.7301,13.1221,-102.93899999999999
215996.0,97.432299999999998,6887.8599999999997,6986.8299999999999,6905.1800000000003,-14.919,1.05718,-12.1335
215997.0,127.807,4052.4099999999999,4175.8900000000003,4050.0300000000002,8.3774999999999995,-13.4171,-3.5215399999999999
215998.0,200.149,8778.5900000000001,8790.0699999999997,8853.2600000000002,-58.572400000000002,22.2941,-88.367400000000004
215999.0,200.16499999999999,4398.3699999999999,4461.2399999999998,4457.9499999999998,-34.655000000000001,-7.8285200000000001,-104.119
216000.0,100.419,588.38699999999994,648.476,581.37800000000004,43.182299999999998,-2.9674100000000001,-11.291
216001.0,115.726,773.423,844.96000000000004,763.90099999999995,46.549500000000002,-7.2503900000000003,-16.781600000000001
216002.0,83.561800000000005,-1448.5599999999999,-1398.51,-1448.49,36.407600000000002,0.52789900000000001,-12.9628
216003.0,82.7209,1340.22,1393.1400000000001,1348.3299999999999,21.1401,-4.0803700000000003,-31.7026
216004.0,112.24299999999999,314.50700000000001,377.47899999999998,332.68799999999999,4.48515,-9.1816099999999992,-55.178899999999999
216005.0,142.029,1634.4000000000001,1703.6900000000001,1663.5599999999999,-8.4053500000000003,-11.1434,-72.929199999999994
216006.0,152.923,-1254.9200000000001,-1173.97,-1222.98,-12.2011,-13.143599999999999,-76.230699999999999
216007.0,185.03899999999999,2681.5999999999999,2749.9899999999998,2731.46,-27.3813,-10.253299999999999,-96.473699999999994
216008.0,209.03399999999999,4461.0200000000004,4517.3999999999996,4528.4300000000003,-39.645499999999998,-5.0200899999999997,-107.98399999999999
216009.0,222.721,5470.4499999999998,5516.9499999999998,5546.8699999999999,-46.670000000000002,-0.840723,-113.45999999999999
216010.0,223.036,6407.3199999999997,6442.9899999999998,6488.54,-49.2258,3.2597999999999998,-111.762
216011.0,226.76400000000001,7133.4399999999996,7159.7600000000002,7215.3000000000002,-53.640900000000002,7.2724900000000003,-111.643
216012.0,211.35400000000001,-7098.3999999999996,-7075.3000000000002,-7016.3500000000004,-48.501600000000003,10.636100000000001,-103.123
216013.0,210.13999999999999,8382.2399999999998,8393.0599999999995,8461.1499999999996,-56.341000000000001,17.877400000000002,-96.931100000000001
216014.0,175.50899999999999,8939.8899999999994,8961.0400000000009,9005.4699999999993,-56.507599999999996,24.487400000000001,-73.176400000000001
216015.0,141.53700000000001,8890.9899999999998,8925.6299999999992,8945.8700000000008,-49.7744,24.112400000000001,-53.371299999999998
216016.0,117.06,8523.9599999999991,8574.7000000000007,8569.8899999999994,-42.678699999999999,20.812999999999999,-39.094700000000003
216017.0,100.11799999999999,7887.04,7960.71,7920.4099999999999,-32.420200000000001,12.318199999999999,-27.878900000000002
216018.0,76.814400000000006,-7542.3699999999999,-7475.9700000000003,-7511.5200000000004,-21.605899999999998,13.385300000000001,-14.727499999999999
216019.0,113.09999999999999,5516.1499999999996,5631.0799999999999,5521.4899999999998,1.3452,-7.2630699999999999,-1.1284000000000001
216020.0,140.56999999999999,2665.8899999999999,2795.1700000000001,2655.8600000000001,11.914300000000001,-18.554099999999998,-7.9784899999999999
216021.0,132.59899999999999,1345.51,1465.8199999999999,1334.8299999999999,10.914099999999999,-17.306899999999999,-12.287699999999999
216022.0,114.682,274.39699999999999,378.76799999999997,268.39299999999997,5.71305,-12.599299999999999,-18.454599999999999
216023.0,52.648400000000002,60.3247,15.1297,65.596900000000005,-10.4185,2.5160499999999999,-6.28674
216024.0,125.036,174.49700000000001,255.297,172.43199999999999,52.283999999999999,-8.2356999999999996,-13.2897
216025.0,103.818,-1435.9000000000001,-1371.79,-1440.9200000000001,44.9039,-3.1463800000000002,-8.9946999999999999
216026.0,94.598399999999998,697.77200000000005,755.20000000000005,695.024,42.467399999999998,0.59412900000000002,-4.9677499999999997
216027.0,90.353800000000007,51.829900000000002,117.709,53.5107,30.9542,-4.2476500000000001,-18.2849
216028.0,104.255,-1287.1800000000001,-1212.6700000000001,-1277.5899999999999,14.176399999999999,-10.5786,-40.8322
216029.0,129.41200000000001,-1076.74,-996.78700000000003,-1055.75,-0.52815100000000004,-12.700100000000001,-60.848199999999999
216030.0,171.78999999999999,-1474.22,-1395.47,-1431.72,-21.364899999999999,-11.966100000000001,-87.658600000000007
216031.0,186.43700000000001,-3629.9000000000001,-3556.21,-3577.6300000000001,-28.661899999999999,-9.9065600000000007,-96.072100000000006
216032.0,198.06,-4411.3199999999997,-4345.4200000000001,-4349.6499999999996,-34.9071,-6.7763299999999997,-102.23
216033.0,207.316,-4594.9799999999996,-4535.8800000000001,-4525.8199999999997,-39.854100000000003,-4.1375999999999999,-106.419
216034.0,213.92099999999999,-5620.6199999999999,-5575.5900000000001,-5543.1899999999996,-44.650300000000001,1.2584500000000001,-108.38200000000001
216035.0,219.41499999999999,-6433.9399999999996,-6398.1000000000004,-6352.6499999999996,-47.901600000000002,4.4573099999999997,-109.88
216036.0,206.95400000000001,-7735.8699999999999,-7717.2799999999997,-7653.1700000000001,-50.4739,15.180899999999999,-98.061000000000007
216037.0,201.50800000000001,-8248.6000000000004,-8233.0900000000001,-8165.5500000000002,-52.810200000000002,20.055099999999999,-91.621300000000005
216038.0,185.791,-8550.7600000000002,-8534.2900000000009,-8471.0499999999993,-53.500799999999998,25.2958,-78.9512
216039.0,154.964,-8707.7600000000002,-8683.8099999999995,-8636.3500000000004,-48.957099999999997,27.273199999999999,-59.525599999999997
216040.0,126.916,-8606.9699999999993,-8570.0,-8545.9599999999991,-43.3872,25.023199999999999,-43.7761
216041.0,104.01900000000001,-8195.0599999999995,-8145.3199999999997,-8145.8500000000004,-36.433399999999999,20.849699999999999,-32.074599999999997
216042.0,85.963399999999993,-6463.5900000000001,-6373.0100000000002,-6452.3900000000003,-4.1397599999999999,2.3821500000000002,-1.33066
216043.0,110.20999999999999,-5029.9099999999999,-4921.2799999999997,-5030.9399999999996,4.6567800000000004,-6.8815099999999996,-2.9191099999999999
216044.0,125.694,-3623.71,-3506.6799999999998,-3633.0599999999999,9.2378400000000003,-13.033899999999999,-7.2027900000000002
216045.0,139.411,-2284.5100000000002,-2159.8299999999999,-2299.1500000000001,10.7652,-18.4621,-12.654
216046.0,133.45500000000001,-1011.5,-893.15599999999995,-1022.97,6.6762800000000002,-17.719100000000001,-20.336400000000001
216047.0,138.73500000000001,1702.1500000000001,1816.4400000000001,1734.0999999999999,41.400300000000001,0.33965299999999998,34.995199999999997
216048.0,112.965,844.67399999999998,907.65999999999997,841.29899999999998,53.361199999999997,-3.0345399999999998,0.079807500000000003
216049.0,156.68799999999999,1972.95,2049.3400000000001,2010.9400000000001,-21.075199999999999,-9.7572200000000002,-78.647900000000007
216050.0,227.66200000000001,7347.3100000000004,7363.0600000000004,7422.7299999999996,-65.636700000000005,20.420400000000001,-104.733
216051.0,101.664,7716.0500000000002,7819.6400000000003,7736.96,-13.4802,1.9798100000000001,-16.103899999999999
216052.0,147.166,4535.8999999999996,4674.1099999999997,4531.1499999999996,16.317499999999999,-18.480799999999999,4.2172900000000002
216053.0,240.25,8739.6399999999994,8743.7399999999998,8815.3299999999999,-81.415599999999998,32.6509,-98.659999999999997
216054.0,189.34700000000001,2414.0,2484.04,2469.25,-36.450299999999999,-5.64405,-96.059100000000001
216055.0,97.228499999999997,-1002.71,-955.29300000000001,-1014.91,45.358699999999999,-3.6544599999999998,-9.4136799999999994
216056.0,110.39100000000001,-1039.5599999999999,-976.75800000000004,-1050.02,48.483499999999999,-5.56447,-10.504799999999999
216057.0,81.364800000000002,804.21100000000001,845.20100000000002,800.92999999999995,38.720100000000002,-1.35514,-9.8581599999999998
216058.0,74.626800000000003,-1821.8299999999999,-1771.3800000000001,-1814.51,21.6431,-3.8568199999999999,-25.095800000000001
216059.0,103.379,16.501100000000001,81.899000000000001,35.367899999999999,3.11626,-8.2788799999999991,-48.488999999999997
216060.0,133.11799999999999,11.2788,84.863900000000001,39.585099999999997,-10.4215,-9.8478300000000001,-65.753200000000007
216061.0,145.285,-764.49099999999999,-677.75699999999995,-733.07500000000005,-14.149699999999999,-11.530200000000001,-69.097399999999993
216062.0,174.51400000000001,2320.79,2395.6599999999999,2367.5700000000002,-29.280200000000001,-8.2895199999999996,-88.290099999999995
216063.0,198.41,4162.0900000000001,4226.0299999999997,4224.1700000000001,-41.481699999999996,-2.6173099999999998,-100.351
216064.0,212.197,4915.8900000000003,4969.4799999999996,4985.4499999999998,-48.533499999999997,1.8292999999999999,-106.408
216065.0,214.29300000000001,5701.0100000000002,5741.9099999999999,5773.5299999999997,-52.210599999999999,7.1066599999999998,-105.871
216066.0,225.15100000000001,6579.0,6608.4499999999998,6654.0299999999997,-59.932600000000001,13.1107,-108.19
216067.0,216.13999999999999,-6610.6499999999996,-6580.5900000000001,-6533.2299999999996,-56.433999999999997,15.262499999999999,-103.108
216068.0,237.071,8043.4399999999996,8048.8599999999997,8118.2299999999996,-75.159599999999998,27.539300000000001,-102.895
216069.0,220.958,9322.7399999999998,9335.0300000000007,9395.6100000000006,-77.991799999999998,34.2986,-86.5642
216070.0,182.751,9512.0900000000001,9538.9500000000007,9577.3500000000004,-66.277299999999997,32.071899999999999,-68.085800000000006
216071.0,142.56,9336.4099999999999,9383.3199999999997,9391.7299999999996,-51.397300000000001,25.516400000000001,-50.923699999999997
216072.0,107.898,8755.8799999999992,8828.2999999999993,8794.9899999999998,-33.957299999999996,15.528499999999999,-34.241700000000002
216073.0,78.533199999999994,-8454.5300000000007,-8394.0499999999993,-8423.1700000000001,-21.997599999999998,17.3443,-18.872800000000002
216074.0,126.46899999999999,6243.3599999999997,6370.6700000000001,6248.9700000000003,6.5274599999999996,-10.664,0.30582999999999999
216075.0,153.86600000000001,2844.7600000000002,2985.79,2835.1300000000001,17.166499999999999,-21.9755,-0.86001099999999997
216076.0,137.631,1373.74,1501.24,1366.26,12.009,-18.448599999999999,-8.5994799999999998
216077.0,115.77500000000001,279.358,387.76799999999997,276.68000000000001,4.5132099999999999,-12.2662,-16.747199999999999
216078.0,53.792900000000003,73.527699999999996,27.2271,78.292199999999994,-10.6089,3.29175,-6.7446599999999997
216079.0,124.81399999999999,-67.461299999999994,10.8217,-66.293499999999995,55.896500000000003,-5.76159,-4.7421899999999999
216080.0,101.996,1640.54,1697.3800000000001,1632.53,46.743000000000002,-2.9212600000000002,-4.9177299999999997
216081.0,91.384699999999995,-173.518,-127.13200000000001,-178.916,44.238100000000003,-1.5427299999999999,-3.7360500000000001
216082.0,85.394400000000005,726.87400000000002,786.02599999999995,727.846,32.816000000000003,-5.24099,-13.376099999999999
216083.0,97.018299999999996,1705.4300000000001,1781.95,1715.45,13.187099999999999,-10.052099999999999,-33.658000000000001
216084.0,122.84999999999999,469.94299999999998,553.89800000000002,491.25200000000001,-2.0139499999999999,-11.660399999999999,-54.645699999999998
216085.0,162.99700000000001,-2173.71,-2088.8699999999999,-2133.27,-23.278500000000001,-10.157,-80.063500000000005
216086.0,177.03,-1749.26,-1668.74,-1700.45,-30.4251,-7.9122599999999998,-88.391300000000001
216087.0,188.239,-2729.4899999999998,-2656.4000000000001,-2672.5999999999999,-36.550800000000002,-4.6573700000000002,-94.763099999999994
216088.0,197.637,-4292.1300000000001,-4225.3699999999999,-4228.7600000000002,-41.447800000000001,-1.73983,-99.424199999999999
216089.0,204.029,-4954.3400000000001,-4902.1599999999999,-4884.3199999999997,-45.903599999999997,3.9974500000000002,-102.122
216090.0,212.25800000000001,-5782.6899999999996,-5739.2600000000002,-5708.7700000000004,-51.2806,8.2072800000000008,-104.599
216091.0,225.17500000000001,-7300.5100000000002,-7279.6400000000003,-7220.1800000000003,-64.557500000000005,21.311199999999999,-102.675
216092.0,234.185,-7977.3100000000004,-7964.0,-7894.6400000000003,-73.799000000000007,28.464400000000001,-100.27
216093.0,227.38399999999999,-8711.7299999999996,-8703.0799999999999,-8628.6299999999992,-75.232699999999994,34.738500000000002,-90.995800000000003
216094.0,198.53700000000001,-9215.8600000000006,-9204.7800000000007,-9139.7199999999993,-68.083200000000005,37.314500000000002,-73.614900000000006
216095.0,160.40600000000001,-9326.1299999999992,-9304.1299999999992,-9261.7099999999991,-56.695099999999996,34.481200000000001,-55.6905
216096.0,117.31,-9101.3600000000006,-9063.5,-9051.3500000000004,-40.918900000000001,27.560700000000001,-38.380200000000002
216097.0,84.635000000000005,-7342.5,-7252.5,-7330.0699999999997,-0.50562799999999997,2.9158499999999998,-0.32374799999999998
216098.0,121.60599999999999,-5795.0,-5678.1199999999999,-5796.6800000000003,12.746700000000001,-11.0494,4.9656900000000004
216099.0,143.87899999999999,-4055.1999999999998,-3923.04,-4064.98,15.7529,-19.1647,0.011311999999999999
216100.0,152.137,-2414.5,-2276.1300000000001,-2425.8800000000001,12.807700000000001,-22.741199999999999,-9.1704500000000007
216101.0,138.596,-1043.3099999999999,-916.67399999999998,-1050.1800000000001,5.7505499999999996,-19.198699999999999,-18.706299999999999
216102.0,150.68299999999999,-1409.28,-1300.79,-1377.9300000000001,52.558500000000002,4.5152900000000002,40.849299999999999
216103.0,116.128,-1218.24,-1166.95,-1229.2,57.894500000000001,-1.0643400000000001,6.1525299999999996
216104.0,146.60300000000001,552.28899999999999,634.08600000000001,588.78499999999997,-23.3078,-8.2603200000000001,-69.8108
216105.0,246.577,6923.6800000000003,6937.1700000000001,6993.8299999999999,-81.092699999999994,28.411300000000001,-107.22799999999999
216106.0,104.73399999999999,8137.96,8247.8400000000001,8160.1400000000003,-8.9141999999999992,0.22550000000000001,-14.154500000000001
216107.0,155.78399999999999,4658.9899999999998,4803.96,4655.7299999999996,21.058599999999998,-19.939699999999998,9.0673899999999996
216108.0,288.37099999999998,9000.4899999999998,8998.1700000000001,9077.0200000000004,-105.86499999999999,42.775500000000001,-112.55500000000001
216109.0,177.82599999999999,3479.98,3556.77,3530.6799999999998,-38.509599999999999,-3.8218700000000001,-86.709599999999995
216110.0,86.068899999999999,217.41300000000001,266.66699999999997,210.31,39.017699999999998,-1.9899800000000001,-0.92584599999999995
216111.0,105.646,424.19499999999999,484.91399999999999,417.036,48.176900000000003,-2.80694,-0.75585500000000005
216112.0,70.981099999999998,-1815.1900000000001,-1774.8299999999999,-1818.6900000000001,32.759399999999999,-2.1366200000000002,-2.7418
216113.0,65.343100000000007,856.21400000000006,907.03999999999996,863.17899999999997,19.174499999999998,-3.4049900000000002,-16.873999999999999
216114.0,93.613900000000001,-270.78699999999998,-202.22999999999999,-251.34,0.031623199999999997,-7.0505199999999997,-40.288400000000003
216115.0,123.602,988.14999999999998,1065.8900000000001,1016.55,-13.3329,-8.8861600000000003,-57.343800000000002
216116.0,137.08600000000001,-607.721,-516.06399999999996,-576.87599999999998,-16.6083,-10.0893,-60.9223
216117.0,163.79599999999999,1864.1600000000001,1945.3900000000001,1907.97,-31.309699999999999,-6.55992,-79.163600000000002
216118.0,187.148,3443.1799999999998,3513.71,3499.3000000000002,-43.987900000000003,-0.54785200000000001,-91.384399999999999
216119.0,201.56299999999999,4366.1300000000001,4425.79,4427.8199999999997,-52.320900000000002,4.5677000000000003,-97.755300000000005
216120.0,208.75299999999999,5244.0600000000004,5290.1400000000003,5309.2600000000002,-58.415799999999997,11.1286,-99.329599999999999
216121.0,229.13900000000001,6017.6999999999998,6049.7700000000004,6086.6199999999999,-70.029499999999999,18.6843,-105.161
216122.0,225.18299999999999,-6069.0600000000004,-6034.4200000000001,-5997.7200000000003,-68.195499999999996,20.158000000000001,-102.824
216123.0,274.70699999999999,7944.6199999999999,7943.9700000000003,8018.6099999999997,-96.273300000000006,37.887300000000003,-112.292
216124.0,259.15499999999997,9834.3500000000004,9840.9799999999996,9905.7399999999998,-98.096699999999998,41.939700000000002,-97.207300000000004
216125.0,204.024,10244.0,10266.6,10304.6,-78.463999999999999,36.585799999999999,-73.772400000000005
216126.0,149.89699999999999,10067.9,10114.200000000001,10116.799999999999,-56.732900000000001,27.217500000000001,-52.666600000000003
216127.0,107.08199999999999,9336.5400000000009,9412.6800000000003,9373.5200000000004,-32.911299999999997,14.9468,-32.650500000000001
216128.0,76.058899999999994,-8985.3700000000008,-8921.9200000000001,-8957.1700000000001,-18.392399999999999,16.939,-17.1081
216129.0,135.102,6511.1800000000003,6645.7299999999996,6517.3599999999997,12.2113,-12.484999999999999,3.02827
216130.0,157.958,2915.8200000000002,3062.3299999999999,2910.3200000000002,18.531300000000002,-22.922699999999999,3.7633200000000002
216131.0,138.81100000000001,1411.1099999999999,1542.6400000000001,1407.76,11.3116,-18.8764,-4.6350100000000003
216132.0,115.818,279.41000000000003,390.71899999999999,279.5,3.4264600000000001,-12.4224,-13.3672
216133.0,54.889899999999997,62.706699999999998,15.201700000000001,66.578000000000003,-10.8216,4.0189000000000004,-7.2458299999999998
216134.0,127.506,417.50700000000001,489.48399999999998,414.30399999999997,59.994799999999998,-1.9297800000000001,3.0004599999999999
216135.0,100.756,-1049.3199999999999,-989.41200000000003,-1053.54,45.619100000000003,-1.0661099999999999,3.8914200000000001
216136.0,81.608999999999995,992.09699999999998,1039.77,988.52999999999997,37.347499999999997,-1.68587,1.9940899999999999
216137.0,76.378500000000003,391.36500000000001,448.245,393.94499999999999,29.029,-5.5403099999999998,-6.2800599999999998
216138.0,90.968100000000007,-775.596,-695.48099999999999,-763.31500000000005,11.733599999999999,-9.4596900000000002,-25.873200000000001
216139.0,115.435,-492.68599999999998,-404.303,-470.20299999999997,-5.2138099999999996,-10.623799999999999,-46.8155
216140.0,154.19300000000001,-745.35500000000002,-654.423,-706.91600000000005,-25.332699999999999,-8.46007,-71.611699999999999
216141.0,167.32900000000001,-2808.4699999999998,-2721.29,-2763.0700000000002,-32.415999999999997,-6.1425900000000002,-79.646000000000001
216142.0,177.917,-3491.9000000000001,-3411.4099999999999,-3439.9299999999998,-38.560699999999997,-2.7841999999999998,-85.973500000000001
216143.0,187.47300000000001,-3580.52,-3506.3200000000002,-3523.2399999999998,-43.979300000000002,0.40248400000000001,-90.935100000000006
216144.0,195.24600000000001,-4525.8000000000002,-4465.6400000000003,-4463.1000000000004,-50.100200000000001,6.6792999999999996,-94.302599999999998
216145.0,210.25999999999999,-5302.3599999999997,-5251.1999999999998,-5234.9300000000003,-58.702300000000001,11.869,-99.555800000000005
216146.0,250.886,-7009.8999999999996,-6988.5900000000001,-6934.04,-82.916399999999996,28.4131,-108.482
216147.0,278.19400000000002,-8049.3299999999999,-8042.6800000000003,-7968.1499999999996,-98.0351,37.645800000000001,-112.861
216148.0,270.70800000000003,-9090.1100000000006,-9096.5300000000007,-9010.6700000000001,-98.595299999999995,44.816899999999997,-102.033
216149.0,227.13399999999999,-9871.6499999999996,-9876.9599999999991,-9802.6499999999996,-84.227800000000002,45.144599999999997,-79.660300000000007
216150.0,172.96799999999999,-10131.6,-10121.200000000001,-10075.9,-65.004999999999995,39.148499999999999,-57.754899999999999
216151.0,116.41200000000001,-9814.0499999999993,-9780.0699999999997,-9771.8700000000008,-42.542499999999997,29.5703,-36.509799999999998
216152.0,91.732200000000006,-7715.46,-7618.96,-7703.5900000000001,5.5136099999999999,1.6892,1.57118
216153.0,132.68700000000001,-6004.5699999999997,-5878.5799999999999,-6004.6899999999996,18.213999999999999,-12.6815,8.9115599999999997
216154.0,152.15799999999999,-4156.7600000000002,-4014.71,-4160.8000000000002,18.1402,-21.236999999999998,3.8204799999999999
216155.0,155.673,-2481.3200000000002,-2335.3699999999999,-2485.3699999999999,12.686299999999999,-24.1675,-5.4752200000000002
216156.0,139.47800000000001,-1062.9300000000001,-931.26199999999994,-1064.3599999999999,4.6103300000000003,-19.791699999999999,-15.139099999999999
216157.0,165.45099999999999,1859.4000000000001,1962.8499999999999,1894.5999999999999,63.523200000000003,8.4617299999999993,47.448900000000002
216158.0,119.699,788.71900000000005,829.12300000000005,768.55600000000004,60.9039,1.3318300000000001,10.659599999999999
216159.0,137.084,1348.45,1436.3099999999999,1383.55,-25.554500000000001,-6.4699,-60.110999999999997
216160.0,259.779,6666.3900000000003,6682.6999999999998,6734.1899999999996,-91.754900000000006,33.8339,-108.06999999999999
216161.0,105.059,8396.9400000000005,8508.0599999999995,8416.1499999999996,-6.3955000000000002,-2.9059900000000001,-10.1036
216162.0,157.61699999999999,4689.21,4835.6400000000003,4691.8299999999999,24.500399999999999,-21.507200000000001,14.0045
216163.0,313.411,9060.3299999999999,9051.3999999999996,9132.2199999999993,-115.818,48.033999999999999,-122.711
216164.0,167.71600000000001,1576.1099999999999,1658.72,1622.3599999999999,-41.2376,-2.1567400000000001,-77.1785
216165.0,92.1875,-1432.7,-1379.51,-1437.0699999999999,42.169600000000003,1.8716999999999999,4.9232199999999997
216166.0,112.13,-1317.6600000000001,-1260.73,-1330.22,53.005600000000001,-0.58155000000000001,3.14086
216167.0,72.394800000000004,411.97500000000002,459.68400000000003,411.04000000000002,31.162400000000002,1.1464099999999999,0.86038400000000004
216168.0,64.188900000000004,-2213.0900000000001,-2156.5500000000002,-2205.9699999999998,15.993399999999999,-2.4707400000000002,-12.771000000000001
216169.0,88.339799999999997,-434.80099999999999,-359.56400000000002,-414.71100000000001,-3.3253599999999999,-5.7452300000000003,-32.243899999999996
216170.0,115.643,-519.11699999999996,-433.36000000000001,-489.71600000000001,-16.416499999999999,-6.4657999999999998,-47.406399999999998
216171.0,130.429,-219.786,-121.322,-189.37200000000001,-19.088999999999999,-7.93994,-51.9741
216172.0,153.523,1589.79,1676.5899999999999,1630.6300000000001,-33.348500000000001,-5.1264399999999997,-69.514200000000002
216173.0,178.40799999999999,3226.96,3303.3800000000001,3277.4200000000001,-48.212299999999999,1.49109,-82.301199999999994
216174.0,195.16499999999999,3915.9499999999998,3981.8800000000001,3971.2600000000002,-58.4679,7.3049099999999996,-89.282200000000003
216175.0,206.828,4695.8800000000001,4747.6999999999998,4754.6999999999998,-66.430199999999999,14.485799999999999,-92.758600000000001
216176.0,233.255,5666.5500000000002,5702.9499999999998,5730.0,-79.734200000000001,22.971399999999999,-101.178
216177.0,231.821,-5796.0299999999997,-5757.3000000000002,-5731.4200000000001,-79.134299999999996,23.985800000000001,-100.093
216178.0,296.31900000000002,7794.1599999999999,7792.1199999999999,7866.0500000000002,-107.226,43.689599999999999,-118.69799999999999
216179.0,280.93700000000001,10126.700000000001,10125.5,10192.4,-105.30200000000001,45.996400000000001,-107.886
216180.0,217.16300000000001,10566.1,10582.0,10620.9,-82.020099999999999,39.434800000000003,-81.502600000000001
216181.0,154.75800000000001,10419.4,10460.6,10462.200000000001,-57.945599999999999,28.658799999999999,-56.692
216182.0,105.59399999999999,9703.2700000000004,9776.6700000000001,9733.9899999999998,-32.849299999999999,14.0242,-32.894199999999998
216183.0,70.344099999999997,-9318.6900000000005,-9258.0499999999993,-9293.6900000000005,-15.874499999999999,15.8154,-14.7866
216184.0,140.20400000000001,6614.8400000000001,6752.79,6623.8299999999999,16.587700000000002,-15.591799999999999,8.8026800000000005
216185.0,155.899,2913.21,3060.0300000000002,2914.7600000000002,19.348800000000001,-23.8278,7.0283899999999999
216186.0,137.38399999999999,1417.52,1550.27,1420.3199999999999,11.4476,-20.1785,-1.0134399999999999
216187.0,115.574,295.02800000000002,408.81999999999999,299.13999999999999,3.6549200000000002,-14.005699999999999,-8.7794399999999992
216188.0,56.033700000000003,77.055800000000005,28.16,79.673299999999998,-11.075799999999999,4.6207700000000003,-7.7903000000000002
216189.0,131.636,114.026,180.447,104.913,63.542900000000003,0.35658299999999998,6.1789199999999997
216190.0,110.09099999999999,2065.1100000000001,2125.21,2059.2399999999998,51.204799999999999,2.4078900000000001,8.9056999999999995
216191.0,89.779899999999998,280.084,337.43900000000002,279.214,39.009099999999997,1.51498,7.0276699999999996
216192.0,78.152000000000001,1092.6800000000001,1158.72,1097.55,25.6175,-3.4911500000000002,-3.64331
216193.0,89.191199999999995,2099.0300000000002,2184.0999999999999,2114.52,9.0145599999999995,-8.4146599999999996,-21.133700000000001
216194.0,110.014,932.49099999999999,1028.29,957.18799999999999,-8.0097299999999994,-8.4436900000000001,-37.749200000000002
216195.0,145.72800000000001,-1536.1800000000001,-1439.8399999999999,-1499.9000000000001,-27.581199999999999,-6.9746499999999996,-62.467399999999998
216196.0,158.28100000000001,-1007.1900000000001,-914.05100000000004,-965.15200000000004,-34.593299999999999,-4.7811399999999997,-70.396600000000007
216197.0,169.21299999999999,-1884.79,-1798.02,-1837.49,-41.747300000000003,-1.33718,-76.891099999999994
216198.0,180.21000000000001,-3361.5700000000002,-3280.52,-3309.7399999999998,-48.927599999999998,2.2985199999999999,-82.104399999999998
216199.0,190.899,-3980.8800000000001,-3913.6100000000001,-3924.6700000000001,-57.127800000000001,9.1008200000000006,-86.602099999999993
216200.0,210.114,-4833.1800000000003,-4776.2200000000003,-4772.6000000000004,-67.685400000000001,14.8925,-93.584800000000001
216201.0,267.21300000000002,-6777.8299999999999,-6756.4399999999996,-6708.2299999999996,-94.885800000000003,33.066499999999998,-111.505
216202.0,301.26499999999999,-7950.71,-7951.0299999999997,-7877.5,-109.69,42.726300000000002,-120.837
216203.0,294.40499999999997,-9265.8500000000004,-9283.6200000000008,-9195.0100000000002,-107.90600000000001,49.912199999999999,-112.06699999999999
216204.0,244.12100000000001,-10179.799999999999,-10196.0,-10117.4,-88.929000000000002,49.521599999999999,-88.219499999999996
216205.0,181.75200000000001,-10435.1,-10432.9,-10384.299999999999,-66.240300000000005,42.090299999999999,-63.444499999999998
216206.0,117.902,-10161.299999999999,-10133.299999999999,-10123.200000000001,-42.1661,30.689900000000002,-39.057200000000002
216207.0,96.955699999999993,-7898.2799999999997,-7798.0500000000002,-7885.7200000000003,10.3468,-1.3231900000000001,6.56121
216208.0,140.63300000000001,-6047.0799999999999,-5914.29,-6042.3299999999999,22.448599999999999,-15.48,13.213699999999999
216209.0,154.01900000000001,-4132.8100000000004,-3986.7199999999998,-4130.2799999999997,19.060199999999998,-22.532699999999998,6.5668800000000003
216210.0,153.76300000000001,-2455.3400000000001,-2307.7800000000002,-2452.21,12.5273,-24.7501,-1.98183
216211.0,137.839,-1074.73,-940.92200000000003,-1070.1900000000001,4.6960100000000002,-20.7593,-10.363799999999999
216212.0,181.20400000000001,-1119.8,-1023.42,-1089.47,71.968500000000006,14.083,56.018999999999998
216213.0,123.133,-1359.2,-1326.5799999999999,-1377.74,64.561700000000002,2.7250899999999998,14.400399999999999
216214.0,126.029,59.524700000000003,149.732,93.384900000000002,-25.031700000000001,-5.7016099999999996,-50.585299999999997
216215.0,251.279,6267.0100000000002,6287.8500000000004,6330.0200000000004,-90.309200000000004,32.5595,-103.926
216216.0,94.974599999999995,8526.1100000000006,8623.25,8542.9099999999999,-10.9473,-0.66094600000000003,-13.8225
216217.0,159.96700000000001,4874.1599999999999,5023.6599999999999,4883.04,23.886600000000001,-23.676200000000001,19.110800000000001
216218.0,306.31700000000001,8566.3400000000001,8550.3899999999994,8629.2800000000007,-110.087,47.7746,-123.024
216219.0,160.81299999999999,2774.0100000000002,2861.29,2816.6100000000001,-45.176200000000001,-0.82787299999999997,-68.366900000000001
216220.0,96.738200000000006,-84.787999999999997,-43.663899999999998,-96.078000000000003,48.2943,0.0175634,5.1093900000000003
216221.0,115.211,282.14299999999997,329.00599999999997,263.03800000000001,57.154400000000003,-1.5865899999999999,1.7866299999999999
216222.0,74.674999999999997,-2237.46,-2194.0599999999999,-2236.4299999999998,35.241199999999999,1.0725899999999999,1.5504
216223.0,63.119300000000003,518.99599999999998,576.28800000000001,528.26800000000003,14.6008,-2.10371,-12.8325
216224.0,90.523399999999995,-568.73400000000004,-490.06799999999998,-548.70000000000005,-5.1989200000000002,-6.3400600000000003,-31.5123
216225.0,110.992,612.28899999999999,700.76599999999996,641.26999999999998,-15.428599999999999,-6.7224500000000003,-42.290599999999998
216226.0,121.215,-222.45500000000001,-124.196,-192.143,-18.202999999999999,-7.55307,-44.469999999999999
216227.0,144.745,1253.8499999999999,1344.51,1292.8699999999999,-35.4572,-3.9285199999999998,-60.3551
216228.0,172.66800000000001,2676.0900000000001,2758.0100000000002,2722.29,-52.8767,3.0032399999999999,-73.799199999999999
216229.0,190.44300000000001,3572.5700000000002,3644.3800000000001,3623.0799999999999,-63.147500000000001,8.79176,-81.634399999999999
216230.0,202.56999999999999,4459.3400000000001,4517.0100000000002,4513.1700000000001,-70.163399999999996,15.721500000000001,-86.421099999999996
216231.0,228.464,5279.0299999999997,5321.0699999999997,5337.8100000000004,-81.770700000000005,23.4633,-96.1477
216232.0,226.06,-5380.4200000000001,-5339.21,-5322.9799999999996,-80.946600000000004,24.073899999999998,-95.002700000000004
216233.0,283.18299999999999,7381.79,7380.9099999999999,7447.5299999999997,-101.22799999999999,41.667299999999997,-115.271
216234.0,289.77800000000002,9630.8199999999997,9617.3099999999995,9688.3799999999992,-105.105,47.1038,-115.32599999999999
216235.0,230.42699999999999,10298.299999999999,10301.0,10347.9,-83.397099999999995,40.569600000000001,-91.214200000000005
216236.0,162.119,10303.5,10330.299999999999,10342.1,-58.0991,29.936,-64.001099999999994
216237.0,106.699,9681.6599999999999,9739.7199999999993,9708.9200000000001,-34.435499999999998,16.2242,-38.759399999999999
216238.0,70.043999999999997,-9311.6900000000005,-9264.6399999999994,-9286.4300000000003,-18.010200000000001,17.911100000000001,-20.878299999999999
216239.0,132.70099999999999,6851.0699999999997,6983.6300000000001,6862.2700000000004,11.7524,-15.786300000000001,8.8476700000000008
216240.0,160.42400000000001,3034.1100000000001,3185.9699999999998,3042.2399999999998,20.529,-25.953600000000002,13.6205
216241.0,140.36000000000001,1489.1099999999999,1626.54,1497.79,11.9587,-21.997,4.1518300000000004
216242.0,118.36199999999999,307.87299999999999,426.39400000000001,316.57999999999998,4.7292399999999999,-16.434200000000001,-3.70079
216243.0,57.304699999999997,66.690100000000001,16.1492,67.7226,-11.3626,5.1057699999999997,-8.3797099999999993
216244.0,134.36600000000001,549.45299999999997,612.21299999999997,540.43899999999996,66.570700000000002,0.71231500000000003,7.5739599999999996
216245.0,111.369,-843.80100000000004,-794.26300000000003,-854.25800000000004,55.186599999999999,1.25753,7.7540300000000002
216246.0,94.228800000000007,1422.3399999999999,1473.27,1419.6199999999999,44.276000000000003,0.85600799999999999,9.2368199999999998
216247.0,81.449600000000004,816.41499999999996,885.90499999999997,824.59299999999996,27.416699999999999,-3.3769999999999998,-2.40178
216248.0,90.722499999999997,-491.26400000000001,-402.41399999999999,-473.44799999999998,5.1315600000000003,-8.5296699999999994,-20.852599999999999
216249.0,107.861,-205.86799999999999,-109.923,-179.91,-8.8117099999999997,-8.2450899999999994,-35.6295
216250.0,136.70699999999999,-230.91900000000001,-130.691,-196.59899999999999,-28.836600000000001,-6.4698700000000002,-52.551299999999998
216251.0,151.69200000000001,-2186.1599999999999,-2088.27,-2146.6999999999998,-37.5548,-3.9485899999999998,-61.793500000000002
216252.0,163.46600000000001,-2788.2199999999998,-2696.25,-2744.6799999999998,-46.283999999999999,-0.15458,-68.177599999999998
216253.0,175.48500000000001,-2830.52,-2744.1300000000001,-2783.4200000000001,-53.990499999999997,3.5540400000000001,-73.935000000000002
216254.0,186.501,-3761.4499999999998,-3689.6900000000001,-3711.1500000000001,-61.920099999999998,10.1974,-79.370900000000006
216255.0,205.94200000000001,-4559.1800000000003,-4498.3100000000004,-4505.04,-71.737399999999994,15.6838,-87.3596
216256.0,255.251,-6397.9899999999998,-6376.0900000000001,-6337.1800000000003,-91.709900000000005,32.015799999999999,-106.45999999999999
216257.0,288.23500000000001,-7508.1999999999998,-7508.3299999999999,-7445.6599999999999,-103.203,40.929900000000004,-118.577
216258.0,296.12700000000001,-8670.6100000000006,-8691.9400000000005,-8610.2600000000002,-105.95699999999999,48.849299999999999,-117.571
216259.0,256.63499999999999,-9710.75,-9737.8099999999995,-9655.5200000000004,-89.740300000000005,50.339300000000001,-98.016599999999997
216260.0,192.23599999999999,-10220.9,-10232.799999999999,-10174.0,-65.312799999999996,43.5075,-72.049899999999994
216261.0,125.19799999999999,-10048.6,-10034.5,-10012.799999999999,-41.5989,31.998899999999999,-46.299599999999998
216262.0,82.341300000000004,-8064.4300000000003,-7976.3900000000003,-8048.5799999999999,6.1280400000000004,0.82452899999999996,4.4267200000000004
216263.0,134.95099999999999,-6280.04,-6151.6199999999999,-6269.0100000000002,21.667400000000001,-15.2523,17.403300000000002
216264.0,157.505,-4294.0799999999999,-4143.7299999999996,-4284.96,20.209299999999999,-24.220400000000001,12.988899999999999
216265.0,158.06999999999999,-2547.3499999999999,-2393.77,-2538.96,12.4809,-26.559899999999999,3.4446099999999999
216266.0,140.35400000000001,-1112.1400000000001,-973.43200000000002,-1102.8399999999999,5.1763000000000003,-22.3872,-5.15334
216267.0,195.87799999999999,2201.3800000000001,2287.0100000000002,2217.5900000000001,82.8429,18.615500000000001,59.252099999999999
216268.0,125.485,579.93799999999999,604.41399999999999,564.10500000000002,66.154200000000003,3.63795,21.136800000000001
216269.0,116.99299999999999,1012.3099999999999,1104.8800000000001,1045.23,-27.7026,-4.9123000000000001,-39.606699999999996
216270.0,225.55000000000001,5695.8599999999997,5719.75,5749.54,-81.541499999999999,27.2593,-94.034099999999995
216271.0,86.4636,8300.5300000000007,8376.6200000000008,8320.4300000000003,-16.6129,6.5992100000000002,-24.8049
216272.0,149.245,5223.8400000000001,5371.3599999999997,5241.6099999999997,18.6142,-21.191700000000001,11.9854
216273.0,274.87299999999999,7575.3699999999999,7557.3999999999996,7628.6999999999998,-97.749399999999994,42.327199999999998,-111.639
216274.0,154.923,1039.5899999999999,1131.2,1079.8800000000001,-49.169400000000003,-0.059885000000000001,-58.947200000000002
216275.0,90.863600000000005,-1606.73,-1569.0699999999999,-1619.1300000000001,44.290999999999997,-1.3436900000000001,10.431800000000001
216276.0,108.491,-1511.01,-1467.51,-1526.5,54.2363,-1.0074700000000001,6.7510000000000003
216277.0,69.552099999999996,144.54400000000001,185.59200000000001,144.90299999999999,31.204599999999999,-0.11368499999999999,9.0544700000000002
216278.0,58.496200000000002,-2540.8899999999999,-2480.3600000000001,-2527.8899999999999,9.0678400000000003,-0.49441299999999999,-6.5395899999999996
216279.0,90.488399999999999,-659.50300000000004,-575.42499999999995,-635.58799999999997,-12.404199999999999,-6.0699100000000001,-25.7272
216280.0,105.544,-698.673,-608.05799999999999,-668.90800000000002,-20.617000000000001,-7.7336099999999997,-33.091299999999997
216281.0,111.578,-65.050799999999995,32.442300000000003,-33.896099999999997,-21.859000000000002,-7.4283700000000001,-33.726700000000001
216282.0,138.32499999999999,1113.04,1207.4300000000001,1149.96,-39.653199999999998,-2.63293,-50.361199999999997
216283.0,165.45099999999999,2643.2600000000002,2729.7600000000002,2686.2399999999998,-54.939700000000002,3.2411599999999998,-65.000900000000001
216284.0,180.84,3278.1300000000001,3354.3800000000001,3324.48,-63.302700000000002,8.1293399999999991,-73.153599999999997
216285.0,188.73599999999999,3986.7800000000002,4048.3899999999999,4035.48,-67.318899999999999,13.7036,-78.093199999999996
216286.0,209.53800000000001,4854.7200000000003,4900.3400000000001,4906.9700000000003,-75.923199999999994,19.781199999999998,-87.5809
216287.0,205.102,-4943.8500000000004,-4901.0799999999999,-4894.5900000000001,-74.101299999999995,20.369,-86.023099999999999
216288.0,250.12299999999999,6574.6499999999996,6576.8900000000003,6629.8599999999997,-89.594300000000004,34.900100000000002,-103.113
216289.0,278.15499999999997,8638.8400000000001,8615.7399999999998,8687.1499999999996,-99.580200000000005,44.3904,-112.139
216290.0,236.57599999999999,9371.7800000000007,9359.8299999999999,9413.3799999999992,-84.494500000000002,39.9938,-95.536299999999997
216291.0,172.726,9568.8099999999995,9579.2600000000002,9602.8700000000008,-60.619,31.590399999999999,-70.481099999999998
216292.0,115.631,9200.5699999999997,9240.9799999999996,9227.5799999999999,-37.661099999999998,20.410900000000002,-46.885399999999997
216293.0,82.565299999999993,-8894.7099999999991,-8863.0499999999993,-8867.4500000000007,-21.641100000000002,22.346800000000002,-31.7882
216294.0,110.389,6947.9099999999999,7064.1499999999996,6964.3800000000001,3.1255500000000001,-9.0163200000000003,-3.8162799999999999
216295.0,167.68899999999999,3337.1999999999998,3500.8800000000001,3357.8699999999999,22.001100000000001,-27.155799999999999,14.3901
216296.0,152.928,1639.3299999999999,1792.49,1659.9000000000001,15.533799999999999,-24.202000000000002,7.6534700000000004
216297.0,129.40100000000001,342.834,474.78100000000001,359.471,8.1755499999999994,-18.725300000000001,0.504745
216298.0,58.783499999999997,81.239999999999995,28.7667,80.444500000000005,-11.700200000000001,5.4581200000000001,-9.0018999999999991
216299.0,134.66399999999999,344.73500000000001,403.74900000000002,337.48599999999999,67.385000000000005,1.5630599999999999,13.4382
216300.0,105.819,2180.5599999999999,2227.0300000000002,2171.3499999999999,52.347799999999999,0.180309,10.071899999999999
216301.0,89.708399999999997,458.10899999999998,506.79300000000001,457.33100000000002,41.108600000000003,-0.23375899999999999,13.7721
216302.0,79.268500000000003,1412.98,1483.4000000000001,1423.3199999999999,24.784500000000001,-3.2080000000000002,4.9207900000000002
216303.0,92.776799999999994,2378.77,2474.7199999999998,2399.98,-0.99746699999999999,-7.6317300000000001,-16.419599999999999
216304.0,103.79900000000001,1036.9300000000001,1132.3699999999999,1064.75,-16.716100000000001,-8.6273300000000006,-28.778099999999998
216305.0,130.58000000000001,-1152.8099999999999,-1048.1600000000001,-1118.23,-31.154399999999999,-5.8742799999999997,-42.844900000000003
216306.0,146.833,-522.697,-420.60500000000002,-484.97300000000001,-42.051000000000002,-3.0583800000000001,-52.384599999999999
216307.0,157.80699999999999,-1349.3099999999999,-1253.8099999999999,-1309.3900000000001,-49.7532,0.497558,-59.368499999999997
216308.0,168.071,-2778.2399999999998,-2688.8200000000002,-2735.6799999999998,-55.817100000000003,3.4528799999999999,-65.483500000000006
216309.0,175.78800000000001,-3337.3400000000001,-3263.4699999999998,-3292.9699999999998,-61.447299999999998,9.2135599999999993,-71.116100000000003
216310.0,191.12,-4106.29,-4043.5,-4058.9099999999999,-68.375299999999996,13.398,-79.0565
216311.0,226.821,-5729.46,-5705.5200000000004,-5678.6800000000003,-82.002899999999997,27.057099999999998,-95.117900000000006
216312.0,253.00800000000001,-6601.6000000000004,-6598.5600000000004,-6550.3000000000002,-90.498000000000005,34.5931,-105.464
216313.0,273.904,-7652.9799999999996,-7671.4399999999996,-7603.8299999999999,-97.429199999999994,42.624099999999999,-111.7
216314.0,255.15799999999999,-8686.3700000000008,-8718.6200000000008,-8642.2199999999993,-88.749600000000001,46.957900000000002,-100.74299999999999
216315.0,200.78899999999999,-9312.5400000000009,-9336.8400000000001,-9273.6000000000004,-66.789500000000004,43.457799999999999,-77.9208
216316.0,138.33199999999999,-9374.2000000000007,-9373.8099999999995,-9341.0499999999993,-43.570900000000002,34.370100000000001,-54.192599999999999
216317.0,64.586799999999997,-7913.8500000000004,-7845.0799999999999,-7891.5799999999999,-1.2783,7.9929800000000002,-9.6821199999999994
216318.0,108.23699999999999,-6512.0699999999997,-6400.71,-6491.1099999999997,16.181000000000001,-8.2193900000000006,8.5737199999999998
216319.0,149.04499999999999,-4713.9099999999999,-4566.4099999999999,-4691.5500000000002,21.5015,-21.227499999999999,13.147
216320.0,165.732,-2843.0900000000001,-2677.3099999999999,-2820.3899999999999,16.526900000000001,-27.556000000000001,6.7126200000000003
216321.0,152.143,-1258.9000000000001,-1104.73,-1238.72,9.1687700000000003,-24.654,-1.5003200000000001
216322.0,208.661,-982.67200000000003,-907.02300000000002,-978.58799999999997,94.543999999999997,21.1495,57.5946
216323.0,130.27699999999999,-1453.6400000000001,-1437.22,-1471.99,67.903700000000001,4.0807599999999997,26.965299999999999
216324.0,119.288,-131.476,-32.605499999999999,-98.446399999999997,-33.881500000000003,-3.42353,-32.4041
216325.0,193.73599999999999,4928.2700000000004,4955.4499999999998,4972.3599999999997,-72.313000000000002,20.903600000000001,-79.687700000000007
216326.0,88.063800000000001,7605.2799999999997,7668.75,7630.3000000000002,-19.3416,11.5976,-32.472900000000003
216327.0,127.73099999999999,5104.1000000000004,5239.1499999999996,5129.6199999999999,10.374599999999999,-13.3065,-2.3867799999999999
216328.0,233.87899999999999,6502.3599999999997,6488.4399999999996,6543.9700000000003,-85.915300000000002,33.9724,-94.1417
216329.0,147.197,2442.8200000000002,2538.25,2480.6900000000001,-49.9039,0.18614600000000001,-49.220799999999997
216330.0,87.206199999999995,-288.71699999999998,-254.066,-300.92700000000002,42.877000000000002,-1.13598,10.212300000000001
216331.0,106.363,56.262300000000003,94.703299999999999,45.781500000000001,54.375100000000003,-0.309527,12.281499999999999
216332.0,66.664900000000003,-2385.2199999999998,-2339.2399999999998,-2387.3400000000001,26.491399999999999,-0.55914299999999995,6.3817599999999999
216333.0,61.799599999999998,401.66899999999998,468.18900000000002,417.84399999999999,6.8804999999999996,-1.7074499999999999,-4.3926499999999997
216334.0,86.446600000000004,-690.38699999999994,-602.85699999999997,-663.89099999999996,-13.892099999999999,-4.5991099999999996,-16.1892
216335.0,106.096,467.77300000000002,564.79100000000005,498.22500000000002,-26.012899999999998,-4.5815799999999998,-24.345400000000001
216336.0,116.70099999999999,-76.670199999999994,30.439499999999999,-44.636200000000002,-28.058199999999999,-4.9216699999999998,-26.564699999999998
216337.0,134.71199999999999,1003.55,1102.49,1039.03,-42.9133,-1.98929,-41.119300000000003
216338.0,154.00899999999999,2235.3299999999999,2324.6700000000001,2274.6799999999998,-53.345500000000001,2.1726899999999998,-55.233199999999997
216339.0,165.24000000000001,2984.3000000000002,3062.7800000000002,3025.5300000000002,-59.794400000000003,5.6927599999999998,-62.871099999999998
216340.0,167.511,3676.2600000000002,3739.8600000000001,3718.23,-61.315300000000001,9.7362300000000008,-66.731999999999999
216341.0,183.18100000000001,4244.3500000000004,4292.71,4288.4300000000003,-68.419600000000003,14.410399999999999,-74.696200000000005
216342.0,177.31899999999999,-4248.2799999999997,-4203.0200000000004,-4207.5600000000004,-65.949299999999994,15.2026,-72.656700000000001
216343.0,213.298,5700.9899999999998,5708.0900000000001,5744.6300000000001,-79.254000000000005,27.306000000000001,-87.121499999999997
216344.0,246.94300000000001,7311.1800000000003,7284.8599999999997,7347.7799999999997,-91.068799999999996,38.203800000000001,-97.853200000000001
216345.0,229.09100000000001,8073.5200000000004,8052.7799999999997,8105.4200000000001,-84.814099999999996,37.739899999999999,-90.406800000000004
216346.0,179.233,8445.4899999999998,8446.2800000000007,8474.7700000000004,-64.705699999999993,32.046399999999998,-72.223200000000006
216347.0,122.687,8274.4400000000005,8304.9599999999991,8301.0699999999997,-40.308399999999999,22.5227,-51.082299999999996
216348.0,93.076999999999998,-8028.25,-8004.7700000000004,-8002.5299999999997,-24.4861,25.000599999999999,-38.213099999999997
216349.0,94.246700000000004,6523.0699999999997,6622.4099999999999,6546.4700000000003,-2.3010199999999998,-0.93023400000000001,-16.036799999999999
216350.0,162.065,3488.9200000000001,3655.4499999999998,3520.8000000000002,18.363600000000002,-23.996400000000001,5.40334
216351.0,162.34299999999999,1798.8,1965.96,1832.6600000000001,17.839099999999998,-25.033899999999999,5.5040800000000001
216352.0,143.28399999999999,338.435,487.91500000000002,368.28899999999999,12.9002,-20.405000000000001,1.7267399999999999
216353.0,60.604100000000003,70.4666,15.6897,67.542699999999996,-12.1342,5.7291600000000003,-9.7256900000000002
216354.0,137.02600000000001,722.74199999999996,778.44100000000003,713.97199999999998,67.579300000000003,3.48909,21.376300000000001
216355.0,105.58,-653.16600000000005,-608.83500000000004,-659.16200000000003,52.605200000000004,0.15983600000000001,13.883800000000001
216356.0,85.502499999999998,1566.4000000000001,1618.8800000000001,1567.71,37.216000000000001,-1.46604,12.407500000000001
216357.0,76.251300000000001,914.48400000000004,988.41099999999994,927.68299999999999,18.947099999999999,-3.6682899999999998,3.3299699999999999
216358.0,88.358699999999999,-404.25400000000002,-309.26400000000001,-380.25299999999999,-2.1861199999999998,-6.9313799999999999,-10.4818
216359.0,104.586,-91.871200000000002,12.391,-63.5261,-19.652200000000001,-6.1914100000000003,-17.756399999999999
216360.0,129.95099999999999,-32.302,75.887,2.9372600000000002,-35.844900000000003,-4.1833,-35.805700000000002
216361.0,141.267,-1919.1400000000001,-1814.54,-1883.4000000000001,-44.282400000000003,-2.3218999999999999,-43.115900000000003
216362.0,148.95099999999999,-2428.6999999999998,-2332.04,-2392.46,-49.9133,0.100948,-50.195
216363.0,156.053,-2347.5100000000002,-2256.8400000000001,-2309.6399999999999,-53.823500000000003,1.97905,-56.0627
216364.0,158.93799999999999,-3112.0900000000001,-3037.6100000000001,-3073.9299999999998,-57.134300000000003,6.5714699999999997,-61.037599999999998
216365.0,169.506,-3695.7800000000002,-3631.27,-3655.4899999999998,-62.156799999999997,9.3872,-67.557500000000005
216366.0,194.411,-4951.9700000000003,-4924.4399999999996,-4910.8299999999999,-72.545199999999994,20.8048,-80.396000000000001
216367.0,214.232,-5704.3400000000001,-5696.6899999999996,-5664.2700000000004,-79.455200000000005,27.212599999999998,-88.273899999999998
216368.0,235.554,-6453.8699999999999,-6465.9700000000003,-6416.04,-86.607399999999998,34.098700000000001,-95.673000000000002
216369.0,236.03999999999999,-7292.6800000000003,-7320.1899999999996,-7259.8100000000004,-85.895200000000003,40.369900000000001,-93.004900000000006
216370.0,201.61199999999999,-8026.9399999999996,-8053.9799999999996,-7997.8699999999999,-70.336200000000005,41.606699999999996,-77.997100000000003
216371.0,146.072,-8295.7000000000007,-8303.3199999999997,-8268.5499999999993,-46.618099999999998,35.5886,-57.780799999999999
216372.0,67.168599999999998,-7298.1700000000001,-7240.3599999999997,-7272.2299999999996,-5.8075900000000003,13.2059,-21.385200000000001
216373.0,87.166399999999996,-6176.4399999999996,-6080.8000000000002,-6148.6800000000003,8.32944,0.114305,-6.5266099999999998
216374.0,126.133,-4756.8000000000002,-4623.4700000000003,-4724.0200000000004,17.359100000000002,-12.851900000000001,3.1034999999999999
216375.0,160.50299999999999,-3144.6399999999999,-2977.9499999999998,-3106.0900000000001,19.299700000000001,-24.1448,4.0993199999999996
216376.0,161.15700000000001,-1477.1900000000001,-1309.04,-1439.78,14.890000000000001,-25.318100000000001,-0.25841399999999998
216377.0,218.34100000000001,2340.5,2406.1599999999999,2331.6599999999999,104.036,21.535799999999998,54.287500000000001
216378.0,135.714,510.72399999999999,523.47500000000002,491.43200000000002,69.671099999999996,4.8287800000000001,31.651399999999999
216379.0,122.758,975.90899999999999,1081.25,1010.75,-37.916400000000003,-1.7320899999999999,-26.504200000000001
216380.0,164.38800000000001,4276.8299999999999,4307.9499999999998,4310.9200000000001,-66.239400000000003,14.606199999999999,-63.641399999999997
216381.0,87.065600000000003,6692.2399999999998,6751.6400000000003,6716.7700000000004,-21.6709,11.867699999999999,-32.020899999999997
216382.0,113.95699999999999,4545.5699999999997,4669.6099999999997,4576.1800000000003,3.8379300000000001,-7.0384099999999998,-9.4519199999999994
216383.0,195.95400000000001,5444.6800000000003,5436.2299999999996,5472.8699999999999,-78.852099999999993,26.6492,-74.183899999999994
216384.0,137.45099999999999,852.84500000000003,949.755,887.524,-47.0321,-0.52690499999999996,-40.917099999999998
216385.0,79.932299999999998,-1844.9200000000001,-1809.79,-1853.1400000000001,35.718200000000003,1.1137900000000001,17.959499999999998
216386.0,107.19799999999999,-1684.79,-1650.26,-1694.6700000000001,52.189,1.19309,23.697299999999998
216387.0,60.377000000000002,92.664500000000004,146.38,98.549599999999998,16.764500000000002,-0.913663,8.0805699999999998
216388.0,64.135000000000005,-2395.6900000000001,-2324.7600000000002,-2377.4400000000001,0.69717700000000005,-3.7306300000000001,0.32021100000000002
216389.0,84.503799999999998,-628.90999999999997,-541.08699999999999,-603.37099999999998,-15.1083,-4.3479900000000002,-9.6131100000000007
216390.0,108.502,-795.99900000000002,-694.77300000000002,-764.08299999999997,-29.2895,-2.8504100000000001,-19.494599999999998
216391.0,121.964,73.574799999999996,188.09700000000001,107.084,-31.729099999999999,-2.7675700000000001,-21.842099999999999
216392.0,130.648,1063.0999999999999,1165.9000000000001,1097.6700000000001,-42.619500000000002,-1.3277699999999999,-33.687399999999997
216393.0,140.80699999999999,2274.9000000000001,2365.27,2310.25,-49.179900000000004,0.39402799999999999,-46.002699999999997
216394.0,149.13399999999999,2696.3200000000002,2775.3699999999999,2731.9400000000001,-55.474600000000002,2.8329,-52.545200000000001
216395.0,147.58199999999999,3161.54,3226.21,3196.25,-56.391100000000002,5.7948300000000001,-54.7652
216396.0,159.57900000000001,3751.3600000000001,3802.3099999999999,3786.5900000000001,-63.3979,9.3257499999999993,-60.841000000000001
216397.0,153.0,-3740.5300000000002,-3692.23,-3707.98,-60.528799999999997,10.399699999999999,-58.517400000000002
216398.0,178.78200000000001,4808.1800000000003,4821.0200000000004,4841.04,-72.308400000000006,20.1343,-68.892399999999995
216399.0,215.96100000000001,6196.9200000000001,6172.21,6220.0900000000001,-86.950100000000006,32.452199999999998,-79.747100000000003
216400.0,214.09899999999999,6888.1499999999996,6866.6300000000001,6910.25,-86.253100000000003,33.585299999999997,-78.969300000000004
216401.0,172.35499999999999,7326.8900000000003,7326.0500000000002,7349.1700000000001,-67.659300000000002,28.8475,-65.729100000000003
216402.0,117.872,7265.6400000000003,7293.9399999999996,7288.3900000000003,-41.757399999999997,20.702999999999999,-47.266100000000002
216403.0,91.119900000000001,-7052.8299999999999,-7030.3800000000001,-7032.8699999999999,-26.986799999999999,23.213999999999999,-36.7288
216404.0,88.818799999999996,5742.6400000000003,5834.5799999999999,5770.1000000000004,-5.7333299999999996,2.5688399999999998,-19.0398
216405.0,147.50399999999999,3149.9099999999999,3306.9000000000001,3184.0799999999999,10.7456,-17.8626,-1.2757499999999999
216406.0,156.12100000000001,1651.9300000000001,1816.6800000000001,1687.1099999999999,11.4057,-21.482299999999999,2.31412
216407.0,144.62299999999999,291.00599999999997,444.53699999999998,324.48399999999998,9.5212299999999992,-18.8889,2.6297000000000001
216408.0,62.705599999999997,85.020099999999999,27.6356,79.819000000000003,-12.668799999999999,5.7994599999999998,-10.4567
216409.0,142.36600000000001,490.47399999999999,544.58199999999999,480.661,68.943200000000004,6.1436700000000002,27.930599999999998
216410.0,108.128,2422.54,2467.29,2416.8299999999999,50.143900000000002,1.6359999999999999,24.829000000000001
216411.0,80.176100000000005,617.47799999999995,677.68499999999995,624.38999999999999,28.230899999999998,-2.0937700000000001,15.995200000000001
216412.0,70.881500000000003,1261.75,1337.72,1282.1700000000001,9.3689400000000003,-4.8406700000000003,4.2390499999999998
216413.0,84.990099999999998,2196.6999999999998,2290.2600000000002,2223.7199999999998,-5.7283999999999997,-6.5064900000000003,-3.7267999999999999
216414.0,107.124,1142.78,1253.01,1173.5899999999999,-19.913699999999999,-4.9656399999999996,-13.0143
216415.0,129.53200000000001,-1125.3099999999999,-1014.35,-1092.4200000000001,-38.536000000000001,-2.2475299999999998,-29.2301
216416.0,134.50299999999999,-427.31700000000001,-322.416,-394.75,-43.015599999999999,-2.1881400000000002,-35.950200000000002
216417.0,138.16999999999999,-1098.3099999999999,-1001.79,-1065.55,-46.788699999999999,-1.04135,-42.002299999999998
216418.0,142.80500000000001,-2335.48,-2244.5799999999999,-2301.54,-49.677500000000002,-0.23846300000000001,-47.113799999999998
216419.0,142.422,-2671.3200000000002,-2596.6799999999998,-2638.6500000000001,-52.633499999999998,3.5511699999999999,-50.774799999999999
216420.0,150.25700000000001,-3189.27,-3122.8600000000001,-3155.5500000000002,-57.497500000000002,5.47783,-55.562100000000001
216421.0,164.41399999999999,-4204.6499999999996,-4171.9799999999996,-4172.6599999999999,-66.165899999999993,15.0387,-63.703000000000003
216422.0,178.655,-4728.8299999999999,-4713.7799999999997,-4699.1800000000003,-71.884699999999995,20.767299999999999,-69.431299999999993
216423.0,200.40000000000001,-5403.1800000000003,-5406.25,-5377.29,-80.911299999999997,27.137,-76.489400000000003
216424.0,214.82300000000001,-6142.8999999999996,-6163.6000000000004,-6121.21,-86.1952,34.011899999999997,-79.669200000000004
216425.0,191.261,-6843.8000000000002,-6870.1800000000003,-6825.5699999999997,-73.359099999999998,36.929400000000001,-70.322199999999995
216426.0,138.44399999999999,-7224.8999999999996,-7234.5699999999997,-7207.6899999999996,-48.812100000000001,32.332099999999997,-52.684100000000001
216427.0,69.069100000000006,-6412.9399999999996,-6357.46,-6389.0600000000004,-9.46828,13.802899999999999,-23.142099999999999
216428.0,83.289000000000001,-5458.3900000000003,-5368.1800000000003,-5429.3699999999999,1.9240699999999999,3.8187500000000001,-13.1601
216429.0,111.649,-4271.2399999999998,-4148.8900000000003,-4237.6300000000001,9.9752899999999993,-6.3135700000000003,-4.5002500000000003
216430.0,145.904,-2907.5,-2750.9699999999998,-2867.9000000000001,12.8057,-17.542300000000001,0.141288
216431.0,154.625,-1463.1099999999999,-1297.9000000000001,-1421.73,11.3399,-21.205200000000001,1.0419700000000001
216432.0,226.77699999999999,-1052.74,-992.21900000000005,-1066.1900000000001,111.88200000000001,22.6248,50.600999999999999
216433.0,140.75700000000001,-1409.04,-1401.1400000000001,-1433.01,72.239400000000003,4.1808500000000004,33.057600000000001
216434.0,120.351,17.7164,125.726,54.322099999999999,-36.899999999999999,-1.9519299999999999,-21.100999999999999
216435.0,147.70099999999999,3773.7399999999998,3806.1199999999999,3795.77,-67.083399999999997,10.158899999999999,-48.938299999999998
216436.0,83.321200000000005,5887.3500000000004,5945.5900000000001,5908.6700000000001,-24.996099999999998,10.090299999999999,-26.821100000000001
216437.0,106.01900000000001,3963.9200000000001,4080.4499999999998,3994.7399999999998,-1.3691800000000001,-5.0485499999999996,-8.5703700000000005
216438.0,172.00399999999999,4830.4700000000003,4830.5,4847.6700000000001,-78.947299999999998,21.549600000000002,-55.374400000000001
216439.0,124.59699999999999,2277.5999999999999,2372.27,2310.8000000000002,-41.526800000000001,-1.8724000000000001,-33.759500000000003
216440.0,87.400899999999993,-442.59500000000003,-396.48000000000002,-448.43000000000001,33.260399999999997,6.1161199999999996,24.345700000000001
216441.0,113.56,-67.084000000000003,-31.055299999999999,-81.301699999999997,52.683300000000003,3.81351,28.943300000000001
216442.0,69.043000000000006,-2387.96,-2323.27,-2379.8600000000001,10.581099999999999,2.2940299999999998,15.1508
216443.0,73.996499999999997,512.72400000000005,592.60199999999998,530.69200000000001,-6.31304,-1.35927,5.2377099999999999
216444.0,93.189999999999998,-530.48800000000006,-437.11099999999999,-504.834,-22.9739,-3.5586799999999998,-5.19543
216445.0,115.39,660.80999999999995,767.20500000000004,695.29600000000005,-35.569000000000003,-3.5724200000000002,-14.617100000000001
216446.0,120.556,-255.827,-142.875,-220.81100000000001,-34.4529,-2.5043299999999999,-17.555900000000001
216447.0,118.661,1022.5700000000001,1123.74,1056.7,-36.499000000000002,-1.98715,-26.6145
216448.0,129.10900000000001,1867.3299999999999,1956.1199999999999,1899.3,-45.464599999999997,-1.5669900000000001,-38.271900000000002
216449.0,137.239,2421.1700000000001,2499.0300000000002,2451.4099999999999,-53.505200000000002,0.330152,-43.296500000000002
216450.0,134.59299999999999,2926.3499999999999,2990.79,2954.1599999999999,-55.170900000000003,2.7349399999999999,-44.0732
216451.0,145.297,3301.21,3353.23,3327.5,-63.293199999999999,5.6463099999999997,-48.193399999999997
216452.0,139.27099999999999,-3240.0599999999999,-3189.27,-3215.5100000000002,-60.378999999999998,7.15388,-46.081600000000002
216453.0,160.28700000000001,4306.79,4323.3900000000003,4326.6199999999999,-74.349999999999994,14.983499999999999,-51.945900000000002
216454.0,188.34200000000001,5392.7600000000002,5376.1300000000001,5404.7399999999998,-84.780799999999999,27.2439,-60.726900000000001
216455.0,192.50999999999999,6066.54,6050.1099999999997,6076.79,-86.106200000000001,27.773499999999999,-63.139400000000002
216456.0,158.05600000000001,6477.6099999999997,6480.1800000000003,6490.5299999999997,-69.150199999999998,23.575199999999999,-54.248699999999999
216457.0,108.59099999999999,6394.5799999999999,6424.4899999999998,6411.4300000000003,-43.486699999999999,16.9529,-39.079900000000002
216458.0,83.962000000000003,-6199.6999999999998,-6175.1499999999996,-6185.9200000000001,-30.036200000000001,19.1294,-30.502099999999999
216459.0,85.187899999999999,5057.0200000000004,5145.2200000000003,5083.1899999999996,-10.138299999999999,2.38449,-16.085999999999999
216460.0,133.75800000000001,2730.3400000000001,2875.9200000000001,2765.6999999999998,4.9070299999999998,-12.972899999999999,-2.3388
216461.0,142.12799999999999,1424.23,1577.46,1458.5,3.9603700000000002,-15.8263,0.36003200000000002
216462.0,132.47399999999999,226.596,369.483,257.34300000000002,1.72123,-13.6449,2.0839500000000002
216463.0,64.859200000000001,73.544300000000007,13.459,66.071899999999999,-13.334199999999999,5.4431900000000004,-11.0655
216464.0,146.65100000000001,763.46100000000001,813.83199999999999,749.98099999999999,70.534899999999993,7.1920400000000004,31.768899999999999
216465.0,116.887,-428.60599999999999,-375.64100000000002,-436.75,49.648499999999999,5.0665300000000002,31.025099999999998
216466.0,91.392600000000002,1714.54,1789.6400000000001,1722.3199999999999,24.9954,2.1341999999999999,21.197299999999998
216467.0,82.208799999999997,863.52499999999998,951.74800000000005,884.07799999999997,3.3871899999999999,-1.56921,10.3916
216468.0,95.669499999999999,-544.56700000000001,-440.42899999999997,-515.38,-12.2645,-3.7825500000000001,-0.68380399999999997
216469.0,114.179,-259.00400000000002,-144.49100000000001,-223.20099999999999,-28.211500000000001,-4.5733800000000002,-9.8521699999999992
216470.0,119.532,-144.221,-37.629800000000003,-112.898,-34.636899999999997,-2.42483,-23.573599999999999
216471.0,122.657,-1870.3,-1767.8199999999999,-1839.9200000000001,-37.651000000000003,-3.7806199999999999,-28.504000000000001
216472.0,127.44499999999999,-2187.6100000000001,-2091.9299999999998,-2157.1799999999998,-42.241700000000002,-2.9488500000000002,-35.085799999999999
216473.0,132.64099999999999,-1908.0599999999999,-1817.23,-1877.02,-46.714100000000002,-2.2579799999999999,-39.318100000000001
216474.0,131.50399999999999,-2482.1599999999999,-2407.3299999999999,-2454.0999999999999,-50.914200000000001,1.22817,-41.731400000000001
216475.0,138.63800000000001,-2883.02,-2815.0700000000002,-2855.0700000000002,-56.741199999999999,2.7541799999999999,-44.871200000000002
216476.0,149.55000000000001,-3727.6300000000001,-3691.02,-3705.3800000000001,-67.854699999999994,11.2874,-48.816600000000001
216477.0,158.83000000000001,-4235.6599999999999,-4215.3100000000004,-4216.7799999999997,-73.072699999999998,16.818899999999999,-51.552500000000002
216478.0,174.339,-4710.8999999999996,-4706.2399999999998,-4696.3100000000004,-79.228700000000003,22.347999999999999,-57.439
216479.0,191.30699999999999,-5333.9200000000001,-5347.1599999999999,-5325.3900000000003,-86.085599999999999,27.288499999999999,-62.639600000000002
216480.0,173.208,-6039.6999999999998,-6061.5,-6034.8599999999997,-75.265600000000006,29.777100000000001,-56.985500000000002
216481.0,124.73999999999999,-6373.75,-6380.2799999999997,-6366.3299999999999,-50.600200000000001,26.568999999999999,-43.262599999999999
216482.0,66.443899999999999,-5652.6499999999996,-5598.1700000000001,-5633.0900000000001,-13.9018,11.749000000000001,-19.461500000000001
216483.0,79.921999999999997,-4796.5900000000001,-4709.9499999999998,-4770.46,-3.4157099999999998,3.4964900000000001,-11.401899999999999
216484.0,104.369,-3719.6599999999999,-3603.9899999999998,-3688.04,4.0101300000000002,-4.15726,-4.85968
216485.0,133.48699999999999,-2526.7800000000002,-2380.7600000000002,-2489.3600000000001,5.2301700000000002,-12.533200000000001,-1.72776
216486.0,141.38200000000001,-1273.71,-1120.1600000000001,-1236.4000000000001,3.0416500000000002,-15.488799999999999,0.77251300000000001
216487.0,234.65000000000001,2451.3600000000001,2506.8099999999999,2432.77,119.191,23.458100000000002,45.9696
216488.0,145.81999999999999,504.16800000000001,514.95000000000005,481.02600000000001,71.554500000000004,7.04657,40.219799999999999
216489.0,117.04600000000001,1352.4000000000001,1460.5,1390.8900000000001,-37.1008,-4.2170800000000002,-13.0509
216490.0,149.34899999999999,3619.8600000000001,3651.02,3630.4899999999998,-75.162499999999994,8.6606000000000005,-38.206099999999999
216491.0,80.994799999999998,5312.0600000000004,5369.8999999999996,5329.9099999999999,-28.2928,7.4948699999999997,-21.282900000000001
216492.0,99.058300000000003,3557.27,3666.8099999999999,3588.5700000000002,-5.3417899999999996,-4.6179800000000002,-6.1205999999999996
216493.0,164.381,4705.75,4715.0600000000004,4713.4099999999999,-83.455699999999993,16.348199999999999,-41.836599999999997
216494.0,111.19799999999999,676.47500000000002,766.80200000000002,707.88099999999997,-38.863199999999999,-3.3914,-22.294499999999999
216495.0,89.590900000000005,-1881.21,-1833.5699999999999,-1891.45,36.158700000000003,5.6656500000000003,19.5426
216496.0,118.69,-1700.6300000000001,-1661.27,-1717.21,53.114699999999999,6.4908799999999998,31.731000000000002
216497.0,69.282799999999995,65.2791,131.089,68.858400000000003,12.6564,1.75658,8.20885
216498.0,77.188100000000006,-2327.4699999999998,-2244.0700000000002,-2308.8699999999999,-8.2226599999999994,-1.15377,0.52269900000000002
216499.0,101.66800000000001,-399.964,-302.90499999999997,-372.78300000000002,-29.9038,-3.0798100000000002,-5.8918200000000001
216500.0,126.901,-420.91800000000001,-308.089,-383.35000000000002,-43.556100000000001,-4.1924000000000001,-12.3371
216501.0,120.032,-404.02999999999997,-296.358,-367.74400000000003,-40.095100000000002,-3.1438000000000001,-13.5663
216502.0,102.794,1182.3,1278.0799999999999,1215.6099999999999,-30.702400000000001,-3.8908299999999998,-14.145099999999999
216503.0,119.627,1915.1400000000001,2000.8399999999999,1944.75,-45.6738,-3.2992900000000001,-27.9026
216504.0,129.69399999999999,2222.6700000000001,2298.0599999999999,2248.73,-55.106200000000001,-1.5080800000000001,-33.191699999999997
216505.0,129.547,2607.3000000000002,2669.5500000000002,2628.5900000000001,-58.5623,0.78911399999999998,-34.101900000000001
216506.0,143.429,3137.3099999999999,3187.2800000000002,3154.52,-69.238799999999998,3.6600700000000002,-37.488100000000003
216507.0,139.578,-3113.2600000000002,-3062.0500000000002,-3096.6700000000001,-66.906199999999998,5.7227499999999996,-36.084099999999999
216508.0,163.16200000000001,4134.7399999999998,4152.8999999999996,4141.9200000000001,-83.444299999999998,12.770799999999999,-40.795299999999997
216509.0,161.06999999999999,5201.5,5198.6599999999999,5206.5299999999997,-79.422499999999999,20.471299999999999,-43.646000000000001
216510.0,163.85900000000001,5574.5699999999997,5568.0600000000004,5576.2600000000002,-78.984499999999997,21.516200000000001,-47.219099999999997
216511.0,144.489,5857.4200000000001,5864.7799999999997,5861.8000000000002,-68.683700000000002,18.446899999999999,-43.446100000000001
216512.0,103.952,5794.0200000000004,5826.1599999999999,5804.9899999999998,-46.418100000000003,13.1622,-31.736999999999998
216513.0,79.630200000000002,-5615.2700000000004,-5588.8199999999997,-5607.3699999999999,-33.356900000000003,15.014699999999999,-24.314499999999999
216514.0,81.867400000000004,4527.6000000000004,4612.3699999999999,4552.6899999999996,-13.624499999999999,1.2940100000000001,-12.2652
216515.0,122.03700000000001,2443.5100000000002,2578.2199999999998,2480.6999999999998,0.97038000000000002,-11.068300000000001,-0.88847100000000001
216516.0,128.47900000000001,1265.8399999999999,1406.73,1302.8699999999999,0.21137800000000001,-12.932600000000001,0.73100900000000002
216517.0,118.068,211.06999999999999,340.471,243.50399999999999,-2.3366500000000001,-10.3249,1.2020299999999999
216518.0,66.2239,88.768000000000001,26.987100000000002,80.549400000000006,-14.041399999999999,4.20357,-11.021800000000001
216519.0,152.67699999999999,519.24300000000005,572.399,503.92700000000002,70.347099999999998,9.9882399999999993,37.818199999999997
216520.0,121.5,2523.1700000000001,2582.1999999999998,2513.04,51.032299999999999,6.7377799999999999,29.598099999999999
216521.0,95.385599999999997,779.24300000000005,858.37900000000002,783.30799999999999,28.437899999999999,2.51736,15.2302
216522.0,89.094399999999993,1380.1800000000001,1476.26,1398.6600000000001,3.5303900000000001,-0.555087,5.8225499999999997
216523.0,102.377,2119.3400000000001,2229.0300000000002,2149.71,-16.4041,-3.2099000000000002,-2.6097299999999999
216524.0,125.961,837.98500000000001,958.03700000000003,876.13599999999997,-37.750799999999998,-4.6112399999999996,-8.9300099999999993
216525.0,103.925,-1496.03,-1399.4300000000001,-1464.6400000000001,-31.332000000000001,-3.8737400000000002,-13.236700000000001
216526.0,109.849,-430.68400000000003,-330.38400000000001,-399.952,-32.677300000000002,-5.83969,-16.722799999999999
216527.0,118.523,-838.01199999999994,-742.63199999999995,-808.21900000000005,-40.679499999999997,-4.64642,-25.001799999999999
216528.0,125.735,-1927.04,-1836.49,-1898.3699999999999,-47.2164,-3.71774,-29.742599999999999
216529.0,126.34099999999999,-2165.8899999999999,-2091.0500000000002,-2142.0100000000002,-52.905799999999999,-0.42146800000000001,-32.560099999999998
216530.0,136.25399999999999,-2613.5900000000001,-2545.1399999999999,-2591.3000000000002,-61.029699999999998,1.2181200000000001,-35.262300000000003
216531.0,153.62700000000001,-3549.0599999999999,-3512.1900000000001,-3536.9899999999998,-76.772199999999998,9.9391599999999993,-38.999200000000002
216532.0,159.68600000000001,-4089.4200000000001,-4070.3200000000002,-4082.27,-81.301500000000004,14.361599999999999,-39.882399999999997
216533.0,154.85599999999999,-4684.5900000000001,-4678.1099999999997,-4680.5699999999997,-77.598399999999998,17.445900000000002,-40.705100000000002
216534.0,161.06800000000001,-5091.6199999999999,-5093.79,-5091.5799999999999,-78.607100000000003,19.834800000000001,-45.535699999999999
216535.0,153.554,-5477.3199999999997,-5487.1300000000001,-5481.2200000000003,-73.342299999999994,21.755299999999998,-44.528799999999997
216536.0,115.637,-5762.7700000000004,-5763.71,-5763.6800000000003,-53.1783,20.501799999999999,-34.767499999999998
216537.0,63.903500000000001,-5078.1300000000001,-5024.5600000000004,-5062.2700000000004,-17.479900000000001,8.82315,-14.8538
216538.0,76.299999999999997,-4297.6999999999998,-4214.8800000000001,-4273.3299999999999,-7.5276100000000001,2.0628799999999998,-8.2465200000000003
216539.0,96.579400000000007,-3337.8600000000001,-3229.9699999999998,-3306.8200000000002,-0.226629,-4.1455599999999997,-2.7360600000000002
216540.0,121.899,-2251.71,-2116.8699999999999,-2213.7199999999998,0.91575200000000001,-10.8606,-0.45845799999999998
216541.0,128.56800000000001,-1128.0999999999999,-986.74199999999996,-1089.8,-1.4571799999999999,-12.7392,0.51074600000000003
216542.0,241.45599999999999,-1126.9100000000001,-1076.8099999999999,-1152.6900000000001,125.241,23.2346,41.468499999999999
216543.0,151.91499999999999,-1443.6500000000001,-1430.6600000000001,-1471.55,75.572199999999995,8.8022200000000002,38.308199999999999
216544.0,117.794,485.53800000000001,594.01499999999999,522.55600000000004,-39.312600000000003,-5.0805800000000003,-3.6349100000000001
216545.0,158.83699999999999,3730.7399999999998,3762.1799999999998,3735.5999999999999,-84.508200000000002,7.6226599999999998,-30.3919
216546.0,81.454099999999997,4959.8599999999997,5018.1899999999996,4974.1300000000001,-31.2392,4.7045599999999999,-16.996099999999998
216547.0,94.809700000000007,3281.9400000000001,3386.8099999999999,3313.7600000000002,-7.8739400000000002,-5.0474500000000004,-4.1991300000000003
216548.0,162.745,4878.71,4890.3000000000002,4875.0799999999999,-86.688800000000001,11.460900000000001,-33.453699999999998
216549.0,107.73999999999999,2284.0900000000001,2372.0599999999999,2312.9200000000001,-41.763100000000001,-4.6169799999999999,-9.6211400000000005
216550.0,84.9833,-419.572,-372.09399999999999,-429.19799999999998,32.587299999999999,4.2138999999999998,19.8262
216551.0,121.872,-114.379,-73.642399999999995,-135.084,54.337400000000002,7.8993000000000002,30.9648
216552.0,67.285899999999998,-2289.6500000000001,-2223.3400000000001,-2283.2800000000002,7.4926300000000001,0.126444,10.712
216553.0,82.174099999999996,695.18299999999999,780.94200000000001,715.35400000000004,-14.8903,-1.8926400000000001,3.8746999999999998
216554.0,111.568,-245.536,-144.31,-215.83000000000001,-37.739899999999999,-2.6896300000000002,-3.2023999999999999
216555.0,137.10300000000001,1107.4000000000001,1225.3399999999999,1147.1199999999999,-50.809100000000001,-4.68804,-7.8125900000000001
216556.0,121.944,-797.65700000000004,-692.30899999999997,-763.11199999999997,-44.887999999999998,-3.0465599999999999,-6.9581099999999996
216557.0,98.413899999999998,1256.73,1350.01,1287.25,-30.672999999999998,-4.4622999999999999,-2.3637100000000002
216558.0,116.63200000000001,1746.45,1829.5999999999999,1773.3900000000001,-49.999499999999998,-4.7063300000000003,-14.578900000000001
216559.0,127.791,2232.3099999999999,2304.1399999999999,2254.25,-60.710799999999999,-3.0790099999999998,-19.8292
216560.0,131.97800000000001,2722.5300000000002,2780.5900000000001,2738.0900000000001,-66.381,-0.49642799999999998,-22.274000000000001
216561.0,151.42599999999999,3151.9099999999999,3197.9099999999999,3161.75,-79.395799999999994,2.7366600000000001,-27.302600000000002
216562.0,149.53,-3139.0599999999999,-3091.21,-3129.71,-77.819999999999993,4.4171899999999997,-27.101400000000002
216563.0,165.08699999999999,4353.5500000000002,4372.6000000000004,4353.1499999999996,-87.867500000000007,10.685700000000001,-33.556800000000003
216564.0,149.60599999999999,5209.9099999999999,5218.2399999999998,5207.9300000000003,-78.958100000000002,13.610300000000001,-31.797799999999999
216565.0,138.13900000000001,5440.4300000000003,5445.5799999999999,5436.6400000000003,-71.524699999999996,14.940099999999999,-31.6493
216566.0,128.86799999999999,5542.1400000000003,5555.1499999999996,5539.1599999999999,-65.601200000000006,13.1509,-31.413900000000002
216567.0,102.804,5409.4899999999998,5444.1099999999997,5414.7700000000004,-49.424799999999998,9.2872299999999992,-25.4162
216568.0,78.435699999999997,-5240.5,-5212.3800000000001,-5238.1700000000001,-36.3581,10.684900000000001,-19.265699999999999
216569.0,80.953400000000002,4230.0699999999997,4313.0799999999999,4253.6999999999998,-16.3903,-0.33564500000000003,-9.2958099999999995
216570.0,113.834,2237.8099999999999,2364.73,2277.4200000000001,-1.1884600000000001,-10.0533,0.15428600000000001
216571.0,118.045,1160.1199999999999,1291.21,1200.6400000000001,-1.7381,-11.608499999999999,1.56393
216572.0,107.41500000000001,188.869,307.97500000000002,224.63399999999999,-3.8379799999999999,-9.6176499999999994,1.9001399999999999
216573.0,65.963499999999996,79.688599999999994,18.279,73.096800000000002,-14.674899999999999,2.1549900000000002,-9.6851199999999995
216574.0,161.56100000000001,884.82000000000005,942.88300000000004,863.59699999999998,73.954099999999997,12.7584,37.201599999999999
216575.0,122.756,-334.33800000000002,-270.26799999999997,-345.77999999999997,50.481000000000002,6.97865,27.741599999999998
216576.0,91.832999999999998,1690.5599999999999,1770.8900000000001,1696.9200000000001,24.104399999999998,1.3270900000000001,15.299300000000001
216577.0,89.900099999999995,760.73699999999997,858.24599999999998,782.07000000000005,-1.53413,-1.6204499999999999,7.8363699999999996
216578.0,108.40300000000001,-751.72199999999998,-639.39599999999996,-719.51499999999999,-23.5672,-3.9083700000000001,0.85028700000000002
216579.0,136.006,-607.65999999999997,-484.11200000000002,-568.14099999999996,-45.999200000000002,-4.9901200000000001,-6.6305100000000001
216580.0,100.57599999999999,-586.62699999999995,-491.95999999999998,-557.20699999999999,-31.704799999999999,-3.4448300000000001,-2.7117
216581.0,107.96299999999999,-1994.9200000000001,-1893.6099999999999,-1963.77,-33.477800000000002,-5.9206500000000002,-6.0911600000000004
216582.0,116.071,-2130.4200000000001,-2035.3599999999999,-2101.54,-43.869700000000002,-5.3022299999999998,-12.7746
216583.0,123.56999999999999,-1747.76,-1658.1900000000001,-1721.55,-51.573700000000002,-4.7954600000000003,-16.930499999999999
216584.0,126.932,-2274.5700000000002,-2200.7600000000002,-2254.8000000000002,-59.142299999999999,-1.88697,-20.229600000000001
216585.0,141.696,-2687.5999999999999,-2620.7800000000002,-2670.9099999999999,-69.898200000000003,-0.030778699999999999,-24.4452
216586.0,157.25800000000001,-3768.7399999999998,-3736.9000000000001,-3765.0599999999999,-83.038600000000002,8.1211300000000008,-31.284800000000001
216587.0,160.30799999999999,-4364.6199999999999,-4348.2299999999996,-4367.21,-85.200800000000001,10.623699999999999,-32.9895
216588.0,150.42400000000001,-4811.5,-4805.3599999999997,-4817.3299999999999,-80.205600000000004,12.538,-30.273599999999998
216589.0,138.20099999999999,-5113.3800000000001,-5109.1499999999996,-5119.2299999999996,-72.113299999999995,14.193899999999999,-30.644100000000002
216590.0,133.08799999999999,-5305.7200000000003,-5302.1899999999996,-5314.1400000000003,-68.313000000000002,14.412800000000001,-31.497900000000001
216591.0,110.095,-5397.6499999999996,-5390.4099999999999,-5404.9799999999996,-55.449800000000003,13.926500000000001,-26.8065
216592.0,63.753900000000002,-4754.4200000000001,-4701.0600000000004,-4742.0600000000004,-20.375399999999999,5.7163300000000001,-11.2667
216593.0,74.523200000000003,-3998.46,-3918.1100000000001,-3975.52,-10.275499999999999,0.131606,-5.7241400000000002
216594.0,91.751400000000004,-3065.21,-2962.4200000000001,-3033.79,-2.6932700000000001,-4.7573699999999999,-1.1702300000000001
216595.0,113.47199999999999,-2060.6399999999999,-1934.05,-2020.6099999999999,-1.5217400000000001,-10.119300000000001,0.68802600000000003
216596.0,117.98399999999999,-1024.6199999999999,-893.64999999999998,-983.61500000000001,-3.3460000000000001,-11.7704,1.50448
216597.0,247.226,2446.8899999999999,2492.2800000000002,2414.4200000000001,130.95400000000001,22.0989,34.7378
216598.0,154.79400000000001,461.44299999999998,472.43000000000001,425.02300000000002,79.626900000000006,6.4659399999999998,31.449100000000001
216599.0,120.691,1805.72,1913.1800000000001,1840.0,-42.558,-5.49308,-1.03837
216600.0,162.595,4165.1700000000001,4199.8299999999999,4164.71,-89.859700000000004,4.44475,-17.6661
216601.0,84.089399999999998,4782.9499999999998,4842.7700000000004,4793.4499999999998,-33.915999999999997,2.2037,-13.475199999999999
216602.0,94.642799999999994,3149.5999999999999,3253.4400000000001,3180.48,-10.0953,-5.3737700000000004,-3.4965299999999999
216603.0,156.524,5002.0299999999997,5013.2600000000002,4989.2799999999997,-85.5916,8.5945699999999992,-24.9573
216604.0,115.68000000000001,1035.5999999999999,1121.8399999999999,1061.5899999999999,-49.7316,-5.4406600000000003,-0.78336399999999995
216605.0,82.240899999999996,-1826.8,-1776.0,-1835.0999999999999,28.700099999999999,4.0008299999999997,19.773299999999999
216606.0,120.702,-1754.1600000000001,-1713.22,-1777.8499999999999,54.718400000000003,7.3214399999999999,27.193200000000001
216607.0,71.496700000000004,227.57400000000001,299.197,235.11699999999999,2.73786,0.27426299999999998,12.1464
216608.0,91.478700000000003,-2070.5799999999999,-1978.51,-2049.75,-20.610099999999999,-1.4077299999999999,5.6113200000000001
216609.0,120.355,-20.353300000000001,85.604600000000005,10.6501,-43.012900000000002,-2.8038599999999998,-1.64164
216610.0,142.69300000000001,47.686399999999999,167.05000000000001,86.469800000000006,-54.883800000000001,-5.79169,-5.8155099999999997
216611.0,124.895,-866.51300000000003,-761.21400000000006,-834.37599999999998,-47.498600000000003,-3.1918099999999998,-4.5913399999999998
216612.0,102.971,1571.21,1662.96,1599.3199999999999,-35.998399999999997,-4.7339099999999998,2.5176599999999998
216613.0,126.04600000000001,2260.3200000000002,2340.9499999999998,2283.4099999999999,-59.4283,-5.6256300000000001,-2.8709799999999999
216614.0,138.744,2569.2199999999998,2637.9699999999998,2585.98,-71.235100000000003,-4.0532599999999999,-6.3558000000000003
216615.0,145.239,2993.6500000000001,3049.8099999999999,3003.96,-77.848299999999995,-1.1889700000000001,-8.7177799999999994
216616.0,162.07300000000001,3605.27,3650.46,3609.5900000000001,-89.065100000000001,1.7976099999999999,-14.0831
216617.0,158.125,-3624.6700000000001,-3580.1300000000001,-3623.71,-86.434399999999997,2.1572399999999998,-14.5411
216618.0,155.99000000000001,4599.1800000000003,4621.6000000000004,4593.21,-85.989400000000003,6.8722599999999998,-21.1084
216619.0,152.41499999999999,5411.5,5423.9300000000003,5399.8900000000003,-82.4953,8.9622799999999998,-26.705200000000001
216620.0,128.57300000000001,5532.71,5546.8999999999996,5524.6099999999997,-68.507000000000005,9.4180600000000005,-24.517499999999998
216621.0,115.354,5462.9700000000003,5482.8400000000001,5457.3800000000001,-60.389400000000002,8.4992699999999992,-23.183299999999999
216622.0,100.947,5261.3800000000001,5299.1300000000001,5262.4799999999996,-50.180700000000002,5.5993000000000004,-19.642199999999999
216623.0,79.6267,-5087.8699999999999,-5056.2200000000003,-5089.6999999999998,-38.6755,6.4537500000000003,-14.8916
216624.0,83.007099999999994,4044.2800000000002,4127.75,4065.4499999999998,-18.845099999999999,-1.71794,-7.4893200000000002
216625.0,110.56,2140.04,2263.7399999999998,2180.3800000000001,-3.0395099999999999,-9.2597699999999996,0.11869200000000001
216626.0,112.51000000000001,1097.1600000000001,1223.03,1139.3699999999999,-3.2439900000000002,-10.1731,1.19495
216627.0,101.352,185.316,298.63999999999999,223.32599999999999,-4.9559499999999996,-8.3869199999999999,1.61842
216628.0,64.318600000000004,96.229500000000002,37.756900000000002,94.865600000000001,-14.786799999999999,0.44026100000000001,-6.8116199999999996
216629.0,164.46899999999999,670.49199999999996,729.85599999999999,643.42499999999995,76.953199999999995,12.1335,31.514299999999999
216630.0,121.125,2594.6599999999999,2662.4400000000001,2583.5100000000002,48.822299999999998,6.6132099999999996,25.261900000000001
216631.0,92.537099999999995,664.62,749.45799999999997,672.10500000000002,19.245100000000001,1.2547999999999999,16.620899999999999
216632.0,95.628100000000003,1163.6099999999999,1265.96,1185.6199999999999,-6.9387999999999996,-1.8993599999999999,9.7085000000000008
216633.0,116.81,1798.9000000000001,1916.05,1832.0599999999999,-29.674800000000001,-3.7415099999999999,2.6617000000000002
216634.0,141.70500000000001,418.55799999999999,543.60299999999995,458.02699999999999,-50.491100000000003,-5.4133100000000001,-5.3404999999999996
216635.0,104.72199999999999,-1895.4300000000001,-1800.0999999999999,-1867.3800000000001,-35.300600000000003,-3.0464000000000002,0.28084900000000002
216636.0,113.851,-773.28899999999999,-671.94600000000003,-742.70699999999999,-39.843600000000002,-5.5705600000000004,-0.091117900000000002
216637.0,123.465,-1173.9400000000001,-1080.24,-1146.98,-52.122500000000002,-5.4535900000000002,-2.83379
216638.0,132.21299999999999,-2249.8499999999999,-2162.5500000000002,-2226.8400000000001,-61.076700000000002,-5.2085100000000004,-4.6810299999999998
216639.0,138.76499999999999,-2501.4899999999998,-2429.77,-2486.4499999999998,-70.244299999999996,-2.7333099999999999,-6.8053999999999997
216640.0,152.87799999999999,-3014.4099999999999,-2950.9699999999998,-3004.2399999999998,-80.705500000000001,-1.0704199999999999,-10.7293
216641.0,152.37899999999999,-4134.8199999999997,-4105.1999999999998,-4140.3199999999997,-83.975300000000004,4.45214,-17.6431
216642.0,151.107,-4527.4899999999998,-4507.4700000000003,-4537.4700000000003,-82.781099999999995,6.1464999999999996,-22.072800000000001
216643.0,153.66,-4969.6099999999997,-4959.8699999999999,-4983.7600000000002,-83.7744,8.3886800000000008,-25.2514
216644.0,133.14099999999999,-5339.4099999999999,-5335.75,-5353.2600000000002,-71.701700000000002,10.125299999999999,-24.081399999999999
216645.0,118.28,-5376.8800000000001,-5367.1999999999998,-5386.8500000000004,-62.635300000000001,9.5025099999999991,-23.5228
216646.0,104.229,-5298.8900000000003,-5282.8800000000001,-5307.2700000000004,-54.453099999999999,8.5028299999999994,-20.7423
216647.0,66.326300000000003,-4564.9899999999998,-4510.4700000000003,-4556.1899999999996,-22.801600000000001,3.0860699999999999,-8.9643899999999999
216648.0,75.837000000000003,-3834.5599999999999,-3754.2399999999998,-3813.6700000000001,-12.558,-1.35355,-4.5917199999999996
216649.0,90.477699999999999,-2950.2800000000002,-2849.2600000000002,-2919.3099999999999,-4.6597999999999997,-5.2431999999999999,-0.817079
216650.0,109.61799999999999,-1965.0799999999999,-1842.3099999999999,-1923.9300000000001,-3.2353900000000002,-9.4525900000000007,0.712947
216651.0,112.136,-971.30700000000002,-845.928,-928.32799999999997,-4.6925600000000003,-10.3955,1.3868799999999999
216652.0,60.835999999999999,-19.9712,7.8537800000000004,-11.800700000000001,-31.492799999999999,2.3527399999999998,-5.6387700000000001
216653.0,59.1387,7.3021700000000003,-6.7704199999999997,4.3324600000000002,-32.510399999999997,2.1683400000000002,-7.0104100000000003
216654.0,70.551000000000002,14.0328,-34.615099999999998,1.4933099999999999,-29.557099999999998,6.423,-10.311500000000001
216655.0,71.023399999999995,44.467599999999997,-11.844900000000001,31.025099999999998,-25.652200000000001,8.1326499999999999,-9.6087299999999995
216656.0,61.121200000000002,6.8497500000000002,-12.014099999999999,1.65357,-32.959499999999998,1.84321,-7.7845800000000001
216657.0,61.926099999999998,12.7813,18.732500000000002,13.336,-34.711799999999997,4.5581500000000004,-6.4645099999999998
216658.0,68.935599999999994,-116.627,-83.338499999999996,-110.43899999999999,-34.770000000000003,2.9966400000000002,-7.2545900000000003
216659.0,95.9786,35.700600000000001,45.573,34.185099999999998,-53.3812,5.4374799999999999,-12.3804
216660.0,57.1494,2.08805,12.628,6.2402600000000001,-31.9617,3.0544099999999998,-5.4422800000000002
216661.0,57.2346,9.1277100000000004,11.3172,10.6166,-32.362699999999997,3.3990200000000002,-5.6378899999999996
216662.0,57.488999999999997,8.7319399999999998,8.6412300000000002,10.093,-32.5137,2.8565499999999999,-5.9749600000000003
216663.0,57.643999999999998,7.9873500000000002,2.4970699999999999,7.8260100000000001,-32.404699999999998,2.8065500000000001,-6.31717
216664.0,58.198599999999999,10.050800000000001,0.77616099999999999,8.8266299999999998,-32.445599999999999,2.5322499999999999,-6.6718000000000002
216665.0,63.984699999999997,5.7117699999999996,-18.5428,-2.4547500000000002,-33.5854,2.36375,-8.8774499999999996
216666.0,67.642200000000003,9.3180899999999998,-20.5945,-2.27928,-34.444400000000002,3.3964300000000001,-9.9876100000000001
216667.0,70.379900000000006,5.8330700000000002,-29.2729,-8.9452400000000001,-34.9816,3.7694999999999999,-10.1251
216668.0,71.941100000000006,2.8885999999999998,-39.342500000000001,-13.532500000000001,-34.043500000000002,4.59239,-9.5870099999999994
216669.0,73.218400000000003,7.0670700000000002,-39.787300000000002,-7.61503,-32.796799999999998,5.8564499999999997,-10.135400000000001
216670.0,71.443899999999999,84.611400000000003,29.197500000000002,74.778099999999995,-25.665700000000001,8.8036700000000003,-9.5401500000000006
216671.0,65.058899999999994,81.796700000000001,30.609500000000001,76.962500000000006,-22.362300000000001,6.6906600000000003,-8.2078100000000003
216672.0,64.021000000000001,94.275700000000001,38.128300000000003,90.236800000000002,-18.276700000000002,3.66439,-6.1705399999999999
216673.0,64.481300000000005,99.337100000000007,43.079700000000003,98.243600000000001,-18.120200000000001,0.86840099999999998,-4.6892199999999997
216674.0,63.588799999999999,97.703800000000001,41.707900000000002,98.3964,-16.5564,-0.52653499999999998,-3.8970500000000001
216675.0,61.530999999999999,-21.633600000000001,3.6875300000000002,-17.0166,-32.485599999999998,1.7734099999999999,-4.6591800000000001
216676.0,56.743000000000002,13.029400000000001,-0.97123700000000002,11.649800000000001,-31.3933,1.71993,-5.0225200000000001
216677.0,73.537199999999999,-11.4107,-62.057099999999998,-27.228200000000001,-32.177399999999999,6.3516500000000002,-7.44679
216678.0,75.740700000000004,0.88231499999999996,-55.356499999999997,-12.8431,-30.382100000000001,8.1460500000000007,-7.9388300000000003
216679.0,58.613799999999998,11.775700000000001,-6.2606299999999999,9.2142599999999995,-31.934899999999999,2.0069300000000001,-5.1088500000000003
216680.0,62.1477,16.0733,21.290199999999999,13.5909,-35.127899999999997,3.3517700000000001,-5.1763700000000004
216681.0,71.081400000000002,-106.611,-74.346100000000007,-103.723,-36.447299999999998,2.0913499999999998,-5.71645
216682.0,94.186800000000005,34.561599999999999,44.634999999999998,29.666499999999999,-52.897100000000002,3.6671999999999998,-9.34117
216683.0,56.830300000000001,1.4237599999999999,10.3804,2.8878300000000001,-32.070399999999999,2.3909699999999998,-4.3873600000000001
216684.0,56.070599999999999,10.4643,11.6287,10.574299999999999,-31.9438,2.58718,-4.52339
216685.0,55.636899999999997,5.5628299999999999,4.4199599999999997,6.4258100000000002,-31.7151,2.1361500000000002,-4.5166399999999998
216686.0,55.481900000000003,11.8118,5.67882,11.750999999999999,-31.446100000000001,1.94726,-4.5844500000000004
216687.0,55.816899999999997,9.1602999999999994,-0.54509600000000002,8.7556100000000008,-31.348600000000001,1.6484799999999999,-4.7866
216688.0,61.409700000000001,11.3553,-11.6366,7.0628500000000001,-32.801200000000001,2.27379,-5.1482000000000001
216689.0,64.534099999999995,4.5226499999999996,-23.8812,-2.0028100000000002,-33.6389,2.6541100000000002,-5.3159299999999998
216690.0,68.311000000000007,3.94265,-30.504200000000001,-5.7591200000000002,-34.526000000000003,3.9130400000000001,-5.7096200000000001
216691.0,70.606200000000001,2.5699000000000001,-36.896599999999999,-10.4621,-34.4878,5.0837000000000003,-6.4903599999999999
216692.0,73.572199999999995,-2.7942999999999998,-48.397799999999997,-18.7209,-34.395299999999999,5.5987499999999999,-7.3642500000000002
216693.0,79.513599999999997,-7.5047899999999998,-67.033299999999997,-17.895299999999999,-30.530799999999999,9.4113600000000002,-8.7029800000000002
216694.0,70.338499999999996,4.8526999999999996,-51.699399999999997,-1.0583,-23.646100000000001,8.6219199999999994,-7.0304099999999998
216695.0,70.753900000000002,43.638199999999998,-20.865100000000002,36.052799999999998,-18.457100000000001,7.4668599999999996,-5.4139799999999996
216696.0,70.243399999999994,94.479399999999998,29.478100000000001,89.002200000000002,-17.6571,4.5794100000000002,-3.5004900000000001
216697.0,64.703900000000004,91.390900000000002,35.000799999999998,92.5214,-17.577500000000001,0.81231900000000001,-2.06907
216698.0,63.270899999999997,-11.631,10.224299999999999,-11.8522,-34.014400000000002,0.82447899999999996,-3.98773
216699.0,57.640900000000002,9.0021799999999992,-5.5156200000000002,6.83399,-32.115699999999997,1.50339,-3.53315
216700.0,64.973299999999995,17.055599999999998,-28.095500000000001,8.0484799999999996,-28.6751,-3.52433,1.21441
216701.0,69.042000000000002,20.7941,-31.249199999999998,8.2180800000000005,-28.774000000000001,-4.8581300000000001,-0.035592800000000001
216702.0,60.430300000000003,8.6389700000000005,-10.291399999999999,6.1716300000000004,-33.1389,1.9264600000000001,-3.0758700000000001
216703.0,62.9863,9.0740700000000007,14.902100000000001,3.9384899999999998,-35.6235,1.9540599999999999,-4.4138599999999997
216704.0,71.6126,-79.195099999999996,-48.657499999999999,-79.383499999999998,-37.172899999999998,0.91770399999999996,-3.7437999999999998
216705.0,89.203500000000005,20.247199999999999,31.784800000000001,12.6843,-50.199399999999997,1.4151400000000001,-6.1572100000000001
216706.0,57.577399999999997,5.2538499999999999,12.2936,3.34924,-32.6524,1.6417299999999999,-3.7385100000000002
216707.0,56.5411,11.1661,11.4846,8.0514399999999995,-32.366300000000003,1.5880700000000001,-3.4543900000000001
216708.0,55.628599999999999,12.2402,10.057399999999999,9.9374699999999994,-31.879100000000001,1.27956,-3.4527999999999999
216709.0,55.446800000000003,10.0611,3.2324899999999999,7.6829599999999996,-31.585100000000001,1.26772,-3.6796600000000002
216710.0,55.970599999999997,12.0154,1.72319,9.9489099999999997,-31.610900000000001,1.2966800000000001,-3.6963200000000001
216711.0,63.606699999999996,7.7753800000000002,-16.673100000000002,3.6466400000000001,-34.141800000000003,2.70242,-2.0877599999999998
216712.0,65.028000000000006,11.5951,-17.449100000000001,5.6514699999999998,-34.119900000000001,3.0154100000000001,-0.93184400000000001
216713.0,64.505499999999998,11.9924,-22.078299999999999,5.07125,-32.526699999999998,2.16153,-0.156249
216714.0,63.901000000000003,10.270899999999999,-30.283000000000001,2.56663,-29.947500000000002,0.36621500000000001,0.52853099999999997
216715.0,66.539500000000004,23.994499999999999,-20.136800000000001,15.6896,-30.3567,-1.7624599999999999,1.0870500000000001
216716.0,78.2453,4.80281,-57.614400000000003,-11.785299999999999,-31.138200000000001,-4.8840399999999997,-1.4500900000000001
216717.0,75.167500000000004,-0.42438799999999999,-62.643799999999999,-13.7737,-28.3291,-2.6109300000000002,-1.03535
216718.0,73.258899999999997,-2.61816,-69.760099999999994,-14.3005,-22.337199999999999,1.6403099999999999,-0.77420800000000001
216719.0,73.679699999999997,69.831900000000005,-3.2714500000000002,58.662500000000001,-15.6602,3.62886,-0.61288500000000001
216720.0,70.783100000000005,104.25,38.4437,99.250799999999998,-18.036200000000001,1.44676,-0.72375599999999995
216721.0,64.185000000000002,-8.2352900000000009,8.6759500000000003,-12.265700000000001,-35.200499999999998,-1.5067200000000001,-2.90246
216722.0,61.416699999999999,12.7242,-3.26579,6.8898900000000003,-34.448900000000002,0.99304400000000004,-2.0366300000000002
216723.0,53.230699999999999,96.926000000000002,62.628599999999999,96.960400000000007,-22.594100000000001,-3.4012699999999998,5.4723199999999999
216724.0,58.356299999999997,106.768,64.662000000000006,102.056,-23.993200000000002,-3.3846500000000002,3.97357
216725.0,65.428799999999995,9.7563499999999994,-10.9954,3.3826200000000002,-36.172699999999999,1.7662599999999999,-1.5472999999999999
216726.0,62.970599999999997,11.2906,16.990500000000001,4.81839,-35.734000000000002,-1.20373,-2.5123799999999998
216727.0,69.534300000000002,-45.566099999999999,-17.6844,-47.804699999999997,-36.433999999999997,-1.05983,-1.2283200000000001
216728.0,80.600200000000001,11.763199999999999,25.6693,3.70329,-45.079000000000001,-1.47977,-2.7723300000000002
216729.0,58.361600000000003,5.5804099999999996,11.178699999999999,1.7059599999999999,-33.289299999999997,-0.74907900000000005,-1.98586
216730.0,56.142499999999998,9.6638500000000001,10.1107,5.4169799999999997,-32.232599999999998,0.019797800000000001,-2.2378800000000001
216731.0,55.712200000000003,7.6367000000000003,4.3707900000000004,3.33324,-31.991399999999999,0.206095,-2.4659800000000001
216732.0,56.611899999999999,13.1326,5.7631300000000003,8.3711099999999998,-32.381599999999999,0.22692399999999999,-2.3907400000000001
216733.0,58.158999999999999,10.744400000000001,-0.42441299999999998,5.7280499999999996,-33.026600000000002,0.47000900000000001,-2.28423
216734.0,68.729600000000005,8.8184699999999996,-19.3538,1.9108700000000001,-36.761200000000002,2.6793499999999999,-0.65224899999999997
216735.0,67.668099999999995,0.169518,-29.026900000000001,-3.32369,-35.496499999999997,3.4340299999999999,0.56210499999999997
216736.0,60.405200000000001,7.7804700000000002,-28.0642,3.73075,-28.565799999999999,3.1168200000000001,2.2770800000000002
216737.0,62.094900000000003,68.361500000000007,21.342099999999999,60.309399999999997,-25.130199999999999,0.432589,4.6033600000000003
216738.0,59.628,108.71299999999999,69.781599999999997,105.919,-25.910399999999999,-2.5967899999999999,5.95845
216739.0,70.494100000000003,100.39400000000001,44.143700000000003,87.066100000000006,-27.821000000000002,-3.54277,2.42713
216740.0,80.837100000000007,84.4589,22.107299999999999,67.529200000000003,-33.557299999999998,-2.9986000000000002,1.8833299999999999
216741.0,75.931899999999999,10.6586,-51.936999999999998,-4.1544800000000004,-29.1114,0.18101,2.0597099999999999
216742.0,73.721900000000005,34.532699999999998,-40.209899999999998,19.063300000000002,-15.4291,3.7056200000000001,1.8280799999999999
216743.0,79.553200000000004,89.165499999999994,10.6219,77.436099999999996,-17.329799999999999,3.6111200000000001,1.03491
216744.0,64.4816,4.5366600000000004,16.520900000000001,-1.28599,-35.928100000000001,-3.1819600000000001,-1.6028
216745.0,67.003100000000003,4.1563299999999996,-13.3461,-5.49376,-37.652299999999997,1.2913600000000001,-0.51058199999999998
216746.0,48.737299999999998,112.794,85.765900000000002,126.148,-17.800899999999999,5.9020000000000001,4.0989399999999998
216747.0,55.594700000000003,111.64400000000001,79.033199999999994,122.50700000000001,-21.308800000000002,6.2727599999999999,4.9939600000000004
216748.0,72.228700000000003,3.8607,-20.1922,-7.71523,-39.877200000000002,1.9359,0.595221
216749.0,63.9773,16.839400000000001,23.1401,9.0385100000000005,-36.122,-2.9460500000000001,-0.99432699999999996
216750.0,66.301000000000002,-10.238099999999999,16.785799999999998,-8.7268299999999996,-34.957500000000003,-3.5415000000000001,-0.36007699999999998
216751.0,69.897800000000004,-7.4069099999999999,9.3152699999999999,-11.1854,-38.707500000000003,-3.0958999999999999,-1.2952900000000001
216752.0,61.313099999999999,21.764500000000002,27.5473,15.170199999999999,-34.7684,-2.30714,-0.76393100000000003
216753.0,57.428800000000003,10.07,11.310700000000001,3.1149200000000001,-32.807200000000002,-1.71312,-0.77243700000000004
216754.0,57.982199999999999,13.4695,9.2382899999999992,5.7738399999999999,-33.2104,-1.1601900000000001,-1.22929
216755.0,59.533499999999997,7.5806300000000002,-0.072321099999999999,0.046544700000000001,-34.059800000000003,-0.39599800000000002,-1.4007799999999999
216756.0,62.242199999999997,8.9521200000000007,-3.3531399999999998,0.56689800000000001,-35.360700000000001,0.45172000000000001,-1.12548
216757.0,75.002300000000005,4.1024399999999996,-27.4818,-9.7076899999999995,-40.215000000000003,2.1365799999999999,1.6131
216758.0,70.281700000000001,9.0087100000000007,-24.4194,-2.4548000000000001,-36.730400000000003,1.23915,2.7018599999999999
216759.0,61.545900000000003,24.354099999999999,-17.194299999999998,14.9846,-27.752300000000002,1.67648,3.83534
216760.0,61.050800000000002,91.210599999999999,44.516300000000001,86.219899999999996,-23.503499999999999,4.4993299999999996,3.5119199999999999
216761.0,53.307000000000002,121.05,89.836399999999998,129.06700000000001,-21.740600000000001,5.9491699999999996,3.0938099999999999
216762.0,63.881799999999998,96.5822,52.463200000000001,98.611800000000002,-24.582999999999998,7.6876699999999998,4.1014099999999996
216763.0,79.550299999999993,83.238900000000001,24.7181,74.128799999999998,-32.584899999999998,7.17326,2.16133
216764.0,80.803200000000004,8.4959900000000008,-56.315800000000003,-5.6665000000000001,-31.297799999999999,4.9584599999999996,3.3415599999999999
216765.0,77.607900000000001,14.5951,-60.630699999999997,-4.7962199999999999,-20.552399999999999,4.7931499999999998,6.0732999999999997
216766.0,82.777000000000001,71.291499999999999,-14.832700000000001,47.820300000000003,-15.705500000000001,4.9430100000000001,5.5347499999999998
216767.0,64.376900000000006,4.5205200000000003,17.213999999999999,-1.23,-35.705599999999997,-4.1121400000000001,0.77457799999999999
216768.0,75.226100000000002,7.8645199999999997,-12.5844,-11.366300000000001,-41.747500000000002,-0.56362599999999996,3.40143
216769.0,52.717500000000001,105.36,71.609200000000001,110.649,-19.946000000000002,3.4575800000000001,8.2488299999999999
216770.0,59.124499999999998,95.825000000000003,58.535299999999999,101.208,-22.858899999999998,3.8133499999999998,9.3852499999999992
216771.0,79.808199999999999,5.3864599999999996,-22.937799999999999,-16.072099999999999,-43.495600000000003,0.105282,3.59511
216772.0,65.332099999999997,13.2006,20.298500000000001,4.6717399999999998,-36.753599999999999,-3.1597900000000001,-0.85215399999999997
216773.0,68.633399999999995,18.723400000000002,47.608699999999999,21.824999999999999,-35.345999999999997,-7.8127800000000001,2.8874499999999999
216774.0,68.936400000000006,-0.13597600000000001,19.529800000000002,-1.74627,-37.434100000000001,-6.1685100000000004,2.09361
216775.0,63.544499999999999,11.530200000000001,17.374300000000002,3.5644200000000001,-35.9285,-2.4716,-0.973163
216776.0,61.012500000000003,3.8872100000000001,4.8633899999999999,-5.4276400000000002,-34.723399999999998,-1.6071500000000001,-0.52154699999999998
216777.0,62.807499999999997,5.8121999999999998,0.92571300000000001,-5.84361,-35.762300000000003,-1.11846,0.68929200000000002
216778.0,65.739599999999996,8.4702099999999998,-0.37736399999999998,-5.3587499999999997,-37.235399999999998,-0.97928599999999999,2.0182199999999999
216779.0,69.913799999999995,7.9291600000000004,-6.6566200000000002,-8.9359400000000004,-39.203000000000003,-0.81990399999999997,2.8353999999999999
216780.0,80.541399999999996,0.18718599999999999,-32.7288,-20.810400000000001,-43.262,1.599,3.22607
216781.0,73.550299999999993,-0.49720300000000001,-39.505600000000001,-21.127300000000002,-37.4559,3.21454,3.0165000000000002
216782.0,68.317999999999998,45.968899999999998,-1.7764599999999999,26.5716,-30.883800000000001,3.4476900000000001,3.6753999999999998
216783.0,62.5227,89.459400000000002,43.626199999999997,79.2971,-26.2437,2.7449400000000002,5.2317999999999998
216784.0,55.0685,101.535,65.771000000000001,103.012,-22.565300000000001,2.6561400000000002,7.0644
216785.0,63.840499999999999,57.836199999999998,15.5494,62.080199999999998,-24.046900000000001,3.78972,10.1998
216786.0,75.026300000000006,37.648699999999998,-21.2668,31.988800000000001,-26.842199999999998,1.92422,9.7760099999999994
216787.0,85.159000000000006,36.266399999999997,-38.618200000000002,18.211600000000001,-28.078900000000001,-0.11432299999999999,10.084300000000001
216788.0,83.739699999999999,15.423500000000001,-58.021099999999997,-5.0442799999999997,-27.998799999999999,1.5949599999999999,10.6944
216789.0,78.895499999999998,7.4070799999999997,-73.324399999999997,-16.6038,-15.1114,6.9591399999999997,8.9160299999999992
216790.0,67.190600000000003,-8.8150600000000008,9.5772700000000004,-16.055599999999998,-36.076799999999999,-4.5858100000000004,2.76946
216791.0,78.707099999999997,-6.0335799999999997,-28.675599999999999,-29.526,-43.094799999999999,0.189744,5.4944899999999999
216792.0,65.4452,105.72,60.513599999999997,94.517899999999997,-27.338899999999999,4.61097,10.236599999999999
216793.0,66.210700000000003,85.937299999999993,38.203800000000001,75.501800000000003,-25.683199999999999,4.0189000000000004,12.4802
216794.0,79.545900000000003,-3.6276700000000002,-33.834200000000003,-27.839200000000002,-42.659500000000001,-0.47435100000000002,5.77637
216795.0,70.144499999999994,-0.0926564,6.5922900000000002,-12.107699999999999,-39.0383,-4.47424,2.5078200000000002
216796.0,73.786100000000005,7.8815400000000002,38.269100000000002,3.8887100000000001,-37.833199999999998,-5.4491699999999996,0.43848999999999999
216797.0,81.334900000000005,29.035,49.801200000000001,20.7136,-44.0627,-6.0764199999999997,1.50061
216798.0,67.946700000000007,2.6493000000000002,7.2035200000000001,-10.323,-37.748399999999997,-4.4449199999999998,3.39438
216799.0,69.203699999999998,6.7527499999999998,5.3149699999999998,-9.1042500000000004,-38.450699999999998,-4.5740600000000002,4.4839000000000002
216800.0,70.1631,6.4995700000000003,2.3375300000000001,-10.957599999999999,-39.024099999999997,-3.17334,4.9863999999999997
216801.0,72.055599999999998,-1.5772699999999999,-11.808400000000001,-21.934899999999999,-40.069299999999998,-1.3756200000000001,4.4295900000000001
216802.0,75.753500000000003,-1.45617,-18.2423,-23.867799999999999,-41.894399999999997,-0.29073399999999999,4.6566000000000001
216803.0,78.602000000000004,-0.24881,-36.865600000000001,-22.363900000000001,-40.861199999999997,-2.3997700000000002,6.6333299999999999
216804.0,74.394199999999998,12.748900000000001,-28.258400000000002,-5.5733800000000002,-36.797400000000003,-2.6924800000000002,7.8451199999999996
216805.0,69.828800000000001,36.491500000000002,-9.5825200000000006,18.731400000000001,-32.092500000000001,-0.29564099999999999,7.4397700000000002
216806.0,66.486400000000003,81.183300000000003,34.580100000000002,63.374400000000001,-29.528700000000001,2.3413200000000001,6.5599699999999999
216807.0,64.022900000000007,104.843,58.283999999999999,89.127799999999993,-27.1067,3.8090099999999998,7.4839099999999998
216808.0,69.664100000000005,94.206100000000006,37.391300000000001,80.378100000000003,-22.926200000000001,0.36318800000000001,14.632899999999999
216809.0,77.876099999999994,96.801299999999998,32.648299999999999,80.179900000000004,-24.988700000000001,-2.2176200000000001,16.8431
216810.0,82.630799999999994,92.022800000000004,18.6905,71.8399,-24.377700000000001,-1.89432,15.5923
216811.0,80.226600000000005,49.385300000000001,-17.212299999999999,35.753799999999998,-26.738900000000001,-3.3307199999999999,13.476900000000001
216812.0,72.853399999999993,6.4048100000000003,-62.972099999999998,-3.6377799999999998,-14.281700000000001,-2.9906899999999998,12.2691
216813.0,73.162499999999994,-19.869299999999999,1.7152099999999999,-31.713899999999999,-37.7376,-6.3727900000000002,5.6767799999999999
216814.0,72.711100000000002,4.3644299999999996,-17.8263,-10.2973,-38.168799999999997,-6.1071799999999996,11.8659
216815.0,75.812299999999993,89.3018,35.1145,73.006399999999999,-31.564599999999999,1.32809,12.034000000000001
216816.0,72.220200000000006,58.189799999999998,3.4946700000000002,42.893099999999997,-27.407499999999999,3.32802,13.4178
216817.0,72.721800000000002,15.7563,-14.1683,-0.61833300000000002,-36.720599999999997,-6.8056299999999998,11.9819
216818.0,78.565899999999999,0.54399799999999998,7.19895,-17.695900000000002,-42.373800000000003,-7.1796100000000003,6.6576500000000003
216819.0,75.6554,-63.212800000000001,-33.449399999999997,-69.664299999999997,-38.681399999999996,-5.61294,2.6437300000000001
216820.0,93.267099999999999,12.649900000000001,28.416799999999999,-1.2020900000000001,-51.047899999999998,-7.5706100000000003,4.0938400000000001
216821.0,74.066500000000005,-7.6481000000000003,-3.2121599999999999,-26.477599999999999,-39.996400000000001,-5.36625,6.8935700000000004
216822.0,75.207400000000007,7.6686500000000004,4.8595800000000002,-14.1602,-41.005099999999999,-4.3571499999999999,6.6298300000000001
216823.0,71.865600000000001,-1.3778900000000001,-6.7285700000000004,-21.0063,-39.376600000000003,-4.17455,7.1172000000000004
216824.0,71.453199999999995,-0.276646,-14.169499999999999,-18.528500000000001,-38.7639,-5.3333199999999996,8.9392300000000002
216825.0,73.425299999999993,4.2496700000000001,-13.4101,-11.3314,-39.322800000000001,-5.8737300000000001,11.097099999999999
216826.0,74.1417,50.204799999999999,11.6806,30.175599999999999,-35.549700000000001,-7.3486599999999997,11.9718
216827.0,75.223799999999997,84.864699999999999,43.531300000000002,64.362799999999993,-35.480699999999999,-7.3129499999999998,12.113099999999999
216828.0,70.920100000000005,82.876199999999997,43.059800000000003,66.3446,-33.276699999999998,-5.2060899999999997,11.9153
216829.0,68.239999999999995,68.069199999999995,25.517099999999999,54.216900000000003,-30.965199999999999,-1.6567499999999999,10.936299999999999
216830.0,70.620199999999997,70.320400000000006,17.619700000000002,53.583399999999997,-28.8597,0.49171799999999999,10.2043
216831.0,75.462299999999999,94.112200000000001,26.6785,74.171199999999999,-21.9129,5.3442499999999997,13.761100000000001
216832.0,77.381200000000007,109.559,43.333300000000001,93.717399999999998,-23.374400000000001,5.2839700000000001,15.0259
216833.0,71.794799999999995,103.425,40.819099999999999,93.772900000000007,-19.060099999999998,2.8718499999999998,14.5084
216834.0,69.2333,88.486599999999996,29.003399999999999,83.210099999999997,-18.026499999999999,-1.14714,13.689399999999999
216835.0,68.412000000000006,87.453000000000003,24.260200000000001,82.506100000000004,-11.877599999999999,-4.6162400000000003,12.752000000000001
216836.0,77.862799999999993,-28.911300000000001,-5.1707999999999998,-41.360399999999998,-38.767400000000002,-8.5109399999999997,10.3673
216837.0,68.352800000000002,73.177700000000002,52.165500000000002,58.545499999999997,-34.213200000000001,-8.6482299999999999,13.9992
216838.0,81.034700000000001,82.178799999999995,22.201599999999999,62.748399999999997,-31.978300000000001,-2.6686399999999999,14.922000000000001
216839.0,80.450699999999998,64.249899999999997,1.5373600000000001,46.8294,-29.3245,-2.01858,15.668100000000001
216840.0,68.891900000000007,89.732900000000001,61.3172,73.600300000000004,-33.851599999999998,-7.1604099999999997,13.480700000000001
216841.0,81.646799999999999,-2.9556800000000001,3.1744500000000002,-22.607900000000001,-42.877600000000001,-9.4577899999999993,10.6165
216842.0,81.459699999999998,-94.995199999999997,-63.158700000000003,-104.562,-38.570999999999998,-11.275,11.276199999999999
216843.0,104.67,11.222799999999999,23.188700000000001,-6.0998900000000003,-55.603700000000003,-13.5014,12.6898
216844.0,73.696700000000007,-6.9374399999999996,-3.1463800000000002,-24.025099999999998,-38.713700000000003,-8.8058300000000003,10.5069
216845.0,72.211100000000002,1.94574,-2.46963,-12.988,-38.392200000000003,-9.1694999999999993,11.0114
216846.0,67.569400000000002,16.919699999999999,8.4992999999999999,3.76294,-35.2742,-9.06067,12.292299999999999
216847.0,69.624300000000005,52.853400000000001,36.143300000000004,36.932000000000002,-35.3264,-9.8196999999999992,13.5121
216848.0,70.926400000000001,73.620900000000006,57.1751,59.284100000000002,-36.065899999999999,-9.4566999999999997,14.3735
216849.0,68.510900000000007,96.944299999999998,63.403500000000001,80.242099999999994,-33.415100000000002,-4.1224999999999996,12.2379
216850.0,69.605800000000002,106.617,67.931899999999999,89.001900000000006,-33.489600000000003,-1.62243,10.755599999999999
216851.0,69.757499999999993,102.26900000000001,62.4664,85.689800000000005,-33.133099999999999,-1.58908,11.0443
216852.0,71.873699999999999,94.205299999999994,49.045499999999997,77.389700000000005,-31.847799999999999,-3.5191499999999998,13.204000000000001
216853.0,76.447299999999998,88.061199999999999,34.668999999999997,69.622600000000006,-31.4328,-3.6575700000000002,14.5345
216854.0,77.354699999999994,67.142899999999997,0.99683100000000002,52.574300000000001,-23.4512,-0.33302199999999998,15.3803
216855.0,73.890900000000002,73.117000000000004,5.9667700000000004,62.4696,-18.173200000000001,1.08609,13.6379
216856.0,66.069900000000004,105.773,47.747900000000001,102.902,-14.9526,2.4500199999999999,12.488300000000001
216857.0,62.255299999999998,99.382900000000006,45.949199999999998,101.36199999999999,-12.3439,4.0666099999999998,11.607200000000001
216858.0,62.601300000000002,119.32599999999999,63.597000000000001,120.914,-10.635199999999999,5.63734,9.7901199999999999
216859.0,80.8476,-8.3021999999999991,19.6038,-13.459099999999999,-38.298000000000002,-11.1556,16.467400000000001
216860.0,63.766300000000001,101.43899999999999,80.362300000000005,85.916700000000006,-33.3264,-3.3620700000000001,10.681100000000001
216861.0,82.4071,92.446799999999996,28.499199999999998,71.484700000000004,-30.604399999999998,-4.91052,15.4969
216862.0,85.006799999999998,82.133499999999998,15.942600000000001,62.342700000000001,-31.1953,-4.47607,16.162500000000001
216863.0,66.362099999999998,102.092,74.372299999999996,85.932299999999998,-33.7624,-2.4453499999999999,11.324
216864.0,75.634699999999995,-1.4932700000000001,7.52163,-14.945,-37.8827,-11.3439,14.671799999999999
216865.0,81.229500000000002,-100.366,-69.275199999999998,-112.94199999999999,-37.167099999999998,-12.536300000000001,12.4732
216866.0,108.111,34.375500000000002,40.287300000000002,17.138500000000001,-56.168300000000002,-17.638300000000001,16.892600000000002
216867.0,69.105500000000006,11.319599999999999,9.3206500000000005,-4.8892800000000003,-34.572099999999999,-12.8025,12.4343
216868.0,73.875699999999995,68.246899999999997,61.397799999999997,53.5593,-36.813899999999997,-13.9651,14.659800000000001
216869.0,67.058099999999996,80.085499999999996,74.309100000000001,67.100499999999997,-33.650700000000001,-10.6616,14.510899999999999
216870.0,63.975099999999998,95.539199999999994,81.663499999999999,79.896799999999999,-33.010800000000003,-7.5915699999999999,11.980700000000001
216871.0,64.094800000000006,101.419,85.607399999999998,86.586500000000001,-33.875700000000002,-5.0236900000000002,10.866899999999999
216872.0,67.498699999999999,97.826999999999998,66.028499999999994,83.031199999999998,-33.260100000000001,-2.35419,12.398400000000001
216873.0,69.227599999999995,92.417900000000003,54.768500000000003,77.975099999999998,-32.352800000000002,-3.0570300000000001,13.4414
216874.0,71.153300000000002,91.861099999999993,48.9846,76.095600000000005,-31.817299999999999,-2.97485,14.002800000000001
216875.0,75.254000000000005,100.87,49.837400000000002,81.189800000000005,-31.925000000000001,-2.7852800000000002,14.0829
216876.0,77.773200000000003,94.689400000000006,40.8827,75.236000000000004,-32.267699999999998,-3.2576900000000002,14.903700000000001
216877.0,75.334999999999994,67.332099999999997,3.6878000000000002,50.101900000000001,-24.537099999999999,-2.2839499999999999,14.1731
216878.0,72.516900000000007,79.081100000000006,8.3305500000000006,63.1875,-15.686999999999999,-1.19828,11.2898
216879.0,64.6648,113.274,55.7622,109.78,-14.732699999999999,1.7984199999999999,11.572900000000001
216880.0,59.592399999999998,90.489900000000006,38.746499999999997,94.066900000000004,-10.274900000000001,3.6845500000000002,10.304500000000001
216881.0,60.471299999999999,103.246,53.566200000000002,110.14700000000001,-11.928900000000001,5.2093999999999996,9.8311600000000006
216882.0,83.360399999999998,51.689500000000002,82.426400000000001,48.806100000000001,-37.669899999999998,-13.8596,18.920400000000001
216883.0,67.821700000000007,86.373000000000005,64.299999999999997,72.171999999999997,-33.978900000000003,-6.6520999999999999,14.4674
216884.0,81.911500000000004,102.54000000000001,36.886400000000002,82.507599999999996,-29.2759,-6.2067899999999998,14.447699999999999
216885.0,82.234399999999994,84.224000000000004,21.168800000000001,69.581100000000006,-30.308399999999999,-5.1067400000000003,14.8483
216886.0,70.894099999999995,86.744500000000002,58.295200000000001,70.876300000000001,-34.550400000000003,-6.8627799999999999,15.207000000000001
216887.0,70.202799999999996,22.177700000000002,34.343200000000003,13.4352,-32.9251,-14.0472,15.847899999999999
216888.0,76.389200000000002,-91.619799999999998,-64.058199999999999,-99.670699999999997,-33.058300000000003,-15.1311,16.5686
216889.0,106.889,69.521799999999999,70.773799999999994,54.386800000000001,-52.906999999999996,-21.519100000000002,21.5167
216890.0,64.393799999999999,51.511299999999999,47.397399999999998,36.883800000000001,-31.162199999999999,-13.1006,13.512
216891.0,70.061300000000003,99.801000000000002,93.566100000000006,84.001000000000005,-35.870399999999997,-10.488300000000001,13.273099999999999
216892.0,63.988599999999998,95.026300000000006,91.359700000000004,81.371399999999994,-33.357900000000001,-7.57104,12.034700000000001
216893.0,62.815600000000003,91.837299999999999,80.511200000000002,77.972300000000004,-32.491700000000002,-7.2521199999999997,12.3477
216894.0,64.808999999999997,89.636200000000002,73.805599999999998,76.433099999999996,-33.144399999999997,-6.65381,13.611499999999999
216895.0,73.308499999999995,88.032200000000003,53.183199999999999,69.739999999999995,-34.607199999999999,-6.8269099999999998,15.5966
216896.0,75.439599999999999,94.144199999999998,52.665300000000002,73.5488,-34.1785,-6.5323399999999996,16.002199999999998
216897.0,76.120599999999996,93.215000000000003,47.032200000000003,73.076999999999998,-32.976399999999998,-6.0440100000000001,16.472799999999999
216898.0,77.761200000000002,91.713399999999993,39.089399999999998,72.613500000000002,-31.66,-6.22044,16.275600000000001
216899.0,77.634900000000002,88.811499999999995,33.725000000000001,71.356399999999994,-30.5303,-5.76647,15.8477
216900.0,70.403499999999994,57.753599999999999,-1.7550600000000001,48.462699999999998,-21.627400000000002,-2.7032600000000002,12.339399999999999
216901.0,70.473699999999994,78.953000000000003,10.4268,68.595500000000001,-14.3453,-2.2519499999999999,8.9555199999999999
216902.0,61.456600000000002,114.736,60.450099999999999,113.679,-14.310700000000001,0.90728900000000001,9.4751799999999999
216903.0,58.524999999999999,91.126300000000001,38.248600000000003,92.679599999999994,-10.418200000000001,2.82267,8.0634999999999994
216904.0,60.8949,98.701599999999999,48.831200000000003,103.018,-14.766,4.3048700000000002,9.6183999999999994
216905.0,76.893600000000006,48.6599,70.937600000000003,40.541200000000003,-36.281199999999998,-13.2614,15.198499999999999
216906.0,76.414599999999993,87.300700000000006,62.838700000000003,67.9786,-36.295999999999999,-11.016,18.4739
216907.0,79.530600000000007,94.479900000000001,32.207099999999997,79.471800000000002,-28.368500000000001,-8.0266199999999994,13.5273
216908.0,78.133099999999999,83.2517,21.357600000000001,72.551400000000001,-26.956399999999999,-7.4965700000000002,12.5586
216909.0,78.352599999999995,85.307100000000005,54.509399999999999,64.845799999999997,-36.383299999999998,-11.058199999999999,18.832899999999999
216910.0,71.153700000000001,77.368700000000004,86.266900000000007,67.621700000000004,-33.445999999999998,-14.9017,16.122900000000001
216911.0,77.177899999999994,-59.110199999999999,-30.845099999999999,-65.711600000000004,-32.877000000000002,-14.9634,18.3752
216912.0,97.354900000000001,78.641300000000001,84.511399999999995,63.067700000000002,-48.1173,-18.1633,19.7822
216913.0,65.193299999999994,72.037199999999999,74.851399999999998,60.663499999999999,-30.5411,-12.6526,16.3537
216914.0,67.721999999999994,89.762,87.311400000000006,78.252499999999998,-33.085099999999997,-11.5389,16.255099999999999
216915.0,66.293199999999999,77.655799999999999,73.816500000000005,66.5154,-32.724400000000003,-10.5868,15.8094
216916.0,69.713499999999996,87.834800000000001,76.092799999999997,73.053799999999995,-34.179099999999998,-10.9549,16.457000000000001
216917.0,73.105699999999999,83.507900000000006,66.438999999999993,66.470799999999997,-35.4422,-10.778700000000001,17.669599999999999
216918.0,79.161600000000007,86.349199999999996,49.411000000000001,65.851699999999994,-35.701000000000001,-11.000500000000001,18.729800000000001
216919.0,79.399699999999996,84.613699999999994,42.007899999999999,64.933199999999999,-34.677599999999998,-10.8224,18.0855
216920.0,78.431399999999996,84.879199999999997,38.057099999999998,66.081800000000001,-33.180300000000003,-10.2118,17.032699999999998
216921.0,78.902299999999997,92.812299999999993,39.9617,73.870099999999994,-31.767099999999999,-9.6559299999999997,15.995100000000001
216922.0,77.356399999999994,88.663399999999996,33.435600000000001,72.373999999999995,-29.8126,-8.2883099999999992,15.2286
216923.0,69.298100000000005,89.485600000000005,30.7117,83.312399999999997,-20.329899999999999,-5.6125499999999997,10.616899999999999
216924.0,66.982600000000005,86.206299999999999,23.965299999999999,80.670599999999993,-15.3155,-3.06759,8.0562699999999996
216925.0,58.327199999999998,114.048,62.072200000000002,115.254,-12.7136,1.2114499999999999,7.0028600000000001
216926.0,59.525599999999997,89.155100000000004,35.6905,92.797799999999995,-10.869300000000001,1.7244600000000001,6.1501700000000001
216927.0,62.135300000000001,81.731800000000007,33.053600000000003,89.9422,-15.9514,2.3953700000000002,9.0107800000000005
216928.0,72.215699999999998,44.144500000000001,57.570500000000003,38.463200000000001,-32.7592,-14.987399999999999,18.555499999999999
216929.0,79.955699999999993,76.180599999999998,51.636499999999998,59.974699999999999,-36.085000000000001,-14.5928,21.450700000000001
216930.0,76.963499999999996,94.365499999999997,36.1646,83.133899999999997,-28.011500000000002,-10.0634,11.6309
216931.0,75.061899999999994,84.770099999999999,23.416699999999999,74.784400000000005,-25.233499999999999,-8.0069700000000008,9.6692
216932.0,80.430199999999999,78.315200000000004,47.998199999999997,62.0199,-35.774299999999997,-14.6473,20.779299999999999
216933.0,74.905100000000004,89.380300000000005,96.478300000000004,80.256,-34.655999999999999,-15.42,19.113099999999999
216934.0,79.996799999999993,-16.693000000000001,17.159099999999999,-14.2967,-32.939500000000002,-15.111599999999999,21.515799999999999
216935.0,85.555300000000003,30.944600000000001,44.989699999999999,27.512499999999999,-39.705599999999997,-17.297999999999998,21.872299999999999
216936.0,69.179900000000004,75.752399999999994,83.610799999999998,65.670199999999994,-31.661899999999999,-13.3927,18.236499999999999
216937.0,71.387,84.447000000000003,83.047700000000006,71.3352,-32.985500000000002,-14.077199999999999,18.990600000000001
216938.0,73.536500000000004,80.431799999999996,75.6785,66.8797,-34.046999999999997,-13.5776,20.290700000000001
216939.0,76.423900000000003,77.367900000000006,64.945499999999996,62.326999999999998,-35.197600000000001,-14.0863,21.095300000000002
216940.0,78.642799999999994,77.4666,59.385899999999999,61.884500000000003,-35.982799999999997,-14.2842,21.604800000000001
216941.0,80.1126,79.403000000000006,43.7121,63.050800000000002,-35.021700000000003,-14.469200000000001,19.602699999999999
216942.0,79.7333,84.835400000000007,43.708100000000002,68.450400000000002,-34.040399999999998,-14.110099999999999,18.237400000000001
216943.0,78.361800000000002,84.489999999999995,39.319499999999998,69.274299999999997,-32.582000000000001,-13.1707,16.840699999999998
216944.0,78.229299999999995,85.721599999999995,35.080800000000004,71.753399999999999,-31.194400000000002,-12.398,15.134600000000001
216945.0,76.002099999999999,83.603899999999996,30.422799999999999,71.530299999999997,-29.193100000000001,-10.9292,13.283300000000001
216946.0,68.794799999999995,102.447,43.133000000000003,95.509399999999999,-21.209800000000001,-4.4997100000000003,7.4753100000000003
216947.0,64.401600000000002,83.381299999999996,25.216799999999999,80.104299999999995,-16.773900000000001,-1.9622200000000001,5.4368400000000001
216948.0,56.132100000000001,107.812,57.703400000000002,110.408,-12.094900000000001,1.6713800000000001,4.3141100000000003
216949.0,58.466200000000001,93.6126,40.630600000000001,97.157700000000006,-10.9977,2.3558500000000002,3.23081
216950.0,61.443199999999997,92.4803,44.127000000000002,101.163,-16.296099999999999,3.09741,6.2323399999999998
216951.0,77.298599999999993,50.429200000000002,68.354299999999995,47.341299999999997,-31.2941,-16.5746,24.676300000000001
216952.0,80.302700000000002,77.4512,54.284100000000002,65.810199999999995,-34.977699999999999,-16.9544,22.459700000000002
216953.0,75.414699999999996,88.353800000000007,33.237900000000003,81.417599999999993,-27.549900000000001,-11.658200000000001,9.9843100000000007
216954.0,73.629400000000004,80.5839,22.6128,75.465500000000006,-24.9803,-9.7898899999999998,7.5626600000000002
216955.0,79.734899999999996,77.570800000000006,49.090600000000002,66.023200000000003,-34.445999999999998,-16.785399999999999,21.1127
216956.0,77.219700000000003,81.962199999999996,89.518100000000004,74.626300000000001,-33.420699999999997,-16.924299999999999,22.995799999999999
216957.0,83.647300000000001,-2.8476900000000001,33.534599999999998,2.5208499999999998,-32.620600000000003,-16.9147,24.420300000000001
216958.0,92.125799999999998,69.948599999999999,87.739199999999997,70.621200000000002,-38.917299999999997,-21.095199999999998,27.709700000000002
216959.0,73.478200000000001,67.106399999999994,75.2149,60.190199999999997,-31.6889,-15.414899999999999,22.3902
216960.0,74.953500000000005,74.928899999999999,74.357699999999994,65.7376,-32.569299999999998,-16.238700000000001,22.840900000000001
216961.0,77.205699999999993,69.324299999999994,64.560900000000004,59.588200000000001,-33.8339,-16.127500000000001,23.629899999999999
216962.0,79.195499999999996,75.375,63.687899999999999,64.389300000000006,-34.698099999999997,-16.715,23.755600000000001
216963.0,80.311499999999995,73.750500000000002,56.395200000000003,62.353700000000003,-35.164999999999999,-16.884799999999998,23.4636
216964.0,78.534700000000001,79.063299999999998,45.890799999999999,68.1083,-33.534100000000002,-16.3001,19.493600000000001
216965.0,77.619600000000005,78.579899999999995,40.4313,68.320700000000002,-32.5398,-15.7798,17.6266
216966.0,76.314099999999996,78.956100000000006,37.073999999999998,69.554500000000004,-31.4377,-14.93,15.720499999999999
216967.0,76.490200000000002,85.078299999999999,37.762500000000003,75.808499999999995,-30.416,-14.377599999999999,13.773300000000001
216968.0,74.409599999999998,81.828999999999994,31.8202,73.874099999999999,-28.6326,-12.7866,11.838800000000001
216969.0,68.221800000000002,94.592299999999994,38.471899999999998,92.837199999999996,-21.443300000000001,-6.6573200000000003,5.4074799999999996
216970.0,64.332899999999995,79.678700000000006,23.1691,79.394800000000004,-17.235399999999998,-3.7220200000000001,3.08826
216971.0,55.392899999999997,107.873,59.360599999999998,111.758,-12.8659,1.09799,1.92726
216972.0,55.4514,82.415899999999993,33.692300000000003,88.510000000000005,-10.625999999999999,3.0407600000000001,0.32814300000000002
216973.0,58.356000000000002,93.389899999999997,47.882800000000003,106.282,-13.437799999999999,3.2637100000000001,1.62537
216974.0,79.258899999999997,52.227600000000002,76.065700000000007,51.2804,-30.689499999999999,-15.8352,26.535799999999998
216975.0,78.108099999999993,69.885099999999994,49.202500000000001,64.701999999999998,-33.007100000000001,-18.0364,22.4283
216976.0,74.312200000000004,86.364400000000003,34.892899999999997,83.501300000000001,-27.406199999999998,-13.474299999999999,8.4497400000000003
216977.0,72.767899999999997,77.078299999999999,22.513000000000002,74.505499999999998,-25.404,-11.7301,5.8505200000000004
216978.0,77.068700000000007,72.776499999999999,47.277500000000003,67.832899999999995,-32.462400000000002,-17.758400000000002,20.684200000000001
216979.0,78.606899999999996,72.584800000000001,80.315799999999996,68.149299999999997,-31.693899999999999,-18.7638,25.7913
216980.0,82.374499999999998,-11.1677,21.7319,-8.4679099999999998,-31.6174,-15.9876,25.941700000000001
216981.0,98.380300000000005,91.212999999999994,105.872,90.552599999999998,-42.1907,-21.2637,30.315300000000001
216982.0,76.985600000000005,67.428700000000006,75.837699999999998,63.752400000000002,-31.2181,-17.174099999999999,25.839700000000001
216983.0,77.7239,70.255899999999997,70.700199999999995,65.025800000000004,-31.998899999999999,-18.083300000000001,25.549499999999998
216984.0,78.879800000000003,70.623999999999995,66.642600000000002,65.471500000000006,-32.8992,-17.971900000000002,25.716999999999999
216985.0,79.175700000000006,68.2273,57.926900000000003,62.7928,-33.274900000000002,-18.222000000000001,24.9757
216986.0,78.997799999999998,70.486599999999996,55.020400000000002,65.209800000000001,-33.3919,-18.168199999999999,23.9437
216987.0,75.843400000000003,73.411500000000004,43.566200000000002,68.695099999999996,-31.726900000000001,-17.334,18.7865
216988.0,75.139700000000005,77.873500000000007,43.298099999999998,73.208799999999997,-30.982299999999999,-16.9558,16.811199999999999
216989.0,74.0077,77.466800000000006,39.206400000000002,73.335999999999999,-30.067699999999999,-16.1069,14.8748
216990.0,74.293800000000005,79.368300000000005,35.921399999999998,75.556799999999996,-29.300899999999999,-15.5322,12.696899999999999
216991.0,72.704499999999996,77.203599999999994,31.0397,74.137,-28.005600000000001,-14.177,10.5054
216992.0,69.026399999999995,96.254199999999997,41.0672,94.603099999999998,-22.582799999999999,-8.91629,3.6048100000000001
216993.0,65.280199999999994,79.637500000000003,23.980699999999999,79.493300000000005,-18.888000000000002,-5.6758100000000002,1.28088
216994.0,55.535299999999999,103.02500000000001,55.016800000000003,106.834,-13.9092,-0.35665799999999998,-0.62861299999999998
216995.0,52.718699999999998,86.881399999999999,41.773400000000002,92.915400000000005,-11.5588,2.8123999999999998,-1.94909
216996.0,53.272300000000001,113.60299999999999,68.986800000000002,122.577,-9.99221,3.5090699999999999,-3.1587999999999998
216997.0,79.700400000000002,41.165399999999998,66.630700000000004,45.400599999999997,-28.6233,-16.032399999999999,29.238099999999999
216998.0,76.020799999999994,70.897499999999994,53.157400000000003,71.705200000000005,-31.077500000000001,-18.921900000000001,22.195499999999999
216999.0,72.628500000000003,80.400800000000004,33.052500000000002,81.771799999999999,-26.838999999999999,-14.6388,7.3567400000000003
217000.0,71.5441,74.187399999999997,23.9163,75.807599999999994,-25.366499999999998,-13.024900000000001,4.7604199999999999
217001.0,74.827299999999994,70.9345,48.677399999999999,71.758300000000006,-30.603200000000001,-18.603999999999999,20.303899999999999
217002.0,79.595799999999997,73.108599999999996,81.622600000000006,73.725700000000003,-30.171700000000001,-19.962900000000001,27.936499999999999
217003.0,83.427000000000007,-29.581399999999999,2.71793,-23.939499999999999,-28.9876,-16.2592,30.294599999999999
217004.0,101.545,89.078199999999995,102.453,94.920400000000001,-40.718899999999998,-22.185500000000001,35.241700000000002
217005.0,77.531499999999994,58.204300000000003,67.878399999999999,59.619199999999999,-29.598199999999999,-18.035399999999999,27.840299999999999
217006.0,77.537099999999995,66.885800000000003,68.505099999999999,67.517300000000006,-30.281099999999999,-18.973800000000001,26.9514
217007.0,77.985200000000006,61.932600000000001,59.708300000000001,62.975200000000001,-31.101600000000001,-18.797799999999999,26.5289
217008.0,77.75,68.253200000000007,60.141100000000002,69.024699999999996,-31.357500000000002,-19.140799999999999,25.320699999999999
217009.0,77.217600000000004,66.973799999999997,54.122700000000002,67.842399999999998,-31.450900000000001,-19.067699999999999,23.995000000000001
217010.0,73.4131,72.920400000000001,46.498100000000001,73.850200000000001,-29.923200000000001,-18.063700000000001,18.265000000000001
217011.0,72.5518,72.696799999999996,41.863500000000002,73.742000000000004,-29.300699999999999,-17.5502,16.125900000000001
217012.0,71.555700000000002,73.296300000000002,38.936300000000003,74.547899999999998,-28.628900000000002,-16.8003,14.017099999999999
217013.0,72.018600000000006,77.607200000000006,38.375500000000002,78.700699999999998,-28.131399999999999,-16.441199999999998,11.8094
217014.0,70.877700000000004,75.081900000000005,32.974200000000003,76.463499999999996,-27.191600000000001,-15.2317,9.5975900000000003
217015.0,69.622200000000007,87.2376,34.877800000000001,89.128100000000003,-23.404900000000001,-10.7409,2.1356799999999998
217016.0,66.248999999999995,75.520300000000006,22.078900000000001,77.280900000000003,-20.442599999999999,-7.7701200000000004,-0.55948500000000001
217017.0,56.665900000000001,102.16800000000001,54.229300000000002,104.86799999999999,-15.653700000000001,-2.3857900000000001,-2.8286600000000002
217018.0,52.0015,81.832099999999997,37.793700000000001,85.953199999999995,-13.0799,2.1247699999999998,-3.62906
217019.0,50.610199999999999,108.06699999999999,64.258499999999998,112.068,-9.4511299999999991,5.00258,-5.99587
217020.0,80.757900000000006,41.726300000000002,68.168099999999995,49.630600000000001,-26.705200000000001,-16.7437,31.562799999999999
217021.0,73.662199999999999,63.778799999999997,49.148600000000002,70.590599999999995,-29.0398,-19.186399999999999,21.8459
217022.0,70.5702,77.336500000000001,34.6815,83.012900000000002,-26.101900000000001,-15.434200000000001,6.5263099999999996
217023.0,70.188400000000001,70.956000000000003,25.1098,76.1995,-25.2178,-14.186400000000001,3.8763700000000001
217024.0,72.399900000000002,66.543599999999998,47.679000000000002,73.242800000000003,-28.677,-18.850899999999999,19.8447
217025.0,80.005700000000004,65.612399999999994,75.346699999999998,71.856200000000001,-28.317299999999999,-20.661300000000001,29.674199999999999
217026.0,86.0672,-33.827800000000003,-0.17702200000000001,-25.222799999999999,-27.182300000000001,-17.650300000000001,33.363999999999997
217027.0,104.593,84.757300000000001,99.003900000000002,95.188100000000006,-38.945,-23.783899999999999,38.856400000000001
217028.0,77.174099999999996,59.445700000000002,70.739599999999996,66.426900000000003,-27.6617,-18.645800000000001,28.982099999999999
217029.0,76.805199999999999,62.889299999999999,66.474000000000004,69.393000000000001,-28.325700000000001,-19.673300000000001,27.683
217030.0,76.685599999999994,63.348300000000002,63.3324,70.324200000000005,-29.037600000000001,-19.354299999999999,26.948
217031.0,75.915599999999998,61.8322,56.235100000000003,68.725700000000003,-29.257400000000001,-19.5532,25.3691
217032.0,75.015500000000003,64.100800000000007,54.090499999999999,71.068700000000007,-29.349799999999998,-19.370999999999999,23.796900000000001
217033.0,71.088499999999996,67.116799999999998,44.2851,73.639300000000006,-28.162099999999999,-18.420500000000001,17.7348
217034.0,70.284099999999995,70.744699999999995,43.794400000000003,77.034700000000001,-27.695,-18.0258,15.5845
217035.0,69.334699999999998,70.776600000000002,40.323599999999999,76.974100000000007,-27.151900000000001,-17.313300000000002,13.439299999999999
217036.0,69.534499999999994,72.323899999999995,37.466700000000003,78.362499999999997,-26.789999999999999,-16.827100000000002,11.113300000000001
217037.0,68.819500000000005,71.2667,33.4527,77.212999999999994,-26.199300000000001,-15.8431,8.82775
217038.0,69.640500000000003,83.937100000000001,35.096299999999999,88.587900000000005,-24.068899999999999,-12.5467,1.34301
217039.0,67.212999999999994,73.282600000000002,22.343599999999999,77.185599999999994,-21.6601,-9.9087300000000003,-1.49726
217040.0,59.238799999999998,91.556200000000004,44.123600000000003,95.309200000000004,-17.744599999999998,-4.9537199999999997,-4.0436199999999998
217041.0,53.965699999999998,82.019900000000007,37.561900000000001,86.003799999999998,-14.875500000000001,-0.099660899999999997,-5.1292200000000001
217042.0,50.350999999999999,107.175,65.467500000000001,111.693,-11.157500000000001,4.2566800000000002,-7.2814100000000002
217043.0,80.3446,34.504300000000001,62.253,47.770899999999997,-24.4148,-17.061,32.741
217044.0,72.117500000000007,64.231399999999994,52.944899999999997,76.754900000000006,-27.100300000000001,-19.584399999999999,21.767299999999999
217045.0,68.076499999999996,71.715599999999995,33.898400000000002,81.574100000000001,-25.130099999999999,-15.6732,5.8522699999999999
217046.0,68.174099999999996,69.368399999999994,28.354399999999998,78.624200000000002,-24.6754,-14.619300000000001,3.2902999999999998
217047.0,70.782899999999998,64.112799999999993,48.823,76.349400000000003,-26.846599999999999,-19.274799999999999,19.687799999999999
217048.0,79.477199999999996,65.733599999999996,77.387200000000007,78.071600000000004,-26.107700000000001,-20.982199999999999,30.587499999999999
217049.0,86.810299999999998,-38.964799999999997,-4.1267100000000001,-25.2136,-24.659500000000001,-18.2075,35.559699999999999
217050.0,104.733,81.294799999999995,97.101200000000006,98.913499999999999,-36.052,-24.140000000000001,40.987299999999998
217051.0,75.981899999999996,51.665300000000002,64.642099999999999,64.253299999999996,-25.430700000000002,-18.741199999999999,29.529
217052.0,75.254000000000005,60.6646,66.3797,73.135400000000004,-26.078600000000002,-19.692699999999999,27.9438
217053.0,74.990399999999994,55.8367,58.244199999999999,68.720600000000005,-26.808900000000001,-19.4239,27.047899999999998
217054.0,74.308000000000007,61.7821,58.993899999999996,74.579700000000003,-27.104700000000001,-19.767800000000001,25.4176
217055.0,73.451999999999998,60.507300000000001,53.589100000000002,73.292400000000001,-27.2791,-19.693000000000001,23.801500000000001
217056.0,69.333799999999997,66.285499999999999,47.152299999999997,78.162300000000002,-26.4529,-18.790299999999998,17.457699999999999
217057.0,68.228399999999993,66.085400000000007,43.098399999999998,77.599599999999995,-26.083300000000001,-18.244399999999999,15.164300000000001
217058.0,67.236999999999995,67.242900000000006,40.868600000000001,78.390699999999995,-25.714700000000001,-17.5548,12.8927
217059.0,67.1965,70.034499999999994,39.6873,80.735399999999998,-25.4664,-17.085799999999999,10.5482
217060.0,66.685199999999995,69.095699999999994,35.679699999999997,79.391400000000004,-25.119499999999999,-16.1633,8.2364099999999993
217061.0,68.842200000000005,75.733500000000006,31.1492,84.2196,-24.212900000000001,-13.425700000000001,0.72661100000000001
217062.0,67.642399999999995,69.915700000000001,22.583400000000001,76.968299999999999,-22.665700000000001,-11.4765,-2.2554099999999999
217063.0,61.842399999999998,86.719899999999996,40.622399999999999,92.221199999999996,-19.783300000000001,-7.4764499999999998,-4.9602000000000004
217064.0,56.898699999999998,76.048900000000003,31.8264,80.496099999999998,-17.402699999999999,-2.7848700000000002,-6.6723699999999999
217065.0,51.730899999999998,93.007599999999996,52.023600000000002,96.550399999999996,-13.783200000000001,2.3205499999999999,-9.1753900000000002
217066.0,80.045000000000002,35.862099999999998,65.111000000000004,54.341799999999999,-22.082599999999999,-17.167200000000001,33.683
217067.0,70.570800000000006,56.528799999999997,48.627800000000001,74.545400000000001,-25.129999999999999,-19.593900000000001,21.6374
217068.0,65.651899999999998,69.093299999999999,36.251100000000001,83.062299999999993,-24.157699999999998,-15.7294,5.3113000000000001
217069.0,66.0227,65.548400000000001,29.486000000000001,78.617500000000007,-24.061900000000001,-14.786799999999999,2.8001999999999998
217070.0,69.131100000000004,59.210999999999999,47.547199999999997,76.8245,-25.011199999999999,-19.279599999999999,19.4559
217071.0,79.021199999999993,58.405200000000001,72.352800000000002,77.023899999999998,-23.7547,-21.052600000000002,31.306799999999999
217072.0,86.662300000000002,-39.448300000000003,-3.2016399999999998,-20.247599999999998,-22.3017,-18.249400000000001,36.6633
217073.0,104.342,75.239699999999999,93.024500000000003,99.681600000000003,-33.065600000000003,-24.110299999999999,42.365099999999998
217074.0,75.443799999999996,53.402200000000001,68.656899999999993,71.732100000000003,-23.148399999999999,-18.941500000000001,30.104299999999999
217075.0,74.636600000000001,56.127400000000002,64.470299999999995,74.450000000000003,-23.876000000000001,-19.934100000000001,28.377700000000001
217076.0,74.070400000000006,56.707900000000002,61.830599999999997,75.287199999999999,-24.577200000000001,-19.601700000000001,27.357900000000001
217077.0,73.100399999999993,55.016800000000003,55.179699999999997,73.508899999999997,-24.933900000000001,-19.853899999999999,25.5412
217078.0,72.010400000000004,57.0261,53.263300000000001,75.394400000000005,-25.186299999999999,-19.715199999999999,23.774699999999999
217079.0,67.695499999999996,59.729900000000001,44.4482,76.841800000000006,-24.780999999999999,-18.873799999999999,17.1648
217080.0,66.527799999999999,63.105899999999998,44.251300000000001,79.653599999999997,-24.5535,-18.4056,14.8292
217081.0,65.441100000000006,63.5381,41.386600000000001,79.483900000000006,-24.318200000000001,-17.718499999999999,12.4953
217082.0,65.021100000000004,65.044300000000007,39.237299999999998,80.360900000000001,-24.173300000000001,-17.083200000000001,10.055
217083.0,64.583299999999994,65.145700000000005,36.308799999999998,79.780699999999996,-24.036999999999999,-16.239899999999999,7.7176799999999997
217084.0,67.283299999999997,72.907799999999995,33.040199999999999,84.940100000000001,-24.026499999999999,-13.917299999999999,0.28715800000000002
217085.0,66.938900000000004,67.380700000000004,24.494299999999999,77.815200000000004,-23.163,-12.295500000000001,-2.7136399999999998
217086.0,63.2423,77.924099999999996,34.776400000000002,86.188100000000006,-21.3322,-9.1037800000000004,-5.7495000000000003
217087.0,58.828000000000003,74.884900000000002,32.932499999999997,80.953299999999999,-19.588999999999999,-4.9412599999999998,-7.8502999999999998
217088.0,53.4056,94.492199999999997,55.083799999999997,97.734099999999998,-16.3474,0.25767400000000001,-10.9384
217089.0,79.602699999999999,28.735800000000001,59.577100000000002,52.304499999999997,-19.701499999999999,-16.798999999999999,34.378999999999998
217090.0,70.107600000000005,56.555300000000003,52.648299999999999,80.521500000000003,-23.028099999999998,-20.0016,21.914400000000001
217091.0,63.415300000000002,63.722999999999999,35.931399999999996,81.736000000000004,-23.286899999999999,-15.5785,4.8007999999999997
217092.0,63.774700000000003,63.799799999999998,32.826099999999997,80.642099999999999,-23.4087,-14.6305,2.3421400000000001
217093.0,68.5578,56.305700000000002,48.947099999999999,79.814800000000005,-23.0823,-19.727499999999999,19.616700000000002
217094.0,78.487899999999996,57.576799999999999,73.851299999999995,81.841899999999995,-21.377800000000001,-20.8231,31.779299999999999
217095.0,86.129400000000004,-42.836500000000001,-5.2673100000000002,-18.069099999999999,-19.611699999999999,-17.7408,37.531500000000001
217096.0,103.61199999999999,73.690299999999993,93.285700000000006,105.187,-29.960899999999999,-23.433299999999999,43.3444
217097.0,74.819400000000002,44.306100000000001,61.514099999999999,67.877700000000004,-20.877300000000002,-18.815899999999999,30.4528
217098.0,74.054400000000001,53.5871,64.389799999999994,77.513099999999994,-21.569199999999999,-19.7486,28.796099999999999
217099.0,73.374899999999997,48.640099999999997,56.567399999999999,72.749899999999997,-22.1922,-19.538,27.738
217100.0,72.594200000000001,54.371600000000001,57.736699999999999,78.605099999999993,-22.611999999999998,-20.0123,25.932500000000001
217101.0,71.557400000000001,53.0642,52.952500000000001,77.308300000000003,-22.9346,-20.0139,24.154399999999999
217102.0,66.898799999999994,58.468499999999999,47.662999999999997,81.293000000000006,-23.0565,-19.2744,17.144500000000001
217103.0,65.416399999999996,58.290100000000002,44.064399999999999,80.301699999999997,-23.0352,-18.662400000000002,14.635199999999999
217104.0,64.137799999999999,59.851700000000001,42.394199999999998,80.936599999999999,-23.0093,-17.924399999999999,12.1669
217105.0,63.442100000000003,62.072800000000001,41.167499999999997,82.1661,-23.0336,-17.241399999999999,9.6719299999999997
217106.0,62.842599999999997,62.185499999999998,38.155900000000003,81.214500000000001,-23.0761,-16.299099999999999,7.2552099999999999
217107.0,65.164000000000001,66.664900000000003,31.925599999999999,82.294200000000004,-23.6815,-13.781000000000001,-0.198854
217108.0,65.332400000000007,64.250600000000006,26.468800000000002,78.003200000000007,-23.360800000000001,-12.4481,-3.1666099999999999
217109.0,63.113100000000003,74.569199999999995,35.628500000000003,85.675600000000003,-22.319500000000001,-10.022,-6.1977599999999997
217110.0,59.760300000000001,69.027900000000002,30.456,77.238,-21.247499999999999,-6.5084099999999996,-8.5238800000000001
217111.0,54.651800000000001,80.768799999999999,44.108699999999999,84.803799999999995,-18.7012,-1.9981100000000001,-11.7965
217112.0,78.927199999999999,30.288499999999999,62.3185,58.643500000000003,-16.927199999999999,-15.914199999999999,35.063800000000001
217113.0,68.610299999999995,47.894500000000001,47.7209,77.082499999999996,-20.774100000000001,-19.537800000000001,21.6831
217114.0,61.703000000000003,60.802999999999997,38.5002,83.215199999999996,-22.610199999999999,-15.473100000000001,4.3118299999999996
217115.0,61.981000000000002,59.112000000000002,33.487400000000001,79.904200000000003,-22.975300000000001,-14.444599999999999,1.86084
217116.0,66.958399999999997,50.155500000000004,46.910499999999999,78.841899999999995,-21.0181,-19.275600000000001,19.2957
217117.0,77.745599999999996,49.244599999999998,67.491600000000005,79.449299999999994,-18.453600000000002,-19.968399999999999,32.313200000000002
217118.0,84.185400000000001,-43.9908,-6.5366299999999997,-15.077500000000001,-16.827200000000001,-16.273099999999999,37.803899999999999
217119.0,102.185,68.807400000000001,89.239999999999995,106.193,-26.4773,-22.037299999999998,44.084499999999998
217120.0,74.595100000000002,45.914999999999999,65.200500000000005,75.173000000000002,-18.053000000000001,-18.392499999999998,31.134899999999998
217121.0,74.067999999999998,49.599899999999998,63.168199999999999,79.477400000000003,-18.9039,-19.519300000000001,29.436900000000001
217122.0,72.992099999999994,48.855800000000002,59.816699999999997,78.771900000000002,-19.551100000000002,-19.290199999999999,28.151800000000001
217123.0,71.764899999999997,47.2988,53.859400000000001,77.189700000000002,-20.082699999999999,-19.6676,26.073
217124.0,70.302700000000002,48.459699999999998,51.784799999999997,78.070599999999999,-20.5306,-19.5655,24.084099999999999
217125.0,65.374899999999997,50.736199999999997,44.444400000000002,78.804000000000002,-21.195599999999999,-18.940999999999999,16.791399999999999
217126.0,64.057000000000002,53.864699999999999,44.588700000000003,81.174800000000005,-21.437100000000001,-18.494399999999999,14.2981
217127.0,62.836300000000001,54.652799999999999,42.340800000000002,80.976100000000002,-21.6874,-17.838699999999999,11.749000000000001
217128.0,62.061700000000002,56.297199999999997,40.636200000000002,81.474000000000004,-21.961400000000001,-17.085699999999999,9.2296200000000006
217129.0,61.409199999999998,57.421300000000002,38.691299999999998,81.213999999999999,-22.2118,-16.216899999999999,6.8187600000000002
217130.0,63.077199999999998,64.274699999999996,34.941600000000001,83.400099999999995,-23.377700000000001,-13.549099999999999,-0.64017199999999996
217131.0,63.4056,61.950099999999999,29.535499999999999,78.890799999999999,-23.417999999999999,-12.271800000000001,-3.4857
217132.0,62.192700000000002,67.913200000000003,33.693300000000001,81.871700000000004,-22.982900000000001,-10.259499999999999,-6.4295600000000004
217133.0,59.841999999999999,68.085999999999999,33.442900000000002,78.677499999999995,-22.377099999999999,-7.4935299999999998,-8.7778200000000002
217134.0,55.841000000000001,82.325699999999998,48.339199999999998,88.232500000000002,-20.5411,-3.9080300000000001,-11.7738
217135.0,76.075199999999995,26.1739,57.294400000000003,57.621699999999997,-13.8127,-13.9595,34.888800000000003
217136.0,65.865099999999998,51.002499999999998,54.805999999999997,86.435500000000005,-17.607299999999999,-17.7087,21.072600000000001
217137.0,59.817,55.410899999999998,38.679900000000004,82.155299999999997,-22.146699999999999,-14.429600000000001,3.6219299999999999
217138.0,60.1432,57.019399999999997,36.856200000000001,81.684399999999997,-22.699999999999999,-13.591100000000001,1.28321
217139.0,64.156899999999993,50.438299999999998,51.823,85.478200000000001,-18.0915,-17.4879,18.578800000000001
217140.0,75.096599999999995,53.790100000000002,72.465400000000002,88.200299999999999,-15.2483,-18.069500000000001,32.001300000000001
217141.0,80.672200000000004,-41.031500000000001,-5.7162600000000001,-9.3619000000000003,-13.217700000000001,-13.711,37.807400000000001
217142.0,98.311000000000007,71.921800000000005,91.516999999999996,113.41500000000001,-22.275200000000002,-19.186699999999998,43.892000000000003
217143.0,71.969700000000003,39.3307,59.360199999999999,72.312200000000004,-15.119199999999999,-16.477599999999999,30.827400000000001
217144.0,70.965699999999998,47.929900000000004,62.475999999999999,81.688599999999994,-15.912000000000001,-17.5886,28.799900000000001
217145.0,70.213099999999997,43.141399999999997,55.578099999999999,77.435000000000002,-16.563500000000001,-17.427900000000001,27.637
217146.0,69.010099999999994,48.826300000000003,57.764000000000003,83.793400000000005,-16.8977,-17.828600000000002,25.5745
217147.0,67.655199999999994,47.762700000000002,54.2502,83.169700000000006,-17.298300000000001,-17.7728,23.564699999999998
217148.0,62.545400000000001,52.030000000000001,50.813600000000001,86.243700000000004,-18.691199999999998,-17.178999999999998,15.966900000000001
217149.0,61.283700000000003,51.225000000000001,47.143300000000004,84.347499999999997,-19.3291,-16.790099999999999,13.4186
217150.0,60.395899999999997,52.324599999999997,45.513500000000001,84.179699999999997,-20.0002,-16.362400000000001,11.0505
217151.0,59.778500000000001,53.815399999999997,44.090699999999998,84.164400000000001,-20.693000000000001,-15.9399,8.4823500000000003
217152.0,59.624400000000001,54.122300000000003,41.017699999999998,82.780199999999994,-21.465800000000002,-15.251899999999999,5.9530000000000003
217153.0,61.130499999999998,58.838900000000002,34.959600000000002,81.391900000000007,-23.2925,-12.7507,-1.1771400000000001
217154.0,61.598300000000002,58.670400000000001,31.559200000000001,78.6036,-23.612500000000001,-11.634,-3.7809599999999999
217155.0,61.110399999999998,65.548199999999994,36.0366,82.234200000000001,-23.528600000000001,-10.1091,-6.4633000000000003
217156.0,59.628999999999998,62.9512,32.116199999999999,75.8827,-23.2605,-7.9237700000000002,-8.7051200000000009
217157.0,57.197400000000002,68.983599999999996,37.363300000000002,77.129099999999994,-22.161000000000001,-5.3278299999999996,-11.391500000000001
217158.0,70.051599999999993,36.132899999999999,62.943899999999999,67.335099999999997,-10.3993,-10.589700000000001,33.618000000000002
217159.0,56.791200000000003,49.464100000000002,52.826999999999998,83.118200000000002,-15.7468,-12.898099999999999,17.8096
217160.0,55.978299999999997,57.3187,45.305999999999997,86.396199999999993,-21.4163,-11.501200000000001,2.6870400000000001
217161.0,57.291899999999998,53.705100000000002,38.377099999999999,80.956800000000001,-22.423500000000001,-11.2204,0.55386800000000003
217162.0,55.026200000000003,51.6372,52.741999999999997,84.561099999999996,-16.2134,-12.545199999999999,15.4735
217163.0,68.494,55.1038,71.250900000000001,90.479200000000006,-11.4373,-14.358499999999999,30.218900000000001
217164.0,73.266599999999997,-31.6343,-3.1499000000000001,-2.81298,-10.4732,-10.0733,36.117600000000003
217165.0,90.361400000000003,73.377700000000004,88.366100000000003,113.929,-17.776700000000002,-15.0129,41.9514
217166.0,66.082599999999999,50.360500000000002,69.159700000000001,85.417400000000001,-11.3908,-12.8187,29.2196
217167.0,64.781599999999997,51.129100000000001,65.679900000000004,87.857299999999995,-12.3001,-13.743,26.770099999999999
217168.0,63.599499999999999,50.939999999999998,63.574800000000003,87.719999999999999,-13.576599999999999,-13.350300000000001,25.229199999999999
217169.0,61.3857,48.714300000000001,57.682600000000001,84.827399999999997,-14.5021,-13.3825,22.651599999999998
217170.0,59.219700000000003,50.017800000000001,56.104399999999998,84.866299999999995,-15.2818,-13.087300000000001,20.438300000000002
217171.0,53.6873,51.647100000000002,51.021700000000003,84.167299999999997,-16.625,-12.2341,13.2394
217172.0,53.177999999999997,54.174700000000001,51.8431,86.511099999999999,-17.328399999999998,-12.1205,10.9526
217173.0,53.268599999999999,53.201099999999997,49.088500000000003,84.927599999999998,-18.4603,-11.816800000000001,8.9872599999999991
217174.0,53.317500000000003,51.338799999999999,44.7639,81.944900000000004,-19.349900000000002,-11.6144,6.6740500000000003
217175.0,54.593299999999999,53.229399999999998,43.774999999999999,83.222899999999996,-20.299399999999999,-11.6958,4.5201200000000004
217176.0,58.684899999999999,58.795200000000001,39.820599999999999,83.791600000000003,-23.246200000000002,-10.8749,-1.7141900000000001
217177.0,59.812399999999997,56.943800000000003,34.530999999999999,79.255899999999997,-23.919,-10.227499999999999,-3.9634499999999999
217178.0,59.962499999999999,60.936700000000002,35.521999999999998,79.767399999999995,-24.078499999999998,-9.1829499999999999,-6.4324300000000001
217179.0,59.318600000000004,62.125100000000003,34.6584,77.068600000000004,-24.101600000000001,-7.6702199999999996,-8.3937299999999997
217180.0,58.181199999999997,72.248199999999997,42.8018,82.550299999999993,-23.4635,-5.9548100000000002,-10.8086
217181.0,60.865299999999998,41.2271,61.4895,68.413499999999999,-7.8927899999999998,-6.3390599999999999,30.541499999999999
217182.0,51.494799999999998,64.060100000000006,68.070800000000006,101.188,-12.631399999999999,-7.2760999999999996,16.005700000000001
217183.0,49.631500000000003,60.416699999999999,49.941600000000001,86.810299999999998,-20.410599999999999,-6.4313700000000003,1.48217
217184.0,52.253999999999998,58.282899999999998,45.033299999999997,83.744699999999995,-21.771999999999998,-7.00136,-0.227878
217185.0,49.526200000000003,63.636200000000002,66.376499999999993,99.919600000000003,-13.1518,-6.9722799999999996,13.7056
217186.0,56.782499999999999,67.997,78.380799999999994,98.720600000000005,-9.0723599999999998,-9.4389099999999999,25.673100000000002
217187.0,68.773099999999999,-20.254200000000001,3.6417999999999999,9.11632,-6.9041499999999996,-6.1176700000000004,35.320700000000002
217188.0,82.679400000000001,84.959999999999994,94.362099999999998,123.96299999999999,-14.054600000000001,-10.381399999999999,39.484499999999997
217189.0,53.444800000000001,53.146999999999998,65.771000000000001,81.760800000000003,-9.6072799999999994,-7.5684899999999997,24.4316
217190.0,52.236400000000003,61.079700000000003,69.865499999999997,91.272999999999996,-10.470000000000001,-8.3219200000000004,22.124400000000001
217191.0,52.946100000000001,55.952599999999997,64.238500000000002,88.121799999999993,-11.265000000000001,-7.9264400000000004,21.580400000000001
217192.0,52.658700000000003,61.573300000000003,68.504300000000001,96.204700000000003,-11.610099999999999,-7.9531299999999998,19.7607
217193.0,52.581200000000003,60.700299999999999,66.280600000000007,97.311400000000006,-12.172499999999999,-7.6497200000000003,18.050999999999998
217194.0,47.607999999999997,64.612300000000005,65.628699999999995,99.284800000000004,-14.039999999999999,-6.8177899999999996,11.0715
217195.0,46.4467,63.162199999999999,62.194099999999999,95.930199999999999,-15.243399999999999,-6.5273500000000002,8.6791300000000007
217196.0,46.124600000000001,62.951799999999999,60.3401,94.362200000000001,-16.453299999999999,-6.0216700000000003,6.6105499999999999
217197.0,46.633499999999998,63.363500000000002,58.594499999999996,93.611199999999997,-17.606100000000001,-5.7226999999999997,4.6400800000000002
217198.0,47.754300000000001,60.750100000000003,53.152799999999999,88.969700000000003,-18.985800000000001,-5.8753599999999997,3.00406
217199.0,54.317900000000002,59.731900000000003,43.743299999999998,83.626999999999995,-22.8963,-7.1650600000000004,-2.2389800000000002
217200.0,57.115699999999997,56.149900000000002,36.490900000000003,78.271000000000001,-24.095800000000001,-7.37561,-3.9361600000000001
217201.0,57.886899999999997,62.657699999999998,40.0428,81.754099999999994,-24.318100000000001,-7.1164899999999998,-6.24193
217202.0,58.460299999999997,58.435400000000001,33.381700000000002,74.205500000000001,-24.765499999999999,-6.3866500000000004,-7.8265799999999999
217203.0,58.5837,61.998800000000003,34.1023,73.604200000000006,-24.4636,-5.5872700000000002,-10.1052
217204.0,55.560499999999998,53.416600000000003,69.401600000000002,78.361099999999993,-6.2515200000000002,-3.0930399999999998,28.647400000000001
217205.0,53.812899999999999,53.4041,55.974899999999998,84.658299999999997,-15.3451,-11.0131,17.535399999999999
217206.0,45.995899999999999,70.413899999999998,59.082000000000001,93.076499999999996,-19.825700000000001,-3.4922399999999998,0.58771799999999996
217207.0,47.629399999999997,63.237299999999998,48.6952,83.663700000000006,-20.9468,-2.9049100000000001,-0.62886299999999995
217208.0,51.362499999999997,48.425899999999999,50.334499999999998,77.859800000000007,-15.9038,-11.130599999999999,15.207700000000001
217209.0,49.124899999999997,77.5501,82.968299999999999,106.102,-6.4672400000000003,-5.0216000000000003,22.5258
217210.0,68.096299999999999,-32.671500000000002,-9.5355500000000006,-5.6593600000000004,-8.0792699999999993,-7.8773999999999997,34.713799999999999
217211.0,82.525800000000004,86.556600000000003,92.168300000000002,127.002,-14.191700000000001,-9.6317900000000005,38.676699999999997
217212.0,45.623899999999999,75.144300000000001,83.937200000000004,102.307,-5.7876799999999999,-2.3546800000000001,21.5106
217213.0,45.744700000000002,74.394900000000007,80.992500000000007,104.20699999999999,-7.2002899999999999,-3.3123499999999999,19.735900000000001
217214.0,48.559800000000003,69.180999999999997,76.250200000000007,99.329700000000003,-9.6295599999999997,-4.2514700000000003,20.654800000000002
217215.0,49.438800000000001,55.892800000000001,62.171100000000003,85.534800000000004,-11.6797,-6.9023500000000002,19.664300000000001
217216.0,51.934199999999997,52.412599999999998,56.535200000000003,83.127499999999998,-13.825900000000001,-9.7054200000000002,18.324300000000001
217217.0,48.660200000000003,49.116700000000002,48.289499999999997,77.851299999999995,-16.2197,-10.751300000000001,11.279500000000001
217218.0,47.504100000000001,59.790599999999998,56.651299999999999,88.493700000000004,-16.685500000000001,-9.1038300000000003,9.1095799999999993
217219.0,45.140000000000001,62.5274,58.484400000000001,89.368300000000005,-16.932300000000001,-7.3519600000000001,7.5291699999999997
217220.0,44.051499999999997,65.0535,59.3217,90.165999999999997,-17.629899999999999,-6.4331899999999997,5.0499000000000001
217221.0,44.322699999999998,64.712400000000002,56.948099999999997,88.745999999999995,-18.697099999999999,-4.95505,2.4220299999999999
217222.0,48.358899999999998,70.1083,54.229300000000002,88.340999999999994,-21.7881,-2.79772,-2.36971
217223.0,52.831299999999999,60.671799999999998,41.378999999999998,78.869399999999999,-23.5307,-3.5617100000000002,-3.53809
217224.0,54.353200000000001,65.431200000000004,43.563800000000001,81.311099999999996,-24.017399999999999,-3.8710599999999999,-5.8081699999999996
217225.0,56.343899999999998,60.978999999999999,36.555500000000002,74.749600000000001,-24.9055,-3.9529200000000002,-6.9388100000000001
217226.0,57.917400000000001,70.184299999999993,42.454599999999999,81.088399999999993,-24.924900000000001,-4.1131000000000002,-9.1234400000000004
217227.0,56.849299999999999,46.197000000000003,60.613500000000002,71.316800000000001,-8.0222599999999993,-3.6098300000000001,28.9999
217228.0,51.051299999999998,-15.8126,-17.620000000000001,11.893599999999999,-15.156599999999999,-8.1994900000000008,17.266500000000001
217229.0,46.310899999999997,51.4206,36.877000000000002,69.902799999999999,-20.152100000000001,-5.9008900000000004,-0.051282700000000001
217230.0,47.175699999999999,67.793400000000005,50.361600000000003,84.915099999999995,-20.8141,-2.8208199999999999,-1.47289
217231.0,49.880299999999998,-24.4087,-26.607800000000001,3.39114,-16.157299999999999,-8.0353499999999993,14.970800000000001
217232.0,51.5383,81.618300000000005,88.346400000000003,108.398,-7.5585800000000001,-6.11409,24.429600000000001
217233.0,65.160200000000003,-103.057,-82.656000000000006,-77.007800000000003,-8.7802199999999999,-6.9024999999999999,33.208100000000002
217234.0,84.982100000000003,63.493099999999998,64.215599999999995,106.20399999999999,-16.4163,-9.9719899999999999,37.953000000000003
217235.0,46.2209,60.954999999999998,70.850499999999997,83.529499999999999,-7.5398100000000001,-6.6659600000000001,21.9726
217236.0,48.916699999999999,67.843500000000006,74.113100000000003,93.634,-9.9312000000000005,-7.9545700000000004,21.325800000000001
217237.0,50.409199999999998,43.252299999999998,49.659500000000001,68.835099999999997,-11.1332,-6.7889699999999999,22.355899999999998
217238.0,49.9495,19.106200000000001,22.642299999999999,45.607399999999998,-12.132899999999999,-6.6614000000000004,20.8094
217239.0,50.553800000000003,-6.67889,-6.1114300000000004,20.2715,-13.485300000000001,-7.1867400000000004,19.526299999999999
217240.0,47.713000000000001,-17.7484,-21.8795,9.7242499999999996,-16.3599,-8.7183299999999999,10.958299999999999
217241.0,49.550199999999997,4.9129800000000001,-1.3908100000000001,32.468600000000002,-17.860299999999999,-9.2116799999999994,9.5032200000000007
217242.0,48.017499999999998,12.510199999999999,6.1099899999999998,36.940399999999997,-18.944400000000002,-8.1692800000000005,8.8439200000000007
217243.0,46.393799999999999,13.5625,4.4495399999999998,34.845999999999997,-19.389299999999999,-7.7394600000000002,6.1878799999999998
217244.0,45.253999999999998,23.411899999999999,11.8665,42.267699999999998,-19.5886,-7.2866600000000004,3.2124899999999998
217245.0,44.668999999999997,77.7239,59.802599999999998,89.618499999999997,-20.891500000000001,-0.116524,-1.8339399999999999
217246.0,47.983199999999997,66.0428,44.792999999999999,76.686099999999996,-22.262699999999999,-0.34202199999999999,-2.83724
217247.0,49.880800000000001,75.078400000000002,51.8658,84.3733,-22.8979,-0.68634399999999995,-4.9248799999999999
217248.0,53.100900000000003,63.279200000000003,37.625599999999999,71.896799999999999,-24.238499999999998,-1.14649,-5.7681100000000001
217249.0,56.270099999999999,65.886600000000001,36.586399999999998,73.358000000000004,-24.7669,-1.91252,-7.7869999999999999
217250.0,586.16200000000003,16555.799999999999,16998.200000000001,16746.200000000001,-246.28399999999999,-59.349800000000002,33.4345
217251.0,582.74199999999996,-17042.599999999999,-16603.299999999999,-16858.700000000001,-244.28299999999999,-65.590000000000003,23.152999999999999
217252.0,583.351,16379.799999999999,16816.700000000001,16557.599999999999,-243.839,-73.500799999999998,17.240500000000001
217253.0,591.51300000000003,-17765.400000000001,-17333.799999999999,-17606.700000000001,-241.13900000000001,-103.962,-3.3352200000000001
217254.0,611.70600000000002,16336.0,16769.900000000001,16482.900000000001,-239.22399999999999,-131.04499999999999,-40.4358
217255.0,615.69399999999996,-17809.599999999999,-17370.0,-17661.900000000001,-242.80600000000001,-116.226,-62.0137
217256.0,618.154,16461.400000000001,16903.599999999999,16605.799999999999,-247.34,-96.144999999999996,-78.141199999999998
217257.0,642.57299999999998,-17850.400000000001,-17399.799999999999,-17701.400000000001,-249.51400000000001,-114.31999999999999,-97.984200000000001
217258.0,663.17899999999997,16471.599999999999,16931.400000000001,16629.200000000001,-252.13,-129.31800000000001,-108.246
217259.0,673.56799999999998,-17559.099999999999,-17096.700000000001,-17407.799999999999,-257.90699999999998,-123.81699999999999,-117.524
217260.0,681.49199999999996,16582.0,17047.599999999999,16733.200000000001,-261.62900000000002,-123.705,-120.977
217261.0,687.73699999999997,-17452.599999999999,-16983.599999999999,-17299.299999999999,-264.49599999999998,-124.738,-122.229
217262.0,692.05399999999997,16817.700000000001,17289.900000000001,16974.900000000001,-266.63299999999998,-125.977,-121.89400000000001
217263.0,687.58199999999999,-17443.799999999999,-16971.0,-17280.200000000001,-265.73899999999998,-126.31100000000001,-115.619
217264.0,675.80899999999997,17000.599999999999,17471.700000000001,17172.200000000001,-261.81200000000001,-125.658,-105.13
217265.0,660.125,-17237.299999999999,-16772.900000000001,-17065.400000000001,-257.39499999999998,-122.54600000000001,-94.080699999999993
217266.0,637.87800000000004,17444.900000000001,17888.200000000001,17592.200000000001,-254.15899999999999,-115.19,-82.441500000000005
217267.0,604.625,-17495.299999999999,-17070.5,-17352.200000000001,-242.578,-109.098,-66.266900000000007
217268.0,563.66099999999994,17494.599999999999,17902.799999999999,17645.299999999999,-224.768,-102.42100000000001,-47.786499999999997
217269.0,522.73599999999999,-17249.400000000001,-16866.799999999999,-17111.0,-208.22499999999999,-96.314099999999996,-30.344899999999999
217270.0,468.904,17586.0,17917.700000000001,17673.299999999999,-187.32400000000001,-92.706199999999995,-6.8720800000000004
217271.0,401.10399999999998,-17577.200000000001,-17316.700000000001,-17560.5,-152.624,-91.877899999999997,25.049299999999999
217272.0,365.72800000000001,18088.299999999999,18313.299999999999,18074.0,-128.38399999999999,-92.1751,39.964799999999997
217273.0,346.892,-17452.099999999999,-17236.0,-17468.5,-115.77200000000001,-90.1815,41.759599999999999
217274.0,315.125,18294.400000000001,18509.400000000001,18296.299999999999,-99.967100000000002,-78.727500000000006,40.433199999999999
217275.0,300.79399999999998,-17933.900000000001,-17698.900000000001,-17896.200000000001,-97.848600000000005,-61.072600000000001,30.6065
217276.0,251.523,-1148.6700000000001,-1107.4400000000001,-1186.29,135.63300000000001,20.025400000000001,27.119299999999999
217277.0,153.96000000000001,-1423.1800000000001,-1413.5,-1463.8299999999999,81.098799999999997,3.9513199999999999,24.4008
217278.0,129.02799999999999,985.322,1091.8,1018.74,-50.393000000000001,-6.15259,2.5784799999999999
217279.0,158.40299999999999,4717.2700000000004,4756.7200000000003,4712.0299999999997,-87.712999999999994,1.34348,-8.4544999999999995
217280.0,88.903400000000005,4685.6000000000004,4749.2399999999998,4692.0200000000004,-35.465400000000002,1.27319,-12.1471
217281.0,97.411600000000007,3051.2600000000002,3156.25,3078.5700000000002,-12.382999999999999,-5.3159099999999997,-3.78566
217282.0,142.435,5269.3900000000003,5289.7399999999998,5256.6700000000001,-78.297499999999999,6.0210600000000003,-17.819700000000001
217283.0,132.024,2987.1399999999999,3071.0999999999999,3010.0999999999999,-62.192,-5.7279200000000001,5.1574400000000002
217284.0,82.236800000000002,-304.29700000000003,-249.27600000000001,-312.32400000000001,24.197800000000001,3.5188899999999999,21.876999999999999
217285.0,117.202,-61.011899999999997,-18.063800000000001,-85.970600000000005,52.2776,5.5613200000000003,25.200700000000001
217286.0,76.667299999999997,-2084.9499999999998,-2008.49,-2075.6300000000001,-1.8099400000000001,0.52091500000000002,14.690099999999999
217287.0,97.362399999999994,1003.65,1099.3199999999999,1026.5999999999999,-24.739000000000001,-1.6081700000000001,7.1243400000000001
217288.0,126.107,139.965,247.185,170.99799999999999,-47.351900000000001,-3.8497599999999998,0.242204
217289.0,149.50399999999999,1549.48,1668.6800000000001,1587.3099999999999,-60.720599999999997,-6.7861900000000004,-2.7666300000000001
217290.0,132.101,-1240.3199999999999,-1134.9200000000001,-1208.51,-53.6205,-4.0312700000000001,-1.5916300000000001
217291.0,114.062,1842.05,1931.96,1868.72,-46.151499999999999,-5.2235800000000001,6.85961
217292.0,146.72399999999999,2585.6599999999999,2663.29,2604.1100000000001,-73.971500000000006,-5.9321000000000002,4.91547
217293.0,160.50200000000001,3208.4899999999998,3275.0100000000002,3220.3499999999999,-85.429699999999997,-4.4577299999999997,3.1996099999999998
217294.0,164.19,3809.0900000000001,3865.48,3814.6999999999998,-89.531800000000004,-1.8787499999999999,1.24332
217295.0,168.61600000000001,4259.9799999999996,4307.3500000000004,4259.5799999999999,-93.310900000000004,0.14871899999999999,-3.9575100000000001
217296.0,158.55199999999999,-4201.6800000000003,-4158.6800000000003,-4208.1300000000001,-87.337299999999999,-0.076527800000000007,-5.3907499999999997
217297.0,144.92500000000001,5068.5100000000002,5098.2299999999996,5058.9899999999998,-80.138300000000001,3.2115900000000002,-12.239800000000001
217298.0,141.30000000000001,5417.5299999999997,5437.3199999999997,5404.0200000000004,-76.574200000000005,6.12723,-21.758299999999998
217299.0,123.545,5528.21,5547.21,5514.0100000000002,-66.084199999999996,5.5348499999999996,-20.3094
217300.0,114.624,5439.4300000000003,5463.4200000000001,5428.0500000000002,-60.394799999999996,5.5819000000000001,-19.3581
217301.0,103.539,5167.3299999999999,5209.29,5163.9300000000003,-51.264200000000002,4.0518700000000001,-17.0519
217302.0,82.796400000000006,-4986.7299999999996,-4951.1700000000001,-4991.8500000000004,-39.7592,5.0522999999999998,-13.7079
217303.0,87.597999999999999,3968.3699999999999,4054.5300000000002,3985.7199999999998,-20.641200000000001,-2.18838,-7.0838900000000002
217304.0,110.57599999999999,2059.04,2182.0799999999999,2096.7800000000002,-5.5308400000000004,-8.4307099999999995,-0.82671300000000003
217305.0,110.386,1055.0799999999999,1178.4200000000001,1095.8099999999999,-5.6462599999999998,-8.9714600000000004,0.14557899999999999
217306.0,98.040899999999993,170.203,279.71800000000002,207.41399999999999,-7.1148100000000003,-7.2011900000000004,0.74905500000000003
217307.0,62.385800000000003,89.913700000000006,34.177300000000002,92.073700000000002,-14.535399999999999,0.1192,-2.9732799999999999
217308.0,161.274,854.83000000000004,915.29100000000005,826.49800000000005,76.638999999999996,10.2547,25.180399999999999
217309.0,117.80500000000001,-412.15499999999997,-341.54199999999997,-422.42500000000001,45.308599999999998,5.7850400000000004,24.510000000000002
217310.0,94.761399999999995,1532.26,1621.28,1540.3099999999999,14.266299999999999,0.85660899999999995,19.1037
217311.0,100.895,506.315,612.54899999999998,529.81200000000001,-11.628500000000001,-2.06175,11.830299999999999
217312.0,121.717,-1093.55,-974.12699999999995,-1059.8399999999999,-33.374000000000002,-4.2595000000000001,3.95025
217313.0,147.17500000000001,-1005.58,-879.404,-966.274,-54.822899999999997,-6.1262800000000004,-2.9381599999999999
217314.0,113.267,-1092.0599999999999,-997.44899999999996,-1063.8199999999999,-43.495199999999997,-3.4839000000000002,3.7010100000000001
217315.0,125.185,-2600.3499999999999,-2500.3299999999999,-2570.1399999999999,-50.396999999999998,-5.4676099999999996,4.7222999999999997
217316.0,139.833,-2860.0700000000002,-2768.2399999999998,-2835.3200000000002,-64.962699999999998,-5.2564799999999998,3.5453199999999998
217317.0,151.73699999999999,-2609.8800000000001,-2526.1300000000001,-2590.8800000000001,-75.549999999999997,-4.9544699999999997,3.8245200000000001
217318.0,158.614,-3266.8600000000001,-3198.46,-3257.0799999999999,-83.677999999999997,-2.8256299999999999,2.8257400000000001
217319.0,163.97800000000001,-3772.2600000000002,-3713.1799999999998,-3769.4699999999998,-88.593599999999995,-1.5919399999999999,-0.72438499999999995
217320.0,145.05699999999999,-4667.5,-4634.7799999999997,-4679.0900000000001,-80.067599999999999,0.99074499999999999,-8.5917899999999996
217321.0,139.62,-4948.7700000000004,-4921.79,-4962.2200000000003,-76.795699999999997,2.1618900000000001,-13.108499999999999
217322.0,141.255,-5093.4499999999998,-5074.5699999999997,-5109.4399999999996,-77.200900000000004,4.0781700000000001,-19.227399999999999
217323.0,125.71299999999999,-5307.4799999999996,-5295.6499999999996,-5325.7600000000002,-68.108500000000006,5.1296099999999996,-19.3066
217324.0,115.851,-5380.0900000000001,-5364.8400000000001,-5395.21,-62.172499999999999,5.4342300000000003,-18.662199999999999
217325.0,104.806,-5248.3199999999997,-5227.5900000000001,-5259.9799999999996,-54.993499999999997,6.4746199999999998,-18.056100000000001
217326.0,70.975999999999999,-4495.0799999999999,-4437.5600000000004,-4490.0100000000002,-24.2682,1.78068,-8.5487300000000008
217327.0,79.954999999999998,-3752.6199999999999,-3670.1300000000001,-3735.1599999999999,-14.5938,-2.0815600000000001,-4.8798700000000004
217328.0,92.337299999999999,-2850.1799999999998,-2748.4099999999999,-2822.0500000000002,-7.0936599999999999,-5.1869399999999999,-1.77799
217329.0,108.84999999999999,-1898.51,-1776.96,-1858.95,-5.7976400000000003,-8.5182400000000005,-0.22964100000000001
217330.0,109.373,-933.02999999999997,-810.721,-890.56100000000004,-7.01572,-9.0296299999999992,0.70873399999999998
217331.0,254.18199999999999,2518.8400000000001,2556.73,2478.4099999999999,138.96299999999999,17.627300000000002,19.511500000000002
217332.0,150.404,446.11599999999999,455.47300000000001,403.00900000000001,80.031499999999994,0.87445700000000004,18.752600000000001
217333.0,140.036,2358.0599999999999,2463.29,2391.5599999999999,-59.740499999999997,-7.1639799999999996,5.1599700000000004
217334.0,145.84700000000001,5449.8199999999997,5493.54,5444.8299999999999,-79.793800000000005,-1.7624,-1.4454100000000001
217335.0,90.279399999999995,4412.3900000000003,4483.2299999999996,4420.0600000000004,-30.921299999999999,2.0480499999999999,-15.654400000000001
217336.0,98.067899999999995,2797.9400000000001,2902.6300000000001,2825.3299999999999,-11.598800000000001,-3.4699800000000001,-10.5648
217337.0,123.557,5529.8500000000004,5562.0699999999997,5521.79,-66.885800000000003,0.86975400000000003,-12.647500000000001
217338.0,153.02199999999999,1975.97,2056.8499999999999,1996.6900000000001,-76.938599999999994,-6.09375,9.1498899999999992
217339.0,84.976699999999994,-1650.4400000000001,-1588.3699999999999,-1659.5699999999999,20.485299999999999,3.4372600000000002,21.7865
217340.0,114.04300000000001,-1685.6099999999999,-1636.03,-1711.7,48.503999999999998,4.0645499999999997,22.1008
217341.0,82.000399999999999,493.767,574.61099999999999,503.37,-5.30023,-0.136409,16.207799999999999
217342.0,102.994,-1751.8099999999999,-1653.72,-1727.5799999999999,-28.4634,-2.39669,10.447800000000001
217343.0,132.30799999999999,347.12900000000002,455.31599999999997,378.642,-51.977200000000003,-4.26722,4.3784000000000001
217344.0,156.87700000000001,484.00900000000001,602.32899999999995,521.54999999999995,-66.994500000000002,-7.6205400000000001,1.2041900000000001
217345.0,141.65700000000001,-1336.8800000000001,-1231.1500000000001,-1304.3399999999999,-61.007300000000001,-5.5079799999999999,2.0214300000000001
217346.0,129.91399999999999,2293.77,2382.0900000000001,2319.48,-58.667299999999997,-5.71272,9.3671500000000005
217347.0,172.07300000000001,3449.6999999999998,3522.73,3463.9699999999998,-90.785899999999998,-6.1186299999999996,9.5836100000000002
217348.0,187.245,4009.1999999999998,4072.02,4015.4000000000001,-101.926,-5.1967999999999996,8.5168999999999997
217349.0,183.30199999999999,4593.5600000000004,4649.7299999999996,4595.4700000000003,-100.622,-3.5014500000000002,6.7785500000000001
217350.0,168.779,5158.7600000000002,5208.9399999999996,5157.25,-92.824799999999996,-2.2544599999999999,2.8970799999999999
217351.0,149.97200000000001,-5111.6999999999998,-5072.1400000000003,-5121.25,-82.502700000000004,-3.1875200000000001,1.5108299999999999
217352.0,130.49299999999999,5517.1099999999997,5555.0600000000004,5510.1999999999998,-71.018000000000001,-0.314058,-7.0002599999999999
217353.0,119.319,5504.8000000000002,5534.6400000000003,5496.2200000000003,-63.751800000000003,1.7503299999999999,-16.4832
217354.0,112.276,5298.8500000000004,5325.1000000000004,5287.5500000000002,-59.046599999999998,4.2193100000000001,-18.0701
217355.0,113.006,5132.7600000000002,5164.54,5122.8299999999999,-58.115600000000001,5.4664200000000003,-19.358599999999999
217356.0,102.694,4920.3000000000002,4970.9399999999996,4918.6000000000004,-47.735999999999997,4.2949599999999997,-18.263999999999999
217357.0,81.163499999999999,-4773.3100000000004,-4730.3599999999997,-4778.1499999999996,-35.250300000000003,3.9371800000000001,-15.6806
217358.0,91.277900000000002,3659.9400000000001,3750.3400000000001,3678.1199999999999,-17.834399999999999,-0.62478699999999998,-13.134499999999999
217359.0,106.139,1868.53,1985.8800000000001,1904.52,-7.7982300000000002,-6.2531600000000003,-6.4100900000000003
217360.0,103.965,943.44399999999996,1058.48,980.54700000000003,-9.9535,-6.8979699999999999,-3.0438299999999998
217361.0,92.161100000000005,154.11699999999999,255.16,186.63999999999999,-11.9901,-5.1794000000000002,-0.43439
217362.0,62.276800000000001,99.142899999999997,42.928199999999997,101.72199999999999,-13.645300000000001,1.5158199999999999,-0.63171699999999997
217363.0,154.982,637.43200000000002,700.52200000000005,609.91300000000001,73.720200000000006,7.6533499999999997,18.848199999999999
217364.0,115.30200000000001,2461.3400000000001,2537.1500000000001,2450.6500000000001,41.321399999999997,5.3113999999999999,21.7333
217365.0,97.4499,436.20100000000002,529.81700000000001,444.024,10.118499999999999,0.43907099999999999,19.1129
217366.0,106.315,873.81899999999996,983.38199999999995,897.61800000000005,-15.3971,-2.7538299999999998,14.212
217367.0,126.804,1468.5799999999999,1590.01,1502.9000000000001,-36.850200000000001,-4.6281999999999996,7.8517400000000004
217368.0,153.21299999999999,34.819299999999998,161.96199999999999,74.047300000000007,-59.479700000000001,-6.8277799999999997,1.1947300000000001
217369.0,125.892,-2499.2399999999998,-2404.5700000000002,-2470.1700000000001,-53.593800000000002,-4.2051100000000003,6.4234499999999999
217370.0,141.46799999999999,-1555.3499999999999,-1456.3199999999999,-1525.55,-63.250500000000002,-5.1955999999999998,7.8669099999999998
217371.0,160.839,-2177.3099999999999,-2088.1199999999999,-2154.4899999999998,-79.927300000000002,-4.9683099999999998,7.9499000000000004
217372.0,176.499,-3495.5100000000002,-3415.8499999999999,-3481.0900000000001,-92.163200000000003,-4.5507299999999997,8.2242499999999996
217373.0,181.44499999999999,-3985.1300000000001,-3923.0300000000002,-3981.8099999999999,-98.427099999999996,-3.2393299999999998,7.4300600000000001
217374.0,170.91,-4618.9300000000003,-4568.5200000000004,-4622.5299999999997,-93.763900000000007,-2.90978,4.9892099999999999
217375.0,132.59299999999999,-5296.4200000000001,-5260.6999999999998,-5307.1800000000003,-72.462599999999995,-3.50684,-2.31793
217376.0,123.747,-5326.1099999999997,-5292.7799999999997,-5336.5,-67.1494,-2.3737900000000001,-8.2601200000000006
217377.0,119.309,-5365.6099999999997,-5336.3000000000002,-5376.6300000000001,-64.339399999999998,-0.98782000000000003,-13.034000000000001
217378.0,111.077,-5270.2299999999996,-5243.1499999999996,-5282.7700000000004,-58.965600000000002,1.2464599999999999,-14.975199999999999
217379.0,113.105,-5057.4399999999996,-5029.9399999999996,-5070.79,-59.279400000000003,3.7040099999999998,-17.401599999999998
217380.0,102.376,-4980.5900000000001,-4952.4899999999998,-4993.29,-52.159199999999998,5.0236499999999999,-17.658300000000001
217381.0,74.759600000000006,-4218.8599999999997,-4154.8100000000004,-4212.0699999999997,-20.9526,1.5625899999999999,-13.5581
217382.0,83.361699999999999,-3486.4200000000001,-3400.8899999999999,-3466.7800000000002,-13.0968,-1.16275,-11.6755
217383.0,92.067400000000006,-2642.8899999999999,-2542.1999999999998,-2613.0999999999999,-8.3802299999999992,-3.5722499999999999,-8.1951499999999999
217384.0,104.021,-1734.6600000000001,-1619.01,-1695.77,-9.3666999999999998,-5.9947699999999999,-4.4308399999999999
217385.0,102.92700000000001,-848.36400000000003,-734.25599999999997,-808.88999999999999,-11.504799999999999,-6.33026,-0.84872599999999998
217386.0,255.13499999999999,-1110.9000000000001,-1074.6400000000001,-1152.8299999999999,140.41900000000001,15.048299999999999,14.9328
217387.0,143.411,-1432.8299999999999,-1424.3399999999999,-1474.8399999999999,77.544300000000007,-2.7303999999999999,10.1867
217388.0,156.24700000000001,1562.05,1665.49,1594.55,-71.367400000000004,-8.4855999999999998,13.214700000000001
217389.0,130.75,6092.8900000000003,6139.4099999999999,6091.3800000000001,-70.073400000000007,-5.6708299999999996,3.2495500000000002
217390.0,89.439700000000002,3819.5799999999999,3910.0599999999999,3842.3499999999999,-16.540800000000001,1.20116,-13.272399999999999
217391.0,91.195599999999999,2092.96,2191.3200000000002,2121.1199999999999,-6.4528100000000004,-4.0334700000000003,-12.182399999999999
217392.0,109.449,5764.3999999999996,5801.7200000000003,5759.8999999999996,-58.646799999999999,-4.3730900000000004,-2.7217899999999999
217393.0,177.774,4076.1399999999999,4151.6199999999999,4094.9699999999998,-93.239400000000003,-7.7587299999999999,15.397
217394.0,84.3446,-90.942899999999995,-22.5779,-99.307599999999994,18.253900000000002,2.1331899999999999,16.177700000000002
217395.0,104.535,46.0364,100.343,22.438400000000001,43.539999999999999,0.128858,12.2836
217396.0,87.280600000000007,-1796.9100000000001,-1711.78,-1789.49,-8.0177399999999999,-0.240172,15.866400000000001
217397.0,112.044,1357.8499999999999,1459.95,1381.05,-33.545699999999997,-3.9202599999999999,13.397600000000001
217398.0,141.55699999999999,542.64099999999996,654.76199999999994,574.88900000000001,-56.7746,-4.8400499999999997,10.040900000000001
217399.0,163.715,2002.4300000000001,2119.3299999999999,2038.23,-72.030199999999994,-8.0846699999999991,9.6680700000000002
217400.0,155.06200000000001,-1691.5,-1581.8099999999999,-1659.51,-68.350099999999998,-6.8648100000000003,10.6822
217401.0,153.41999999999999,2652.1999999999998,2739.25,2678.0700000000002,-74.603899999999996,-6.8257500000000002,15.324199999999999
217402.0,200.548,3969.29,4036.46,3981.7800000000002,-108.97799999999999,-6.8840500000000002,14.3683
217403.0,210.45699999999999,4887.3599999999997,4946.2299999999996,4891.6800000000003,-116.345,-5.5704799999999999,10.9749
217404.0,193.04300000000001,5669.6800000000003,5723.9399999999996,5669.9799999999996,-106.49299999999999,-5.6851099999999999,8.5295500000000004
217405.0,162.90199999999999,6019.6899999999996,6070.8999999999996,6019.4300000000003,-88.889399999999995,-5.8063099999999999,5.65442
217406.0,136.71899999999999,-5919.5699999999997,-5885.2399999999998,-5927.4099999999999,-75.188599999999994,-7.0108600000000001,5.0179
217407.0,115.946,5997.8900000000003,6040.6300000000001,5995.9300000000003,-61.759700000000002,-5.3495699999999999,0.28785699999999997
217408.0,108.152,5499.4200000000001,5534.6300000000001,5493.1700000000001,-57.957599999999999,-3.08134,-5.5388400000000004
217409.0,103.404,5321.2700000000004,5356.8500000000004,5316.3400000000001,-54.823799999999999,-0.55674599999999996,-8.3354999999999997
217410.0,99.275300000000001,5022.8999999999996,5069.46,5023.9300000000003,-49.511200000000002,1.1859299999999999,-11.199299999999999
217411.0,90.998999999999995,4523.0200000000004,4592.6499999999996,4535.21,-34.884500000000003,1.57935,-12.566700000000001
217412.0,71.302000000000007,-4323.1099999999997,-4261.6599999999999,-4315.7799999999997,-21.3124,-0.66330800000000001,-10.6648
217413.0,94.291600000000003,2978.27,3080.04,3007.3299999999999,-5.6953300000000002,-1.01254,-13.494
217414.0,89.121700000000004,1320.29,1414.74,1347.46,-13.249700000000001,-6.1491600000000002,-8.3591200000000008
217415.0,88.561499999999995,665.89200000000005,756.08799999999997,691.77599999999995,-20.1464,-6.0497699999999996,-3.8771100000000001
217416.0,82.321700000000007,102.831,185.79499999999999,126.181,-20.344899999999999,-3.8008899999999999,-0.52075899999999997
217417.0,68.054100000000005,91.141199999999998,25.3431,86.8065,-13.664899999999999,1.52583,0.63528700000000005
217418.0,143.01900000000001,751.63199999999995,816.245,729.94600000000003,68.322199999999995,4.2496400000000003,10.8026
217419.0,105.636,-630.92600000000004,-553.74199999999996,-639.029,36.235700000000001,2.6118899999999998,13.5528
217420.0,97.147999999999996,1259.98,1355.76,1268.0799999999999,8.2904300000000006,0.17605599999999999,15.995200000000001
217421.0,113.276,188.584,303.12400000000002,211.95400000000001,-19.404299999999999,-3.6084800000000001,14.988300000000001
217422.0,135.55799999999999,-1463.4000000000001,-1338.72,-1428.98,-42.399500000000003,-5.5225299999999997,12.2781
217423.0,158.25399999999999,-1412.54,-1284.6600000000001,-1375.0799999999999,-62.596800000000002,-6.9794900000000002,7.6911199999999997
217424.0,147.40000000000001,-1708.6400000000001,-1611.04,-1679.25,-67.185199999999995,-5.2174800000000001,13.9251
217425.0,162.41399999999999,-3485.5799999999999,-3388.3200000000002,-3457.0999999999999,-78.060000000000002,-5.2706,13.0953
217426.0,186.94999999999999,-4019.4699999999998,-3933.8600000000001,-3998.1100000000001,-97.073899999999995,-5.7706099999999996,14.4215
217427.0,200.94499999999999,-4085.5,-4014.3200000000002,-4074.2600000000002,-108.748,-5.2908099999999996,11.885199999999999
217428.0,195.874,-5057.3000000000002,-5007.0500000000002,-5058.6000000000004,-108.738,-5.1830999999999996,8.6029699999999991
217429.0,170.541,-5698.5699999999997,-5659.8500000000004,-5705.04,-94.887100000000004,-6.5103099999999996,7.1912599999999998
217430.0,118.699,-5923.5100000000002,-5884.6499999999996,-5929.1300000000001,-63.604399999999998,-7.4582300000000004,2.9388800000000002
217431.0,110.011,-5764.29,-5724.8000000000002,-5769.3599999999997,-58.2455,-6.8081199999999997,0.346022
217432.0,108.67700000000001,-5467.4200000000001,-5429.9099999999999,-5474.2799999999997,-57.715299999999999,-5.36165,-2.5920399999999999
217433.0,104.63,-5278.5699999999997,-5244.4700000000003,-5286.6099999999997,-55.794899999999998,-3.4336500000000001,-4.86883
217434.0,99.742500000000007,-5116.1599999999999,-5081.9399999999996,-5122.8699999999999,-52.597900000000003,-1.39961,-8.1112500000000001
217435.0,84.152299999999997,-4802.5699999999997,-4761.3299999999999,-4805.8199999999997,-40.571100000000001,-0.28116999999999998,-9.9671199999999995
217436.0,80.026700000000005,-3628.2600000000002,-3544.27,-3608.1900000000001,-7.9320899999999996,-2.00746,-12.0029
217437.0,90.937899999999999,-2782.9200000000001,-2684.46,-2753.46,-6.0336100000000004,-3.9848699999999999,-12.274699999999999
217438.0,91.155299999999997,-1917.49,-1819.75,-1886.4300000000001,-12.3346,-4.5530999999999997,-10.1478
217439.0,91.324100000000001,-1204.6300000000001,-1109.3900000000001,-1173.6500000000001,-19.187200000000001,-4.0183299999999997,-5.9832599999999996
217440.0,87.2624,-599.03399999999999,-508.642,-570.35000000000002,-19.848299999999998,-3.0621399999999999,-1.15889
217441.0,253.83000000000001,2734.8499999999999,2771.8899999999999,2690.29,140.166,8.1305200000000006,9.7329299999999996
217442.0,133.21600000000001,389.245,397.96600000000001,356.685,72.889799999999994,0.15824099999999999,11.3645
217443.0,176.816,2970.3899999999999,3073.1999999999998,2999.1999999999998,-84.459599999999995,-10.2105,19.2668
217444.0,126.137,6673.9499999999998,6717.5,6670.1899999999996,-66.819800000000001,-10.1692,6.6268900000000004
217445.0,104.078,3292.1300000000001,3410.23,3338.1199999999999,3.3972799999999999,-2.4382100000000002,-7.0284500000000003
217446.0,82.9285,1113.6300000000001,1206.45,1145.7,0.82433900000000004,-3.32918,-7.6232699999999998
217447.0,113.532,6175.9300000000003,6216.2700000000004,6172.8599999999997,-60.225299999999997,-7.8027199999999999,4.66988
217448.0,209.17400000000001,3252.4699999999998,3324.8299999999999,3269.25,-111.465,-9.4614999999999991,25.2227
217449.0,76.833699999999993,-1377.95,-1307.8,-1379.1199999999999,13.6416,-1.2296899999999999,10.5847
217450.0,88.544799999999995,-1511.3900000000001,-1458.3599999999999,-1524.1700000000001,35.6663,-0.43073400000000001,11.109400000000001
217451.0,88.089500000000001,765.35500000000002,852.81299999999999,772.82100000000003,-9.9030000000000005,-1.3012699999999999,11.6729
217452.0,120.098,-1401.79,-1296.3199999999999,-1381.27,-38.389699999999998,-4.7730600000000001,13.569900000000001
217453.0,153.38999999999999,817.20299999999997,934.59699999999998,849.82500000000005,-62.975099999999998,-6.7743900000000004,12.6128
217454.0,170.87799999999999,981.27999999999997,1096.8699999999999,1015.03,-76.829400000000007,-9.6657799999999998,14.291499999999999
217455.0,169.43199999999999,-1771.3800000000001,-1655.8299999999999,-1740.45,-75.331900000000005,-7.9694099999999999,15.905099999999999
217456.0,186.429,3237.0999999999999,3324.8899999999999,3261.5900000000001,-94.397199999999998,-9.3261900000000004,23.133400000000002
217457.0,230.86099999999999,5053.5900000000001,5119.4499999999998,5065.0299999999997,-125.989,-8.2085600000000003,24.2226
217458.0,221.91300000000001,5849.6099999999997,5909.2700000000004,5856.1099999999997,-122.17100000000001,-6.8704000000000001,19.260000000000002
217459.0,184.70099999999999,6384.6400000000003,6437.3800000000001,6385.25,-100.996,-7.3427499999999997,14.169700000000001
217460.0,152.572,6708.8699999999999,6757.5299999999997,6706.3100000000004,-82.195800000000006,-9.0897699999999997,9.3568599999999993
217461.0,130.30199999999999,-6599.6499999999996,-6565.8500000000004,-6607.3999999999996,-70.703199999999995,-10.5444,7.8297800000000004
217462.0,117.916,6423.9899999999998,6463.6000000000004,6419.4200000000001,-62.4726,-10.3277,5.90585
217463.0,102.979,5910.8900000000003,5953.1899999999996,5909.79,-53.698500000000003,-5.73224,2.4947699999999999
217464.0,94.2667,5478.1499999999996,5527.21,5481.5100000000002,-46.799300000000002,-4.5139399999999998,-0.666933
217465.0,88.810000000000002,4989.4700000000003,5056.7299999999996,5004.21,-36.727899999999998,-3.39541,-4.3291899999999996
217466.0,90.652900000000002,4312.5799999999999,4408.6400000000003,4344.8199999999997,-17.378499999999999,-2.77868,-6.2756699999999999
217467.0,77.3917,-4064.1700000000001,-3977.5300000000002,-4035.5500000000002,-1.9217500000000001,-4.8447800000000001,-4.5752699999999997
217468.0,104.809,2100.04,2216.9099999999999,2145.9400000000001,11.5977,-3.05993,-7.1328800000000001
217469.0,68.650899999999993,529.86400000000003,596.28499999999997,546.572,-17.5871,-4.7429199999999998,-6.7434799999999999
217470.0,75.6524,262.726,318.64999999999998,273.68799999999999,-31.346499999999999,-5.7844800000000003,-3.6718700000000002
217471.0,75.700999999999993,54.042200000000001,113.044,66.9833,-30.577999999999999,-3.66384,-0.280862
217472.0,77.715000000000003,92.089500000000001,14.8804,81.905199999999994,-15.544499999999999,3.1130399999999998,1.5288900000000001
217473.0,129.34999999999999,479.24700000000001,542.64599999999996,468.79500000000002,61.755499999999998,5.0318399999999999,11.8728
217474.0,88.437899999999999,2060.0700000000002,2133.77,2063.3800000000001,27.782699999999998,-0.16211300000000001,10.1166
217475.0,89.143900000000002,71.834599999999995,164.25899999999999,84.672700000000006,5.45953,-1.5069300000000001,10.4848
217476.0,115.38800000000001,558.26099999999997,675.26700000000005,582.39999999999998,-21.510100000000001,-3.9650300000000001,11.9787
217477.0,147.02000000000001,1062.5899999999999,1192.8599999999999,1097.4100000000001,-49.168999999999997,-6.5553499999999998,13.976699999999999
217478.0,163.69200000000001,-445.54500000000002,-318.03399999999999,-409.70299999999997,-66.549899999999994,-7.7983399999999996,10.838200000000001
217479.0,176.85900000000001,-3132.4000000000001,-3027.98,-3104.73,-83.779399999999995,-7.02508,20.774100000000001
217480.0,191.505,-2593.4400000000001,-2499.0599999999999,-2567.9200000000001,-96.354500000000002,-6.9380300000000004,22.552
217481.0,218.16800000000001,-3529.1999999999998,-3447.23,-3510.4499999999998,-115.48999999999999,-7.8669799999999999,24.928699999999999
217482.0,221.417,-5223.7799999999997,-5163.1700000000001,-5216.5,-121.291,-8.0868199999999995,21.674600000000002
217483.0,192.77099999999999,-5902.3100000000004,-5862.4799999999996,-5906.5200000000004,-107.09999999999999,-8.4737500000000008,15.937200000000001
217484.0,159.572,-6386.9499999999998,-6351.4799999999996,-6394.5299999999997,-87.864800000000002,-10.1515,11.675000000000001
217485.0,117.86499999999999,-6424.5299999999997,-6386.4399999999996,-6429.0500000000002,-62.783799999999999,-10.1972,6.0854499999999998
217486.0,114.762,-6144.5600000000004,-6106.4399999999996,-6149.1000000000004,-60.958799999999997,-9.2578800000000001,6.2774799999999997
217487.0,105.208,-5950.3599999999997,-5913.5500000000002,-5955.3500000000004,-55.598999999999997,-7.5276199999999998,4.5314100000000002
217488.0,96.240300000000005,-5632.9499999999998,-5594.0100000000002,-5636.1300000000001,-49.746200000000002,-7.4314400000000003,2.70173
217489.0,86.013999999999996,-5214.3500000000004,-5169.6899999999996,-5212.6800000000003,-42.162700000000001,-6.8789800000000003,-0.48747299999999999
217490.0,69.540700000000001,-4779.8100000000004,-4721.3599999999997,-4767.8900000000003,-24.812200000000001,-5.4550700000000001,-3.5641500000000002
217491.0,102.46299999999999,-2962.2600000000002,-2848.0,-2919.02,10.9108,-4.8982999999999999,-5.3610800000000003
217492.0,106.75700000000001,-1760.53,-1639.75,-1715.51,3.1778900000000001,-5.32843,-5.8817500000000003
217493.0,92.990200000000002,-844.80100000000004,-745.47199999999998,-812.31799999999998,-15.7844,-4.3872400000000003,-7.00291
217494.0,84.084900000000005,-382.59100000000001,-311.85500000000002,-364.52100000000002,-31.077999999999999,-3.83236,-5.0595400000000001
217495.0,74.2363,-224.21600000000001,-167.536,-212.18700000000001,-30.6267,-2.6126100000000001,-0.59062999999999999
217496.0,248.96600000000001,-1173.5799999999999,-1131.5599999999999,-1216.4400000000001,137.316,2.1254499999999998,-0.21517500000000001
217497.0,127.91800000000001,-1406.49,-1394.03,-1432.4100000000001,69.164599999999993,2.1417099999999998,16.812100000000001
217498.0,203.95400000000001,2311.3400000000001,2415.6300000000001,2338.6100000000001,-100.664,-12.750400000000001,25.380400000000002
217499.0,122.444,6883.3000000000002,6922.9099999999999,6872.1599999999999,-64.462999999999994,-10.634399999999999,4.1828700000000003
217500.0,109.32299999999999,2810.27,2933.2800000000002,2864.1799999999998,11.2994,-7.3342499999999999,0.59515700000000005
217501.0,78.754900000000006,718.86599999999999,809.11900000000003,758.46600000000001,2.5767000000000002,-3.4402200000000001,1.5502899999999999
217502.0,125.65000000000001,6644.0699999999997,6684.6099999999997,6638.9499999999998,-67.113900000000001,-11.091100000000001,3.0872199999999999
217503.0,241.03,5621.6099999999997,5697.4899999999998,5635.8999999999996,-128.661,-10.6404,32.751399999999997
217504.0,78.165000000000006,147.785,219.80600000000001,150.667,6.9304100000000002,0.0343638,18.054600000000001
217505.0,88.884200000000007,129.899,183.19200000000001,123.041,31.1996,5.3475799999999998,23.392700000000001
217506.0,91.135499999999993,-1491.8599999999999,-1401.71,-1479.8199999999999,-14.556800000000001,-3.6822699999999999,12.1501
217507.0,122.377,1668.47,1774.46,1690.22,-40.8001,-5.9014800000000003,12.596299999999999
217508.0,164.012,970.75,1089.8499999999999,1002.39,-69.580799999999996,-8.2359399999999994,15.8528
217509.0,187.72399999999999,2561.8699999999999,2677.8099999999999,2593.3600000000001,-87.222700000000003,-11.790800000000001,20.1463
217510.0,190.922,-2251.1100000000001,-2131.1799999999998,-2219.6700000000001,-88.087000000000003,-9.7725799999999996,20.688600000000001
217511.0,222.71600000000001,3801.2399999999998,3891.8200000000002,3823.8000000000002,-114.863,-12.1776,31.130400000000002
217512.0,248.06999999999999,5778.0200000000004,5848.7299999999996,5787.8599999999997,-134.52000000000001,-9.9032800000000005,29.192599999999999
217513.0,216.99299999999999,6706.8000000000002,6772.3800000000001,6713.3400000000001,-117.373,-9.1180000000000003,23.0425
217514.0,165.18199999999999,7135.1099999999997,7192.2799999999997,7135.8500000000004,-87.894000000000005,-7.6993600000000004,15.3253
217515.0,133.505,7047.2700000000004,7096.4300000000003,7041.6300000000001,-69.957700000000003,-8.5836799999999993,8.0354700000000001
217516.0,121.392,-6768.4799999999996,-6726.9200000000001,-6777.8800000000001,-63.318100000000001,-11.382999999999999,6.15686
217517.0,128.50800000000001,6781.4700000000003,6815.8599999999997,6769.5200000000004,-69.183300000000003,-11.5251,2.5872000000000002
217518.0,103.059,6277.1099999999997,6329.6700000000001,6281.2799999999997,-51.112299999999998,-8.1449200000000008,2.7958099999999999
217519.0,85.876400000000004,5735.8800000000001,5803.4499999999998,5750.2799999999997,-34.0139,-5.8920899999999996,-0.0591741
217520.0,84.515100000000004,4966.0,5051.9899999999998,4993.4300000000003,-20.148099999999999,-6.3236600000000003,-2.3930799999999999
217521.0,96.477800000000002,3965.8899999999999,4075.2199999999998,4009.3200000000002,-4.1300499999999998,-7.1315600000000003,-2.0380099999999999
217522.0,92.208399999999997,-3596.6199999999999,-3492.7600000000002,-3555.79,7.1015199999999998,-6.8016899999999998,-0.0058369600000000004
217523.0,103.334,1648.5999999999999,1763.7,1700.5699999999999,14.153600000000001,-5.5076700000000001,2.5092099999999999
217524.0,55.308799999999998,172.28100000000001,228.28999999999999,192.642,-14.279299999999999,-3.3705500000000002,-0.83760100000000004
217525.0,64.795599999999993,8.1249800000000008,42.627800000000001,14.888400000000001,-32.126600000000003,-5.42842,-1.9055299999999999
217526.0,72.768000000000001,7.1728300000000003,44.972499999999997,14.9123,-36.616399999999999,-5.0055100000000001,-0.72265999999999997
217527.0,82.103899999999996,69.635300000000001,-13.5426,47.783099999999997,-18.8004,2.04793,5.4666100000000002
217528.0,125.601,623.86699999999996,686.14599999999996,617.98900000000003,58.248699999999999,6.3002000000000002,19.988199999999999
217529.0,89.0381,-911.44899999999996,-835.53899999999999,-902.904,23.0732,2.6986300000000001,19.340399999999999
217530.0,88.299099999999996,841.79100000000005,934.83199999999999,860.32399999999996,-1.88279,-2.3581599999999998,12.828799999999999
217531.0,113.372,-198.715,-84.256299999999996,-170.971,-24.716799999999999,-4.7727599999999999,9.2567299999999992
217532.0,151.64099999999999,-1827.0599999999999,-1694.3399999999999,-1789.9000000000001,-52.335700000000003,-6.6140400000000001,13.945
217533.0,175.358,-1911.4000000000001,-1781.6500000000001,-1875.52,-73.773499999999999,-8.7082700000000006,15.592499999999999
217534.0,207.52799999999999,-2523.1700000000001,-2414.9299999999998,-2495.1700000000001,-101.94199999999999,-9.5011100000000006,26.782599999999999
217535.0,225.077,-4762.21,-4668.1999999999998,-4740.0799999999999,-115.55500000000001,-9.51023,32.054900000000004
217536.0,242.15899999999999,-5636.29,-5557.2700000000004,-5622.9899999999998,-129.20400000000001,-10.4229,30.8962
217537.0,226.184,-5927.9200000000001,-5872.1000000000004,-5926.8699999999999,-123.43600000000001,-11.0914,25.962299999999999
217538.0,177.80799999999999,-6781.4300000000003,-6741.8100000000004,-6789.0900000000001,-96.930800000000005,-10.8132,19.548500000000001
217539.0,138.119,-6943.8599999999997,-6902.8800000000001,-6952.9200000000001,-73.4863,-10.690099999999999,11.5609
217540.0,125.898,-6636.21,-6596.4399999999996,-6644.6499999999996,-66.816699999999997,-11.930199999999999,3.7112599999999998
217541.0,127.93300000000001,-6565.2200000000003,-6533.3900000000003,-6574.0799999999999,-69.781599999999997,-11.009499999999999,2.6620200000000001
217542.0,106.2,-6389.4200000000001,-6359.4799999999996,-6395.5799999999999,-57.284199999999998,-9.6189099999999996,3.5415299999999998
217543.0,82.682299999999998,-6001.5200000000004,-5958.5,-5999.5,-40.221800000000002,-8.2539700000000007,1.8742300000000001
217544.0,73.120800000000003,-5420.6999999999998,-5359.8699999999999,-5407.5900000000001,-26.244800000000001,-8.2381600000000006,-0.77623799999999998
217545.0,74.007300000000001,-4607.8699999999999,-4528.4899999999998,-4582.29,-10.694000000000001,-8.2375299999999996,-1.31671
217546.0,110.248,-2430.4099999999999,-2307.2800000000002,-2377.8000000000002,13.965199999999999,-5.5283600000000002,2.9165999999999999
217547.0,105.73399999999999,-1267.97,-1147.1199999999999,-1216.24,4.29664,-4.4819000000000004,3.38809
217548.0,87.905500000000004,-414.12099999999998,-316.87,-375.24099999999999,-12.4847,-4.6607700000000003,1.44936
217549.0,78.770899999999997,37.253999999999998,99.760199999999998,56.605699999999999,-31.761299999999999,-5.9289500000000004,-0.61738999999999999
217550.0,73.451800000000006,78.719300000000004,115.371,84.533199999999994,-37.073700000000002,-5.9820900000000004,0.34078199999999997
217551.0,240.86500000000001,2492.0799999999999,2539.9499999999998,2454.75,132.12100000000001,2.7554099999999999,-7.1324800000000002
217552.0,124.619,528.81500000000005,549.25300000000004,504.60700000000003,65.774000000000001,-0.73799400000000004,18.717199999999998
217553.0,229.554,3841.3299999999999,3946.7199999999998,3868.5799999999999,-116.06399999999999,-15.565300000000001,29.319700000000001
217554.0,99.660700000000006,6885.6899999999996,6928.5799999999999,6877.8199999999997,-49.978900000000003,-5.9899300000000002,-5.5259900000000002
217555.0,92.8857,2748.8499999999999,2853.1599999999999,2787.8099999999999,-0.0543721,-8.9501799999999996,4.2325699999999999
217556.0,81.114400000000003,1052.45,1142.4100000000001,1090.46,-4.1705100000000002,-5.8962899999999996,10.096299999999999
217557.0,129.64599999999999,6452.6000000000004,6490.8100000000004,6442.9200000000001,-69.030799999999999,-10.9307,-8.7584
217558.0,265.55599999999998,4876.2600000000002,4957.4899999999998,4891.9899999999998,-142.47999999999999,-13.610300000000001,34.125599999999999
217559.0,82.543999999999997,-1315.4400000000001,-1240.3900000000001,-1315.3599999999999,4.3033799999999998,2.0165899999999999,19.313400000000001
217560.0,93.105099999999993,-1474.4200000000001,-1415.4300000000001,-1483.23,30.690000000000001,4.08765,23.914899999999999
217561.0,93.139799999999994,1018.55,1109.5699999999999,1034.5999999999999,-17.9252,-1.9337,14.371499999999999
217562.0,123.98099999999999,-1093.29,-989.17100000000005,-1068.6600000000001,-43.521999999999998,-6.9612100000000003,14.839
217563.0,175.494,1157.02,1276.75,1187.8299999999999,-77.095600000000005,-10.671900000000001,18.516300000000001
217564.0,207.078,1510.77,1628.8800000000001,1541.3699999999999,-99.248400000000004,-13.025700000000001,22.730799999999999
217565.0,211.893,-2438.48,-2316.1399999999999,-2405.6900000000001,-101.492,-11.433999999999999,22.910699999999999
217566.0,255.53800000000001,4505.0699999999997,4598.3699999999999,4527.3599999999997,-134.03399999999999,-15.4741,34.463000000000001
217567.0,247.12899999999999,6798.0699999999997,6872.1899999999996,6811.1700000000001,-133.53800000000001,-12.5838,28.321200000000001
217568.0,201.07499999999999,7363.7700000000004,7431.21,7373.6499999999996,-107.759,-10.824,20.525099999999998
217569.0,144.703,7466.1300000000001,7528.3400000000001,7472.1099999999997,-74.905000000000001,-7.5803099999999999,11.552899999999999
217570.0,107.699,7292.9799999999996,7348.0799999999999,7293.3400000000001,-53.150500000000001,-5.6286800000000001,2.0833699999999999
217571.0,96.4131,-6967.3999999999996,-6918.8100000000004,-6970.4399999999996,-46.619599999999998,-9.2646300000000004,-0.42322100000000001
217572.0,119.639,6573.8199999999997,6608.1899999999996,6560.96,-63.288200000000003,-8.9469399999999997,-9.4568399999999997
217573.0,111.002,6261.8100000000004,6320.4300000000003,6265.4799999999996,-53.921199999999999,-8.8902999999999999,-6.5115299999999996
217574.0,86.680499999999995,5626.71,5704.6999999999998,5643.9099999999999,-27.369499999999999,-7.4384100000000002,-4.6029799999999996
217575.0,86.081900000000005,4715.6899999999996,4807.9200000000001,4742.3599999999997,-12.210900000000001,-7.6384100000000004,-3.1582300000000001
217576.0,91.989900000000006,3748.1500000000001,3850.6100000000001,3782.4499999999998,-4.8719299999999999,-8.7441800000000001,-0.53933299999999995
217577.0,89.616900000000001,-3372.7600000000002,-3271.98,-3339.0599999999999,-1.84406,-6.3232999999999997,1.2702800000000001
217578.0,89.401600000000002,1823.6300000000001,1923.73,1864.23,-1.11974,-7.4002299999999996,8.5801400000000001
217579.0,62.985100000000003,450.64999999999998,516.86400000000003,477.05000000000001,-11.2624,-4.6982699999999999,7.8991899999999999
217580.0,59.532200000000003,127.38500000000001,168.715,139.142,-26.118200000000002,-5.2121599999999999,4.3062699999999996
217581.0,69.647800000000004,51.226599999999998,86.106499999999997,58.251100000000001,-34.910400000000003,-7.0974000000000004,2.7418
217582.0,81.158199999999994,-0.28712199999999999,-77.587599999999995,-23.762499999999999,-23.125599999999999,4.2347599999999996,8.4985999999999997
217583.0,124.59399999999999,359.911,425.48000000000002,353.97399999999999,55.296599999999998,4.6430999999999996,22.8185
217584.0,95.721400000000003,2079.3000000000002,2160.3600000000001,2083.8800000000001,23.2532,2.5619200000000002,20.820599999999999
217585.0,93.857600000000005,-118.568,-21.562799999999999,-99.696399999999997,-5.9116299999999997,-1.2074400000000001,15.963800000000001
217586.0,112.51900000000001,149.84399999999999,261.25400000000002,181.673,-27.587599999999998,-4.0705200000000001,12.226000000000001
217587.0,155.946,711.13199999999995,844.85199999999998,751.399,-55.813899999999997,-6.9870900000000002,15.372400000000001
217588.0,189.434,-866.11400000000003,-733.70699999999999,-828.58199999999999,-83.033199999999994,-9.5230300000000003,17.8767
217589.0,236.83000000000001,-4145.5699999999997,-4034.3000000000002,-4115.5200000000004,-119.34999999999999,-12.5345,31.3276
217590.0,254.739,-3986.9899999999998,-3892.8800000000001,-3966.4499999999998,-133.68000000000001,-12.566599999999999,33.970500000000001
217591.0,251.88399999999999,-5230.1199999999999,-5157.8299999999999,-5220.2700000000004,-136.06299999999999,-13.607900000000001,30.223099999999999
217592.0,215.381,-6908.7200000000003,-6856.54,-6907.5900000000001,-117.408,-14.038399999999999,24.3504
217593.0,159.61199999999999,-7242.2299999999996,-7201.54,-7246.8800000000001,-86.211200000000005,-12.239000000000001,16.964400000000001
217594.0,112.58,-7257.3599999999997,-7213.9099999999999,-7261.7600000000002,-58.086199999999998,-9.8847199999999997,7.3174599999999996
217595.0,112.97499999999999,-6510.1999999999998,-6461.1499999999996,-6513.79,-56.927399999999999,-10.509,-6.2036100000000003
217596.0,128.62200000000001,-6286.3900000000003,-6249.21,-6294.9799999999996,-68.712500000000006,-11.3743,-8.4849599999999992
217597.0,115.32899999999999,-6267.8900000000003,-6237.79,-6277.96,-61.989100000000001,-9.9253199999999993,-7.4547400000000001
217598.0,78.673699999999997,-6005.6800000000003,-5961.6000000000004,-6006.1099999999997,-36.236899999999999,-6.9246999999999996,-6.9324199999999996
217599.0,72.753900000000002,-5255.5,-5184.5799999999999,-5240.5699999999997,-17.292000000000002,-6.61409,-4.8574299999999999
217600.0,82.610200000000006,-4325.1899999999996,-4235.1099999999997,-4299.71,-8.1411899999999999,-6.62155,-2.9066100000000001
217601.0,92.905000000000001,-2381.6599999999999,-2277.0,-2342.25,-1.7576400000000001,-5.83331,6.7776300000000003
217602.0,90.5779,-1516.28,-1415.0599999999999,-1475.4400000000001,-4.1040900000000002,-5.3498200000000002,9.7971299999999992
217603.0,85.215900000000005,-776.26900000000001,-683.61800000000005,-738.41200000000003,-10.2759,-6.2189399999999999,10.3134
217604.0,78.668300000000002,-201.77000000000001,-130.40000000000001,-175.65799999999999,-25.4392,-7.5005699999999997,7.4531999999999998
217605.0,75.389499999999998,32.601900000000001,77.629300000000001,43.204900000000002,-35.391599999999997,-8.4051200000000001,4.1425900000000002
217606.0,233.11500000000001,-1342.9100000000001,-1290.49,-1376.1700000000001,126.834,4.7309099999999997,-11.7919
217607.0,119.77800000000001,-1325.25,-1295.8099999999999,-1348.8299999999999,60.9574,-4.3431499999999996,18.493300000000001
217608.0,250.946,3080.6100000000001,3182.96,3108.04,-128.95400000000001,-18.550699999999999,34.805700000000002
217609.0,66.714200000000005,6642.6099999999997,6696.1700000000001,6649.8900000000003,-25.033200000000001,-3.3434499999999998,-1.3501300000000001
217610.0,82.215599999999995,2740.79,2826.8099999999999,2761.7800000000002,-13.821300000000001,-6.7904099999999996,-2.0648300000000002
217611.0,83.102099999999993,1460.8699999999999,1548.25,1488.1099999999999,-16.830300000000001,-3.3299699999999999,2.9581400000000002
217612.0,111.499,5735.5600000000004,5775.6800000000003,5729.21,-56.824599999999997,-8.4489199999999993,-14.4496
217613.0,286.95100000000002,7149.7700000000004,7234.5200000000004,7172.0799999999999,-153.66300000000001,-18.390499999999999,39.582599999999999
217614.0,82.953100000000006,316.12799999999999,391.60599999999999,319.10300000000001,5.5202999999999998,3.7186499999999998,20.5505
217615.0,91.313299999999998,283.56,349.24200000000002,278.86599999999999,26.845300000000002,1.5839000000000001,22.540199999999999
217616.0,93.020899999999997,-1347.1700000000001,-1259.6099999999999,-1334.0599999999999,-15.242100000000001,-0.53837900000000005,20.536300000000001
217617.0,131.38800000000001,1818.0999999999999,1921.8699999999999,1839.0599999999999,-47.528100000000002,-6.5790100000000002,21.010100000000001
217618.0,189.703,1266.25,1388.0999999999999,1298.6099999999999,-85.135900000000007,-11.9954,24.898599999999998
217619.0,221.01400000000001,3091.73,3209.1599999999999,3126.2600000000002,-107.65300000000001,-14.6313,28.921399999999998
217620.0,225.548,-2915.1599999999999,-2794.02,-2878.46,-110.077,-13.011699999999999,28.511900000000001
217621.0,289.24400000000003,4955.8599999999997,5050.5500000000002,4980.4099999999999,-153.184,-19.882300000000001,40.146999999999998
217622.0,243.78200000000001,7301.3699999999999,7375.8699999999999,7320.25,-129.65000000000001,-16.966999999999999,34.823900000000002
217623.0,190.89699999999999,7906.9200000000001,7973.9200000000001,7923.2399999999998,-99.814800000000005,-14.1652,27.6144
217624.0,131.02799999999999,7953.1899999999996,8020.0200000000004,7970.1800000000003,-63.887300000000003,-8.9183699999999995,18.841899999999999
217625.0,84.254900000000006,7383.9899999999998,7447.9499999999998,7398.71,-33.8337,-4.5436800000000002,8.8829100000000007
217626.0,68.217699999999994,-6943.0799999999999,-6887.4499999999998,-6934.0100000000002,-23.893799999999999,-7.8045799999999996,5.3419800000000004
217627.0,85.781700000000001,6060.6000000000004,6103.25,6058.5900000000001,-41.1586,-5.3235400000000004,-9.7165700000000008
217628.0,111.404,5483.3699999999999,5537.8299999999999,5484.5600000000004,-53.5854,-10.062900000000001,-14.0284
217629.0,90.541499999999999,5057.21,5127.5299999999997,5067.2799999999997,-33.273000000000003,-7.9598300000000002,-10.7805
217630.0,85.950699999999998,4349.8199999999997,4434.8999999999996,4367.5799999999999,-19.146999999999998,-5.56677,-7.1122699999999996
217631.0,85.424000000000007,3515.1900000000001,3605.6999999999998,3536.4299999999998,-11.789999999999999,-5.72133,-4.5240400000000003
217632.0,85.043000000000006,-3222.1300000000001,-3132.1799999999998,-3199.8400000000001,-13.4734,-4.30884,-4.0657300000000003
217633.0,83.902100000000004,2096.6799999999998,2182.4400000000001,2120.5999999999999,-18.713100000000001,-6.0883599999999998,0.73011800000000004
217634.0,75.391999999999996,858.64999999999998,937.46900000000005,882.46699999999998,-15.770899999999999,-0.90045299999999995,3.31549
217635.0,70.308999999999997,395.80599999999998,458.78100000000001,411.04700000000003,-23.769200000000001,-0.32363399999999998,1.8059000000000001
217636.0,70.549000000000007,92.533600000000007,143.50999999999999,100.3,-29.950900000000001,-2.7194500000000001,0.50929899999999995
217637.0,75.782799999999995,11.8185,-55.317700000000002,2.2422399999999998,-21.189900000000002,-3.0101,11.729699999999999
217638.0,119.244,478.22000000000003,550.66099999999994,475.72899999999998,48.916699999999999,2.09144,23.0441
217639.0,91.652299999999997,-1072.4100000000001,-992.10599999999999,-1065.04,20.316099999999999,1.97885,20.320399999999999
217640.0,93.590500000000006,694.09400000000005,788.47400000000005,710.46799999999996,-1.7596099999999999,0.25053700000000001,19.317599999999999
217641.0,118.325,-335.75799999999998,-220.90899999999999,-306.46100000000001,-25.797699999999999,-3.2350599999999998,20.727900000000002
217642.0,168.69900000000001,-2037.1700000000001,-1898.1300000000001,-1997.3299999999999,-62.471699999999998,-7.2316399999999996,20.121099999999998
217643.0,202.34,-2354.1799999999998,-2222.2399999999998,-2313.4899999999998,-91.569500000000005,-10.472200000000001,24.245100000000001
217644.0,266.46300000000002,-3426.0700000000002,-3310.8000000000002,-3392.8400000000001,-136.26599999999999,-15.631500000000001,36.524299999999997
217645.0,283.54899999999998,-6122.1800000000003,-6032.8500000000004,-6099.4700000000003,-151.27699999999999,-17.298200000000001,38.215200000000003
217646.0,256.69999999999999,-7298.1700000000001,-7236.5900000000001,-7287.1199999999999,-139.124,-18.297799999999999,34.593899999999998
217647.0,207.416,-7396.0,-7347.5699999999997,-7389.54,-111.29900000000001,-17.980699999999999,30.628399999999999
217648.0,149.35499999999999,-7859.8800000000001,-7820.1300000000001,-7856.8100000000004,-78.599800000000002,-14.851699999999999,23.4087
217649.0,91.078599999999994,-7659.5900000000001,-7615.8400000000001,-7654.6199999999999,-43.339300000000001,-10.317399999999999,14.376200000000001
217650.0,83.234200000000001,-6197.1700000000001,-6133.4499999999998,-6186.96,-32.606499999999997,-8.0683299999999996,-3.09293
217651.0,107.29900000000001,-5700.9399999999996,-5646.46,-5699.1999999999998,-51.722999999999999,-9.6740700000000004,-10.484999999999999
217652.0,113.63800000000001,-5453.6999999999998,-5412.1400000000003,-5459.7600000000002,-57.618200000000002,-10.1236,-14.499599999999999
217653.0,87.713399999999993,-5271.2600000000002,-5226.7200000000003,-5274.8800000000001,-40.055799999999998,-7.46861,-13.5969
217654.0,76.384600000000006,-4782.0100000000002,-4717.96,-4775.5900000000001,-23.987200000000001,-4.1575499999999996,-10.393000000000001
217655.0,79.810500000000005,-4038.6799999999998,-3957.1100000000001,-4022.71,-13.703099999999999,-3.1595399999999998,-7.5512800000000002
217656.0,83.7029,-2504.73,-2419.1500000000001,-2481.3600000000001,-18.897200000000002,-4.5587299999999997,-1.0465500000000001
217657.0,79.616900000000001,-1908.3099999999999,-1825.51,-1883.49,-17.2684,-2.7226400000000002,1.40585
217658.0,80.281099999999995,-1279.9200000000001,-1194.4300000000001,-1252.3299999999999,-15.2342,-1.0425899999999999,3.40835
217659.0,82.052199999999999,-679.46000000000004,-599.04200000000003,-654.84900000000005,-23.066199999999998,-1.3584799999999999,3.52881
217660.0,78.975499999999997,-245.28200000000001,-179.84899999999999,-230.21700000000001,-29.9556,-2.5556800000000002,0.98298700000000006
217661.0,224.773,2544.6399999999999,2602.9400000000001,2517.23,121.28700000000001,0.55052900000000005,-14.6305
217662.0,115.807,502.15199999999999,538.98299999999995,478.56,55.553899999999999,-1.8874299999999999,21.290099999999999
217663.0,276.46199999999999,4456.3400000000001,4561.25,4482.6999999999998,-142.08099999999999,-21.471599999999999,43.015300000000003
217664.0,64.156300000000002,6742.0699999999997,6809.7299999999996,6763.7600000000002,-6.1234200000000003,-2.7608999999999999,11.5381
217665.0,79.6892,2460.8699999999999,2540.5,2476.2399999999998,-17.1981,-5.9167300000000003,-1.27322
217666.0,87.621499999999997,1478.75,1552.4100000000001,1494.78,-30.430800000000001,-9.0457800000000006,7.1118199999999998
217667.0,72.220500000000001,5082.2600000000002,5134.2600000000002,5090.2200000000003,-30.1647,-5.6576599999999999,-3.5130300000000001
217668.0,303.78500000000003,6188.0,6277.1400000000003,6211.8100000000004,-160.58799999999999,-24.204799999999999,47.510800000000003
217669.0,86.134799999999998,-1044.3,-966.06700000000001,-1039.5799999999999,7.4213100000000001,2.7094399999999998,22.046299999999999
217670.0,94.615600000000001,-1217.4000000000001,-1145.24,-1218.6700000000001,22.568000000000001,3.3367599999999999,26.397400000000001
217671.0,94.119799999999998,1094.9300000000001,1182.73,1101.71,-12.5909,-2.4378099999999998,20.0503
217672.0,135.65000000000001,-1022.75,-916.65800000000002,-1005.41,-49.020499999999998,-5.8879700000000001,21.376799999999999
217673.0,195.375,1379.5799999999999,1502.1900000000001,1408.97,-87.7346,-12.0916,27.971299999999999
217674.0,236.50800000000001,1896.22,2015.3699999999999,1927.53,-114.854,-18.0914,36.202500000000001
217675.0,247.15799999999999,-2899.2800000000002,-2772.29,-2862.7800000000002,-120.149,-15.6404,37.521099999999997
217676.0,315.61500000000001,5498.1199999999999,5596.9099999999999,5523.6099999999997,-166.13900000000001,-24.208300000000001,48.840400000000002
217677.0,249.28,8089.3100000000004,8165.9799999999996,8108.7299999999996,-130.21600000000001,-22.1951,40.938299999999998
217678.0,192.76300000000001,8446.7900000000009,8516.7999999999993,8464.8999999999996,-97.749799999999993,-19.281500000000001,33.740400000000001
217679.0,133.47499999999999,8305.4799999999996,8377.1499999999996,8328.3400000000001,-60.445999999999998,-14.173299999999999,27.275400000000001
217680.0,84.374200000000002,7739.3699999999999,7811.7700000000004,7764.7600000000002,-23.870899999999999,-7.4598599999999999,19.954899999999999
217681.0,65.030100000000004,-7261.6199999999999,-7201.1599999999999,-7245.5699999999997,-10.279299999999999,-7.3727499999999999,16.400099999999998
217682.0,59.552300000000002,5764.7799999999997,5824.6199999999999,5779.9899999999998,-13.9938,-2.6102699999999999,3.5196299999999998
217683.0,88.597200000000001,4678.6999999999998,4729.5,4682.6000000000004,-41.087499999999999,-9.6659699999999997,-5.9771700000000001
217684.0,90.619900000000001,4313.1499999999996,4372.5100000000002,4318.9399999999996,-39.3414,-9.5750700000000002,-5.1696900000000001
217685.0,86.0548,3856.8400000000001,3933.1500000000001,3870.6900000000001,-27.438199999999998,-7.0978199999999996,-3.5512000000000001
217686.0,83.424199999999999,3196.8200000000002,3283.1199999999999,3215.3699999999999,-15.048500000000001,-4.7403500000000003,-2.7319200000000001
217687.0,82.602900000000005,-2976.3000000000002,-2890.9699999999998,-2956.8099999999999,-15.8828,-4.0341699999999996,-2.5651799999999998
217688.0,82.701999999999998,1899.55,1972.1400000000001,1913.4100000000001,-26.4953,-9.2745700000000006,2.5937600000000001
217689.0,86.883700000000005,1017.35,1097.98,1036.6800000000001,-25.5061,-4.8328600000000002,8.3937200000000001
217690.0,85.481099999999998,519.94899999999996,600.44799999999998,538.35000000000002,-24.6418,-1.8263400000000001,6.78193
217691.0,78.432900000000004,86.312899999999999,156.97800000000001,99.388599999999997,-24.815200000000001,-2.1025200000000002,4.1020399999999997
217692.0,67.854600000000005,94.464799999999997,32.5259,91.270799999999994,-12.8874,-3.3510499999999999,11.881399999999999
217693.0,115.60899999999999,220.78200000000001,299.33300000000003,222.06,42.074100000000001,3.2002999999999999,25.511800000000001
217694.0,91.248500000000007,1716.6800000000001,1797.0799999999999,1725.4000000000001,17.415800000000001,2.7765399999999998,22.761099999999999
217695.0,94.095200000000006,-273.74799999999999,-180.304,-261.60700000000003,2.8192699999999999,-0.29120800000000002,19.018999999999998
217696.0,125.164,198.715,320.24099999999999,223.066,-24.863099999999999,-3.7037499999999999,21.354299999999999
217697.0,172.46000000000001,608.14800000000002,748.60000000000002,645.53300000000002,-63.794800000000002,-7.2519499999999999,22.372199999999999
217698.0,212.351,-1153.22,-1015.91,-1114.9200000000001,-94.761700000000005,-12.333500000000001,29.634699999999999
217699.0,292.59899999999999,-4893.5699999999997,-4775.8100000000004,-4860.2799999999997,-150.369,-19.1755,43.295299999999997
217700.0,304.375,-5186.3100000000004,-5098.29,-5163.8199999999997,-161.702,-23.250599999999999,45.8444
217701.0,265.34399999999999,-6662.9700000000003,-6604.7600000000002,-6652.25,-142.34,-24.028199999999998,40.8795
217702.0,210.19200000000001,-8169.3699999999999,-8121.29,-8162.6400000000003,-111.142,-22.138100000000001,34.734699999999997
217703.0,151.83500000000001,-8267.2700000000004,-8224.9799999999996,-8261.5400000000009,-77.4285,-18.534800000000001,28.629100000000001
217704.0,90.407700000000006,-8015.8999999999996,-7970.5200000000004,-8006.6700000000001,-38.117400000000004,-12.807700000000001,23.0718
217705.0,71.735699999999994,-6167.6800000000003,-6092.6000000000004,-6146.54,-9.15151,-5.8150300000000001,9.9597899999999999
217706.0,78.941599999999994,-5273.6999999999998,-5200.3999999999996,-5255.5799999999999,-23.418199999999999,-8.00258,2.64595
217707.0,89.593299999999999,-4751.1599999999999,-4688.4799999999996,-4741.3299999999999,-37.669800000000002,-10.4924,-3.1695000000000002
217708.0,89.773399999999995,-4432.3000000000002,-4379.5500000000002,-4429.3199999999997,-40.854999999999997,-10.885999999999999,-4.5563099999999999
217709.0,78.404499999999999,-4128.6800000000003,-4074.3600000000001,-4125.5100000000002,-32.077100000000002,-7.8152600000000003,-5.4285800000000002
217710.0,72.508700000000005,-3681.3499999999999,-3611.71,-3669.9699999999998,-17.667999999999999,-4.8398700000000003,-4.6367500000000001
217711.0,86.681100000000001,-2257.54,-2176.1900000000001,-2239.2399999999998,-25.411799999999999,-6.0887700000000002,0.54816699999999996
217712.0,85.367400000000004,-1792.95,-1721.4000000000001,-1777.6600000000001,-30.500399999999999,-7.3117299999999998,5.0547199999999997
217713.0,79.4495,-1405.02,-1335.01,-1390.1900000000001,-25.832699999999999,-4.8435100000000002,7.2241400000000002
217714.0,83.568399999999997,-945.05499999999995,-866.40800000000002,-926.22500000000002,-24.234400000000001,-2.08962,7.0641600000000002
217715.0,84.250399999999999,-472.755,-392.94,-454.077,-24.5001,-1.37147,4.59307
217716.0,214.142,-1499.9200000000001,-1433.45,-1519.71,114.214,-2.9233500000000001,-13.8019
217717.0,113.233,-1232.6099999999999,-1189.5799999999999,-1255.9400000000001,51.328800000000001,1.72414,22.430199999999999
217718.0,295.54199999999997,3524.4499999999998,3634.9200000000001,3550.1300000000001,-153.21100000000001,-24.708300000000001,41.091799999999999
217719.0,84.106800000000007,7431.0200000000004,7507.5600000000004,7462.5900000000001,-7.2822199999999997,-7.2417699999999998,27.806799999999999
217720.0,79.899199999999993,2097.1599999999999,2174.0100000000002,2108.6900000000001,-18.315300000000001,-8.0822800000000008,3.0798899999999998
217721.0,98.489599999999996,1350.0999999999999,1407.95,1351.6199999999999,-42.680799999999998,-13.7484,11.651999999999999
217722.0,68.575800000000001,5249.29,5321.1000000000004,5273.79,-2.8374600000000001,-2.9870299999999999,14.759499999999999
217723.0,310.68799999999999,8008.3699999999999,8100.0100000000002,8030.9499999999998,-164.31100000000001,-29.416899999999998,45.084600000000002
217724.0,86.212699999999998,509.36900000000003,591.42100000000005,516.43799999999999,4.5308999999999999,0.21992600000000001,19.7349
217725.0,95.134100000000004,465.59899999999999,542.51700000000005,465.00099999999998,19.479600000000001,2.4935,25.367999999999999
217726.0,90.853300000000004,-1189.6099999999999,-1102.6700000000001,-1180.5899999999999,-12.506,-1.22909,17.5594
217727.0,129.28299999999999,1950.1199999999999,2053.0700000000002,1968.4200000000001,-45.443899999999999,-5.0789499999999999,21.537299999999998
217728.0,190.67099999999999,1331.47,1449.3399999999999,1358.1300000000001,-86.235299999999995,-12.1526,26.720099999999999
217729.0,245.77500000000001,3220.1399999999999,3338.6599999999999,3247.23,-121.40300000000001,-19.987400000000001,33.763399999999997
217730.0,264.69,-3110.8699999999999,-2977.1399999999999,-3074.8499999999999,-129.90100000000001,-18.4709,36.737699999999997
217731.0,326.73899999999998,5682.1999999999998,5785.6800000000003,5708.1300000000001,-172.727,-28.2242,45.342399999999998
217732.0,260.536,8215.0400000000009,8292.0699999999997,8232.9500000000007,-136.102,-27.8019,41.283000000000001
217733.0,204.90799999999999,8832.0300000000007,8901.0499999999993,8849.4799999999996,-103.482,-25.4786,36.7453
217734.0,152.76499999999999,8878.25,8946.2399999999998,8899.1499999999996,-70.104299999999995,-21.840299999999999,34.272100000000002
217735.0,106.42100000000001,8325.0499999999993,8396.5400000000009,8352.0,-34.551400000000001,-15.452,32.238399999999999
217736.0,78.561899999999994,-7906.0500000000002,-7853.4700000000003,-7889.2799999999997,-18.945,-11.833500000000001,28.930700000000002
217737.0,77.009399999999999,6326.4399999999996,6403.1199999999999,6357.1599999999999,3.79887,-2.86341,21.5608
217738.0,68.818399999999997,4393.5699999999997,4458.6000000000004,4408.8999999999996,-17.917899999999999,-5.1520200000000003,8.6778999999999993
217739.0,79.959900000000005,3849.79,3917.6599999999999,3861.4699999999998,-27.325700000000001,-6.9364999999999997,4.4596200000000001
217740.0,83.939099999999996,3341.1300000000001,3419.48,3354.9000000000001,-23.3657,-6.9800399999999998,2.0379900000000002
217741.0,84.744600000000005,2726.5100000000002,2812.9000000000001,2742.8800000000001,-15.6769,-6.2872000000000003,1.6524000000000001
217742.0,85.253699999999995,-2506.21,-2419.79,-2489.52,-16.659700000000001,-5.97715,2.7563300000000002
217743.0,82.126999999999995,1613.95,1673.6600000000001,1616.9200000000001,-30.334599999999998,-12.2942,6.6710500000000001
217744.0,101.229,1118.1400000000001,1197.1400000000001,1129.28,-36.2089,-9.4609000000000005,13.6774
217745.0,100.729,671.60799999999995,764.62699999999995,689.42100000000005,-27.037099999999999,-5.4320500000000003,13.565
217746.0,92.906599999999997,102.40600000000001,190.839,117.80800000000001,-21.908899999999999,-4.6999300000000002,11.968999999999999
217747.0,60.9773,126.73099999999999,71.856200000000001,130.774,-7.6889200000000004,5.5000099999999996,8.1789100000000001
217748.0,113.96599999999999,311.11399999999998,392.46699999999998,313.05399999999997,38.442300000000003,4.7892400000000004,25.959800000000001
217749.0,92.209400000000002,-1281.6099999999999,-1197.29,-1272.0599999999999,14.432700000000001,1.8335600000000001,22.146599999999999
217750.0,91.475399999999993,512.0,604.25699999999995,525.89200000000005,0.285329,-0.534833,17.738600000000002
217751.0,119.242,-466.43400000000003,-349.27499999999998,-441.77699999999999,-23.181999999999999,-2.2188500000000002,19.548200000000001
217752.0,165.68000000000001,-2121.5500000000002,-1984.0599999999999,-2085.0500000000002,-58.571899999999999,-7.0655400000000004,24.4312
217753.0,214.68100000000001,-2361.2399999999998,-2220.8800000000001,-2324.0100000000002,-95.389799999999994,-13.2653,28.2942
217754.0,307.202,-4016.1599999999999,-3897.8699999999999,-3983.4899999999998,-159.58099999999999,-23.697299999999998,41.2059
217755.0,311.18799999999999,-6930.8699999999999,-6841.5299999999997,-6909.5299999999997,-165.84800000000001,-28.279800000000002,42.389499999999998
217756.0,274.08600000000001,-8195.7000000000007,-8133.7399999999998,-8185.9300000000003,-146.54300000000001,-29.111899999999999,40.115000000000002
217757.0,221.63999999999999,-8317.7399999999998,-8269.6700000000001,-8313.0400000000009,-117.04300000000001,-27.072800000000001,35.221899999999998
217758.0,167.43799999999999,-8781.1599999999999,-8738.1599999999999,-8776.1800000000003,-84.928299999999993,-23.513000000000002,32.0366
217759.0,113.892,-8588.1499999999996,-8545.8500000000004,-8580.0599999999995,-50.389400000000002,-18.399999999999999,30.692900000000002
217760.0,75.675799999999995,-6930.71,-6860.6999999999998,-6904.6400000000003,0.46172800000000003,-6.5989800000000001,24.762
217761.0,82.093199999999996,-5789.1700000000001,-5705.5600000000004,-5758.0600000000004,1.0714600000000001,-6.2651300000000001,20.501300000000001
217762.0,83.022599999999997,-4738.2299999999996,-4653.5900000000001,-4710.5799999999999,-11.5336,-8.3540799999999997,15.2423
217763.0,84.053200000000004,-4028.6900000000001,-3953.3600000000001,-4010.73,-24.729500000000002,-10.4709,9.2553900000000002
217764.0,79.701700000000002,-3605.1799999999998,-3535.5500000000002,-3593.4400000000001,-24.572399999999998,-10.319599999999999,4.2042999999999999
217765.0,77.759500000000003,-3122.96,-3046.9200000000001,-3110.2199999999998,-17.072700000000001,-7.8779899999999996,1.84253
217766.0,90.359300000000005,-1885.3800000000001,-1805.26,-1872.4100000000001,-27.8414,-7.8827699999999998,5.89818
217767.0,98.810599999999994,-1458.5599999999999,-1395.8,-1454.3699999999999,-42.125500000000002,-11.6859,10.5914
217768.0,89.2059,-1318.78,-1264.05,-1318.8199999999999,-37.305100000000003,-11.1127,11.751799999999999
217769.0,88.147800000000004,-1126.29,-1051.27,-1115.9400000000001,-27.035299999999999,-7.0730500000000003,12.504099999999999
217770.0,93.571600000000004,-647.74800000000005,-557.11800000000005,-629.48900000000003,-21.323499999999999,-4.4245799999999997,12.1167
217771.0,202.51300000000001,2302.7199999999998,2378.04,2287.04,105.206,-2.5375299999999998,-15.1396
217772.0,111.178,612.82100000000003,663.02200000000005,594.36800000000005,48.144199999999998,0.36946899999999999,23.233699999999999
217773.0,295.13299999999998,4552.8900000000003,4660.2200000000003,4581.1400000000003,-152.91200000000001,-25.6738,43.565899999999999
217774.0,109.583,8445.3999999999996,8520.7700000000004,8474.8999999999996,-26.674199999999999,-16.8584,39.556399999999996
217775.0,77.3369,1677.6199999999999,1749.25,1684.98,-19.066700000000001,-7.1945600000000001,5.0716099999999997
217776.0,98.366600000000005,1252.1900000000001,1301.6800000000001,1249.53,-45.340400000000002,-14.069699999999999,10.449400000000001
217777.0,93.934399999999997,6186.1899999999996,6275.3999999999996,6221.3000000000002,8.6173699999999993,-2.9146800000000002,28.9695
217778.0,316.58699999999999,6473.2299999999996,6561.4300000000003,6499.46,-167.42699999999999,-34.273600000000002,46.381500000000003
217779.0,90.498000000000005,-847.59699999999998,-764.88199999999995,-838.72400000000005,2.0551400000000002,2.1100500000000002,25.672799999999999
217780.0,96.0869,-1133.3699999999999,-1054.6900000000001,-1132.5899999999999,16.916799999999999,2.2218200000000001,27.262899999999998
217781.0,90.573499999999996,1346.47,1431.3199999999999,1359.6099999999999,-10.8292,0.28487899999999999,23.0517
217782.0,122.48999999999999,-928.15499999999997,-830.31600000000003,-907.928,-40.485700000000001,-4.8845400000000003,25.900099999999998
217783.0,183.43700000000001,1348.4000000000001,1459.4100000000001,1376.4000000000001,-81.686700000000002,-11.103400000000001,32.974600000000002
217784.0,241.28999999999999,1865.1600000000001,1976.8,1893.8599999999999,-119.22499999999999,-18.1463,38.754399999999997
217785.0,262.85199999999998,-2895.8699999999999,-2764.2199999999998,-2856.48,-128.28700000000001,-19.553100000000001,40.304099999999998
217786.0,326.53399999999999,5728.5900000000001,5828.8000000000002,5758.2299999999996,-172.39699999999999,-31.841999999999999,46.440100000000001
217787.0,277.536,8490.8799999999992,8563.8199999999997,8510.5300000000007,-145.06399999999999,-34.013100000000001,45.279800000000002
217788.0,227.40799999999999,9065.6599999999999,9129.1100000000006,9082.0200000000004,-115.044,-32.095399999999998,43.448700000000002
217789.0,183.15600000000001,9217.0499999999993,9276.6100000000006,9233.0400000000009,-87.084999999999994,-28.930099999999999,42.555900000000001
217790.0,138.792,9067.8199999999997,9130.3600000000006,9087.9099999999999,-55.6676,-24.2943,41.382199999999997
217791.0,110.23099999999999,-8788.0799999999999,-8745.3400000000001,-8776.8999999999996,-41.482399999999998,-20.488199999999999,37.661900000000003
217792.0,96.094300000000004,7410.4099999999999,7494.96,7445.2600000000002,-0.98273500000000003,-8.3811,34.6571
217793.0,89.628299999999996,5035.8500000000004,5127.6599999999999,5067.3100000000004,4.5242199999999997,-0.27307700000000001,21.9117
217794.0,87.258399999999995,3963.21,4057.5300000000002,3990.1900000000001,-0.738452,-0.33256999999999998,13.312900000000001
217795.0,85.979299999999995,3042.3899999999999,3136.0500000000002,3064.5999999999999,-4.6780600000000003,-1.7432300000000001,6.6463099999999997
217796.0,83.406300000000002,2274.0599999999999,2362.3200000000002,2290.8299999999999,-9.56236,-3.6013799999999998,4.1729599999999998
217797.0,91.497500000000002,-1976.28,-1882.6600000000001,-1957.8,-15.666600000000001,-5.77691,7.2561299999999997
217798.0,81.207899999999995,1349.9200000000001,1402.1900000000001,1347.4000000000001,-32.711599999999997,-11.0433,7.0468900000000003
217799.0,103.289,1082.25,1155.3399999999999,1090.0699999999999,-40.751300000000001,-10.922800000000001,12.8725
217800.0,104.60299999999999,662.05399999999997,754.45899999999995,676.69799999999998,-30.745100000000001,-6.3311299999999999,13.974299999999999
217801.0,100.71899999999999,112.566,209.202,127.001,-22.097000000000001,-3.4423900000000001,12.806699999999999
217802.0,58.048200000000001,89.900899999999993,39.4604,98.023200000000003,-6.7083300000000001,3.4053,7.7434099999999999
217803.0,112.485,133.929,217.52699999999999,138.60300000000001,36.205500000000001,3.66614,26.206499999999998
217804.0,94.447900000000004,1595.46,1681.8800000000001,1606.98,11.439399999999999,2.5412599999999999,25.182099999999998
217805.0,92.006,-572.38699999999994,-483.26900000000001,-556.79899999999998,-1.6152,1.4330499999999999,23.489100000000001
217806.0,112.90900000000001,-40.613100000000003,69.595600000000005,-14.3742,-19.614799999999999,-1.12999,23.435400000000001
217807.0,159.28299999999999,588.78099999999995,721.87099999999998,625.32100000000003,-53.219099999999997,-5.7552300000000001,29.3826
217808.0,209.46299999999999,-1086.53,-950.827,-1046.71,-91.327299999999994,-12.356999999999999,35.576500000000003
217809.0,305.94,-5093.7399999999998,-4977.9799999999996,-5057.5100000000002,-158.38900000000001,-26.888100000000001,43.396000000000001
217810.0,313.49000000000001,-5469.96,-5381.8500000000004,-5443.5900000000001,-166.59999999999999,-32.145699999999998,43.871899999999997
217811.0,285.01299999999998,-6969.9799999999996,-6907.1499999999996,-6956.5900000000001,-152.03800000000001,-33.351500000000001,41.885399999999997
217812.0,240.768,-8636.0400000000009,-8590.5499999999993,-8631.0799999999999,-126.68000000000001,-32.553400000000003,39.909100000000002
217813.0,194.59700000000001,-8974.9799999999996,-8934.8999999999996,-8971.2299999999996,-98.460599999999999,-29.798500000000001,39.371000000000002
217814.0,148.381,-9054.8999999999996,-9019.0900000000001,-9050.9200000000001,-69.456000000000003,-25.9834,38.137500000000003
217815.0,84.057299999999998,-8027.79,-7971.1300000000001,-8007.1400000000003,-11.867900000000001,-12.922800000000001,35.000399999999999
217816.0,88.567599999999999,-6886.8000000000002,-6808.7600000000002,-6856.0500000000002,5.0492600000000003,-6.8399000000000001,31.5716
217817.0,95.983900000000006,-5674.8199999999997,-5580.9099999999999,-5639.0,5.9702000000000002,-4.8764000000000003,27.663
217818.0,94.715800000000002,-4548.29,-4448.6400000000003,-4514.9399999999996,1.6086100000000001,-5.0977600000000001,19.717300000000002
217819.0,93.749200000000002,-3532.5300000000002,-3430.8600000000001,-3503.52,-2.2200000000000002,-5.7148300000000001,12.207700000000001
217820.0,92.442499999999995,-2684.9200000000001,-2585.29,-2661.04,-7.1298700000000004,-5.5274299999999998,7.8189099999999998
217821.0,90.888300000000001,-1448.04,-1371.5999999999999,-1437.9000000000001,-29.536799999999999,-8.73048,9.01938
217822.0,99.028700000000001,-1229.0999999999999,-1173.24,-1227.77,-44.4253,-12.8043,10.7369
217823.0,92.2029,-1207.1900000000001,-1159.3499999999999,-1209.29,-41.405099999999997,-13.889099999999999,11.354200000000001
217824.0,89.515299999999996,-1051.5899999999999,-981.64999999999998,-1045.4300000000001,-30.534099999999999,-9.0029800000000009,12.5686
217825.0,94.945700000000002,-631.26400000000001,-541.25199999999995,-618.03200000000004,-21.3812,-4.5110999999999999,12.8589
217826.0,191.30799999999999,-1646.8,-1562.6800000000001,-1657.5799999999999,96.275999999999996,-2.7557700000000001,-14.9457
217827.0,109.218,-1155.0,-1098.05,-1170.21,44.160899999999998,0.368865,24.062999999999999
217828.0,276.95499999999998,3310.1399999999999,3412.9499999999998,3339.5599999999999,-141.15000000000001,-25.087,47.031199999999998
217829.0,135.70599999999999,9219.2600000000002,9284.9099999999999,9238.1000000000004,-49.6676,-25.746700000000001,43.197000000000003
217830.0,78.915099999999995,1610.8399999999999,1692.3,1626.9400000000001,-10.314299999999999,-2.37269,10.145200000000001
217831.0,85.886200000000002,881.59500000000003,931.375,883.31299999999999,-36.988700000000001,-13.0068,11.0898
217832.0,103.926,7464.9899999999998,7557.8199999999997,7498.7799999999997,-2.82443,-9.30396,36.031799999999997
217833.0,324.08199999999999,7731.1099999999997,7814.6999999999998,7758.9799999999996,-169.43100000000001,-39.599899999999998,54.066800000000001
217834.0,95.543999999999997,707.75999999999999,794.57299999999998,716.78099999999995,0.78678199999999998,1.3597300000000001,27.607900000000001
217835.0,97.629199999999997,625.48299999999995,707.33100000000002,627.83399999999995,14.3546,2.0586099999999998,28.215199999999999
217836.0,94.733900000000006,-1002.05,-916.01999999999998,-988.952,-9.9082699999999999,-0.14000000000000001,27.289899999999999
217837.0,120.922,2090.52,2185.0,2111.6900000000001,-37.059600000000003,-3.6146400000000001,32.086500000000001
217838.0,177.44200000000001,1363.47,1470.25,1392.4200000000001,-75.685100000000006,-10.0686,40.194000000000003
217839.0,229.69999999999999,3134.9400000000001,3243.1300000000001,3165.3099999999999,-110.53,-16.819600000000001,44.427700000000002
217840.0,247.25399999999999,-2971.71,-2845.3400000000001,-2931.1900000000001,-117.379,-19.6968,45.267600000000002
217841.0,313.87299999999999,5353.6000000000004,5447.8100000000004,5382.6000000000004,-163.53100000000001,-34.394799999999996,50.845700000000001
217842.0,301.08199999999999,8205.1000000000004,8274.0300000000007,8227.2000000000007,-156.059,-40.464100000000002,54.646000000000001
217843.0,254.22399999999999,9197.8999999999996,9256.6700000000001,9213.7000000000007,-128.28100000000001,-38.513599999999997,51.757199999999997
217844.0,213.10400000000001,9671.5400000000009,9725.1000000000004,9684.2000000000007,-103.223,-35.7179,49.230800000000002
217845.0,167.67500000000001,9596.6900000000005,9650.2399999999998,9609.0200000000004,-74.500200000000007,-31.3201,45.323700000000002
217846.0,142.47200000000001,-9347.8299999999999,-9311.2299999999996,-9343.8999999999996,-62.162799999999997,-28.6736,40.939599999999999
217847.0,110.637,8516.7099999999991,8595.8099999999995,8543.1299999999992,-22.953099999999999,-17.965,40.110999999999997
217848.0,109.925,6167.4399999999996,6275.7200000000003,6207.7200000000003,9.5586300000000008,-1.3625700000000001,30.653099999999998
217849.0,115.10599999999999,4811.3299999999999,4928.8400000000001,4852.1999999999998,18.0594,4.0017300000000002,22.7072
217850.0,108.795,3478.5799999999999,3592.7399999999998,3514.0599999999999,16.3157,4.1557599999999999,15.7676
217851.0,93.530900000000003,2380.7399999999998,2481.9699999999998,2407.79,4.50732,1.3717900000000001,12.1166
217852.0,100.786,-2027.22,-1918.28,-1994.27,-5.2142400000000002,-2.6108500000000001,15.194800000000001
217853.0,74.802800000000005,1134.79,1196.55,1141.3800000000001,-23.91,-7.4254600000000002,9.3738100000000006
217854.0,97.136099999999999,773.58600000000001,834.72500000000002,780.548,-40.543700000000001,-13.1569,14.4213
217855.0,101.08199999999999,546.88999999999999,627.04899999999998,560.90099999999995,-34.900500000000001,-8.4291300000000007,16.847999999999999
217856.0,99.576999999999998,97.338300000000004,192.48699999999999,115.765,-21.897300000000001,-3.3570600000000002,16.367599999999999
217857.0,57.974600000000002,72.799300000000002,19.9558,75.471599999999995,-8.8397799999999993,3.1294300000000002,7.2217000000000002
217858.0,111.027,181.137,267.20699999999999,188.643,33.025300000000001,3.5484599999999999,27.072800000000001
217859.0,96.755799999999994,-1469.9000000000001,-1381.28,-1457.9100000000001,9.3487899999999993,2.7484099999999998,26.716100000000001
217860.0,95.760499999999993,306.536,397.05500000000001,321.29399999999998,-1.8623400000000001,0.94382699999999997,26.339600000000001
217861.0,113.428,-655.36900000000003,-548.53599999999994,-629.90599999999995,-17.926400000000001,0.121985,29.215499999999999
217862.0,154.34999999999999,-2224.0500000000002,-2097.3000000000002,-2187.2199999999998,-48.781700000000001,-3.9765700000000002,35.981499999999997
217863.0,202.012,-2342.75,-2211.8099999999999,-2302.21,-84.529600000000002,-11.6043,42.779899999999998
217864.0,288.01499999999999,-3737.98,-3622.7199999999998,-3700.8299999999999,-145.327,-28.5139,47.510599999999997
217865.0,312.077,-6570.3199999999997,-6476.9300000000003,-6540.1999999999998,-162.166,-35.689700000000002,51.189900000000002
217866.0,302.09800000000001,-7981.3599999999997,-7916.0100000000002,-7963.1899999999996,-158.661,-38.566200000000002,51.212499999999999
217867.0,265.59100000000001,-8438.0599999999995,-8396.0900000000001,-8431.8400000000001,-138.339,-38.781599999999997,48.560600000000001
217868.0,223.08600000000001,-9291.5100000000002,-9255.3500000000004,-9288.7199999999993,-112.681,-36.4116,46.488999999999997
217869.0,178.738,-9530.0100000000002,-9499.8999999999996,-9529.9099999999999,-85.784099999999995,-33.448300000000003,43.244500000000002
217870.0,107.248,-8923.7700000000004,-8877.0799999999999,-8913.7199999999993,-35.3947,-22.042100000000001,38.617800000000003
217871.0,90.010000000000005,-8139.1099999999997,-8075.2399999999998,-8119.1800000000003,-12.489800000000001,-13.8483,35.844700000000003
217872.0,93.3874,-6981.4099999999999,-6897.1599999999999,-6951.1199999999999,2.86659,-6.6994499999999997,32.1402
217873.0,105.428,-5689.0900000000001,-5584.96,-5651.0200000000004,15.588900000000001,-1.3989499999999999,26.149799999999999
217874.0,116.22499999999999,-4329.8100000000004,-4209.1999999999998,-4287.6099999999997,18.678899999999999,1.2334099999999999,20.16
217875.0,112.73699999999999,-3027.5100000000002,-2905.54,-2987.0100000000002,9.2066999999999997,0.112024,17.109100000000002
217876.0,90.611599999999996,-1350.1099999999999,-1261.77,-1328.04,-19.9543,-6.5263600000000004,13.5047
217877.0,92.436000000000007,-938.66999999999996,-870.39700000000005,-925.96799999999996,-34.634399999999999,-11.757999999999999,13.853199999999999
217878.0,93.743799999999993,-775.303,-722.84199999999998,-770.74699999999996,-40.515300000000003,-15.2265,14.5374
217879.0,89.704800000000006,-749.64099999999996,-690.12400000000002,-743.18899999999996,-34.804699999999997,-12.379899999999999,15.8445
217880.0,85.746200000000002,-535.14499999999998,-457.822,-523.07600000000002,-21.177,-6.3933200000000001,15.200699999999999
217881.0,180.62799999999999,2164.71,2258.0500000000002,2159.5,87.138999999999996,-3.2355700000000001,-14.0312
217882.0,108.866,687.17600000000004,750.43100000000004,674.995,40.402900000000002,0.69702699999999995,26.032699999999998
217883.0,251.95699999999999,4215.54,4314.3100000000004,4247.04,-125.194,-24.230599999999999,48.523400000000002
217884.0,159.44999999999999,9785.9799999999996,9840.75,9797.3600000000006,-66.904399999999995,-32.461599999999997,45.9313
217885.0,95.229900000000001,2006.98,2109.1100000000001,2037.05,4.66005,2.2215699999999998,15.539400000000001
217886.0,76.901700000000005,811.56299999999999,870.399,819.99199999999996,-25.857500000000002,-8.4831400000000006,14.7799
217887.0,113.82599999999999,8427.0100000000002,8510.2099999999991,8450.6000000000004,-23.138200000000001,-18.923400000000001,39.828299999999999
217888.0,320.67099999999999,5757.54,5834.7799999999997,5784.2399999999998,-167.00999999999999,-42.6691,54.997999999999998
217889.0,98.897800000000004,-657.90700000000004,-568.779,-648.72400000000005,-0.76350600000000002,1.4142399999999999,29.230699999999999
217890.0,99.832899999999995,-985.17399999999998,-900.73400000000004,-980.90800000000002,12.311,2.1014200000000001,30.058399999999999
217891.0,98.742699999999999,1560.71,1648.5999999999999,1573.6700000000001,-9.9850600000000007,-0.98865099999999995,29.972200000000001
217892.0,124.01900000000001,-742.95000000000005,-648.01800000000003,-721.39499999999998,-34.439300000000003,-3.8236400000000001,38.0715
217893.0,173.05600000000001,1452.6199999999999,1557.0,1481.1199999999999,-68.946899999999999,-8.7202099999999998,47.347799999999999
217894.0,214.816,1812.55,1917.9200000000001,1844.24,-98.478800000000007,-16.151,50.002899999999997
217895.0,227.899,-2720.75,-2599.73,-2680.29,-103.473,-19.572299999999998,49.266199999999998
217896.0,290.464,5070.3100000000004,5157.9799999999996,5098.3199999999997,-150.03399999999999,-34.017299999999999,49.504100000000001
217897.0,320.738,8081.7200000000003,8146.4399999999996,8105.3699999999999,-166.203,-45.976199999999999,59.000900000000001
217898.0,279.22500000000002,9115.4500000000007,9169.9400000000005,9132.7999999999993,-141.70599999999999,-43.952599999999997,56.580100000000002
217899.0,237.38,9703.2900000000009,9751.2299999999996,9715.4899999999998,-116.414,-41.4422,53.781700000000001
217900.0,191.995,9973.8099999999995,10019.9,9982.7800000000007,-88.807199999999995,-37.539999999999999,48.936599999999999
217901.0,168.31700000000001,-9816.3799999999992,-9786.3500000000004,-9815.75,-76.838700000000003,-35.525700000000001,44.528700000000001
217902.0,130.42699999999999,9231.9099999999999,9298.4099999999999,9247.4799999999996,-44.066299999999998,-26.311499999999999,42.736199999999997
217903.0,113.086,7397.8299999999999,7502.4499999999998,7432.75,-3.6591800000000001,-10.2149,36.1676
217904.0,122.839,6045.6499999999996,6168.54,6088.6199999999999,14.2689,-0.45800299999999999,30.6084
217905.0,128.31100000000001,4543.1800000000003,4672.3999999999996,4585.8000000000002,23.171399999999998,6.5746000000000002,23.926600000000001
217906.0,117.435,3135.0500000000002,3256.3899999999999,3172.6900000000001,18.863900000000001,6.77569,18.386099999999999
217907.0,118.259,-2733.23,-2606.1799999999998,-2687.8400000000001,9.6650799999999997,3.6030700000000002,20.260200000000001
217908.0,77.855999999999995,1231.47,1309.9400000000001,1250.3,-11.0975,-3.1478799999999998,14.472099999999999
217909.0,87.347499999999997,609.56700000000001,665.72299999999996,616.82799999999997,-34.614100000000001,-11.8696,16.472999999999999
217910.0,95.9529,439.178,508.63,452.84500000000003,-35.317799999999998,-10.8545,18.710799999999999
217911.0,93.150599999999997,110.20999999999999,193.58000000000001,126.80800000000001,-24.035799999999998,-5.7605500000000003,18.276700000000002
217912.0,59.368000000000002,65.571600000000004,13.122,71.151799999999994,-10.2277,1.50746,6.5609299999999999
217913.0,110.301,20.2254,108.274,30.129300000000001,29.979099999999999,3.9399700000000002,28.5471
217914.0,98.959800000000001,1430.53,1520.8699999999999,1443.75,7.6946000000000003,2.7994599999999998,28.573599999999999
217915.0,96.647400000000005,-771.03700000000003,-680.71000000000004,-756.53200000000004,-2.98007,1.06829,27.395099999999999
217916.0,116.148,-235.46700000000001,-129.17699999999999,-210.88499999999999,-17.351700000000001,0.26701200000000003,33.155000000000001
217917.0,153.55699999999999,449.98500000000001,572.88400000000001,484.95699999999999,-44.783700000000003,-2.96692,42.846400000000003
217918.0,192.959,-1112.6199999999999,-986.553,-1074.02,-76.035499999999999,-11.0616,48.3217
217919.0,261.88499999999999,-4572.0699999999997,-4460.4099999999999,-4533.8299999999999,-128.61699999999999,-27.837399999999999,48.204500000000003
217920.0,297.88600000000002,-4656.0799999999999,-4558.8000000000002,-4623.3999999999996,-152.14500000000001,-36.484699999999997,51.467100000000002
217921.0,312.822,-6265.75,-6194.4099999999999,-6241.9099999999999,-162.25200000000001,-42.793100000000003,56.069600000000001
217922.0,289.56400000000002,-8370.9799999999996,-8330.3299999999999,-8361.0100000000002,-150.012,-45.0276,54.491100000000003
217923.0,247.286,-9181.9300000000003,-9150.7000000000007,-9178.2600000000002,-125.126,-42.476399999999998,51.297400000000003
217924.0,203.155,-9674.5400000000009,-9649.8700000000008,-9675.3299999999999,-98.527299999999997,-39.881500000000003,47.430300000000003
217925.0,133.959,-9504.6299999999992,-9466.1499999999996,-9501.2199999999993,-54.130499999999998,-29.9998,41.206000000000003
217926.0,107.901,-8899.1599999999999,-8847.4200000000001,-8889.3600000000006,-33.183100000000003,-23.372199999999999,38.446100000000001
217927.0,93.759399999999999,-8107.5900000000001,-8038.3299999999999,-8088.0799999999999,-13.5753,-15.6691,34.9998
217928.0,97.3352,-7017.9499999999998,-6927.1800000000003,-6987.2200000000003,6.8446800000000003,-6.7183599999999997,30.573399999999999
217929.0,115.75,-5610.4300000000003,-5496.3699999999999,-5569.8599999999997,21.309100000000001,1.8975900000000001,25.7958
217930.0,125.812,-4099.0500000000002,-3969.7800000000002,-4053.48,21.696300000000001,5.8125900000000001,21.732199999999999
217931.0,101.901,-1675.6400000000001,-1567.0999999999999,-1638.3900000000001,-6.1225199999999997,-1.22786,19.501300000000001
217932.0,92.079800000000006,-991.22900000000004,-906.12900000000002,-966.38,-22.215599999999998,-6.8362699999999998,19.2623
217933.0,90.649299999999997,-648.22500000000002,-584.04999999999995,-634.10299999999995,-33.170000000000002,-12.2677,18.738700000000001
217934.0,90.616399999999999,-518.95299999999997,-460.524,-507.63200000000001,-34.805300000000003,-14.2393,19.045100000000001
217935.0,82.050600000000003,-404.39800000000002,-336.50999999999999,-391.15600000000001,-22.8187,-9.9621899999999997,18.1418
217936.0,170.31999999999999,-1836.8099999999999,-1734.52,-1836.29,77.649500000000003,-3.34802,-12.5969
217937.0,109.087,-1065.04,-994.923,-1073.9200000000001,36.484299999999998,0.69777299999999998,27.6096
217938.0,224.93700000000001,2949.1599999999999,3040.1900000000001,2984.2600000000002,-108.52200000000001,-22.171299999999999,49.891800000000003
217939.0,176.03399999999999,10002.200000000001,10046.200000000001,10011.700000000001,-78.140600000000006,-36.881999999999998,48.233199999999997
217940.0,107.27500000000001,2764.1100000000001,2874.8699999999999,2799.0900000000001,13.8398,4.8090099999999998,20.386600000000001
217941.0,80.619500000000002,1158.8399999999999,1232.99,1180.1600000000001,-14.065799999999999,-4.5405699999999998,22.150099999999998
217942.0,118.44499999999999,9014.6000000000004,9086.5499999999993,9028.6399999999994,-37.167000000000002,-23.461500000000001,35.917999999999999
217943.0,300.57600000000002,6790.29,6856.3900000000003,6820.75,-154.76599999999999,-40.972000000000001,58.220399999999998
217944.0,100.631,894.58299999999997,984.99400000000003,903.93200000000002,-1.5470299999999999,1.8202100000000001,29.962499999999999
217945.0,102.417,774.44200000000001,861.38400000000001,779.67700000000002,10.4815,2.4477099999999998,31.6785
217946.0,97.630099999999999,-816.88699999999994,-730.00599999999997,-804.70600000000002,-10.658099999999999,-0.97470100000000004,29.152000000000001
217947.0,125.184,2280.8400000000001,2376.1999999999998,2303.4899999999998,-35.947200000000002,-5.0156900000000002,37.738799999999998
217948.0,170.65799999999999,1511.8699999999999,1617.26,1543.5699999999999,-67.470100000000002,-8.8587100000000003,46.407299999999999
217949.0,197.00800000000001,3088.6700000000001,3189.9299999999998,3122.9000000000001,-88.256200000000007,-14.622199999999999,47.763300000000001
217950.0,204.58799999999999,-2805.1599999999999,-2693.1799999999998,-2763.46,-89.890500000000003,-17.786799999999999,48.504300000000001
217951.0,262.75700000000001,4642.8400000000001,4721.1400000000003,4675.6800000000003,-132.916,-30.9892,53.296700000000001
217952.0,321.30000000000001,7381.6099999999997,7436.8400000000001,7410.1599999999999,-165.36099999999999,-48.005600000000001,63.242800000000003
217953.0,297.096,8775.75,8822.5599999999995,8798.8099999999995,-150.869,-48.132899999999999,61.611400000000003
217954.0,257.41000000000003,9682.8999999999996,9723.0799999999999,9699.2900000000009,-127.479,-45.683,57.7973
217955.0,210.702,10000.1,10037.0,10010.299999999999,-99.913399999999996,-41.689599999999999,52.091900000000003
217956.0,186.32900000000001,-9864.5799999999999,-9843.6800000000003,-9863.1200000000008,-86.669799999999995,-40.402099999999997,47.881999999999998
217957.0,143.58799999999999,9687.2199999999993,9742.7700000000004,9697.5200000000004,-57.002699999999997,-30.898700000000002,42.371099999999998
217958.0,106.446,8032.2700000000004,8122.9300000000003,8053.7700000000004,-18.665500000000002,-15.8025,30.574200000000001
217959.0,109.256,6906.0100000000002,7014.9700000000003,6937.6499999999996,-2.4795099999999999,-7.8292099999999998,27.741900000000001
217960.0,121.15600000000001,5590.4399999999996,5716.0100000000002,5630.1499999999996,11.425800000000001,1.88425,25.284400000000002
217961.0,124.389,4113.9200000000001,4241.1300000000001,4153.9399999999996,20.6814,7.5121700000000002,21.018699999999999
217962.0,121.58799999999999,-3690.1599999999999,-3564.3600000000001,-3647.1999999999998,16.944800000000001,8.1281300000000005,22.046900000000001
217963.0,88.120699999999999,1804.4300000000001,1893.73,1832.3599999999999,-2.12731,-0.56954000000000005,22.285799999999998
217964.0,81.157300000000006,720.81299999999999,787.61699999999996,736.90499999999997,-22.0108,-7.4214900000000004,20.985600000000002
217965.0,87.754300000000001,396.54300000000001,464.56299999999999,411.70600000000002,-27.3767,-9.6398299999999999,21.200099999999999
217966.0,85.836100000000002,103.67100000000001,173.33799999999999,117.73399999999999,-24.673999999999999,-8.2705500000000001,20.5318
217967.0,58.774099999999997,60.503,7.5058400000000001,64.712400000000002,-10.592599999999999,3.2339099999999998,3.5075400000000001
217968.0,110.40600000000001,54.235500000000002,144.215,66.489199999999997,27.192399999999999,4.3287300000000002,30.3932
217969.0,101.03100000000001,-1637.6700000000001,-1545.98,-1623.9400000000001,6.4014600000000002,2.9847299999999999,30.117999999999999
217970.0,96.391800000000003,123.42100000000001,212.98599999999999,137.36699999999999,-2.86233,1.1029800000000001,27.663699999999999
217971.0,115.61,-824.64099999999996,-719.30899999999997,-801.28599999999994,-18.218900000000001,0.88156500000000004,32.595399999999998
217972.0,153.91200000000001,-2387.3600000000001,-2266.1199999999999,-2352.3099999999999,-46.360900000000001,-2.9234,42.961300000000001
217973.0,181.15000000000001,-2425.75,-2307.9299999999998,-2387.27,-71.525499999999994,-10.6927,45.807899999999997
217974.0,235.256,-3225.25,-3121.23,-3182.2199999999998,-110.967,-25.0764,52.671700000000001
217975.0,272.40699999999998,-5704.6599999999999,-5613.5100000000002,-5665.4799999999996,-135.68799999999999,-33.881500000000003,55.5473
217976.0,303.23099999999999,-6974.5600000000004,-6903.21,-6941.3800000000001,-154.43700000000001,-42.713500000000003,60.823099999999997
217977.0,300.88900000000001,-7709.46,-7668.7700000000004,-7688.7399999999998,-153.88499999999999,-48.491799999999998,61.089799999999997
217978.0,267.17500000000001,-9025.3999999999996,-9000.1599999999999,-9015.0400000000009,-134.77799999999999,-47.463299999999997,56.704900000000002
217979.0,222.62,-9671.7800000000007,-9655.0499999999993,-9669.2600000000002,-108.744,-44.654899999999998,51.178600000000003
217980.0,151.33799999999999,-9808.7600000000002,-9779.5300000000007,-9806.4799999999996,-65.334299999999999,-35.642600000000002,42.791499999999999
217981.0,119.67,-9420.0499999999993,-9378.2700000000004,-9414.8500000000004,-45.490699999999997,-29.2927,36.438099999999999
217982.0,95.781300000000002,-8660.5300000000007,-8601.6900000000005,-8649.3600000000006,-26.5303,-21.540800000000001,30.224699999999999
217983.0,88.114800000000002,-7690.3800000000001,-7612.6300000000001,-7670.3400000000001,-9.5330499999999994,-13.0106,26.426100000000002
217984.0,95.5916,-6563.9399999999996,-6468.3000000000002,-6534.6199999999999,5.7990000000000004,-3.87364,24.4253
217985.0,113.208,-5206.8100000000004,-5092.0799999999999,-5169.9700000000003,19.312999999999999,5.3288900000000003,20.964700000000001
217986.0,110.149,-2397.2199999999998,-2282.6799999999998,-2355.48,1.9812700000000001,3.2734800000000002,25.870899999999999
217987.0,95.494299999999996,-1524.3,-1431.03,-1490.71,-11.037599999999999,-2.7677800000000001,26.047899999999998
217988.0,89.232500000000002,-937.976,-859.26400000000001,-912.01300000000003,-19.789100000000001,-7.3158899999999996,24.5017
217989.0,89.990399999999994,-541.91999999999996,-470.28500000000003,-521.73299999999995,-26.107700000000001,-10.4473,23.331099999999999
217990.0,86.563000000000002,-266.82900000000001,-197.34,-250.369,-23.959900000000001,-10.5282,22.229600000000001
217991.0,160.93199999999999,2034.8199999999999,2145.4499999999998,2041.6099999999999,68.444100000000006,-3.0544699999999998,-9.7155500000000004
217992.0,111.414,769.64999999999998,845.87599999999998,763.35000000000002,33.066200000000002,1.2230000000000001,30.540900000000001
217993.0,204.155,3921.9099999999999,4004.4899999999998,3961.8800000000001,-93.410700000000006,-20.271599999999999,55.238700000000001
217994.0,182.792,10032.200000000001,10067.9,10043.299999999999,-83.676299999999998,-38.004600000000003,48.552300000000002
217995.0,104.13800000000001,3599.98,3705.2199999999998,3632.5799999999999,10.3634,1.91116,24.520199999999999
217996.0,88.720100000000002,1760.71,1846.3800000000001,1785.4000000000001,-7.2412299999999998,-1.37392,24.998899999999999
217997.0,112.16500000000001,9117.5499999999993,9181.1200000000008,9130.9799999999996,-38.998100000000001,-23.709,31.430499999999999
217998.0,273.72500000000002,4875.6599999999999,4933.8699999999999,4912.1700000000001,-136.19999999999999,-36.952399999999997,64.761099999999999
217999.0,99.831500000000005,-499.65100000000001,-409.70999999999998,-489.18599999999998,-1.48447,2.4723700000000002,29.9099
218000.0,105.304,-834.70399999999995,-745.798,-828.54899999999998,9.4583600000000008,2.9308399999999999,33.664499999999997
218001.0,94.488399999999999,1691.51,1774.5999999999999,1705.78,-10.5883,-0.92370600000000003,29.817799999999998
218002.0,125.48399999999999,-616.51400000000001,-526.25,-591.09100000000001,-36.860700000000001,-4.0033799999999999,41.323300000000003
218003.0,168.03,1624.72,1723.5799999999999,1662.1900000000001,-64.1721,-6.1381199999999998,52.580300000000001
218004.0,181.23500000000001,1859.78,1951.6800000000001,1900.01,-76.403800000000004,-11.7514,53.395800000000001
218005.0,184.017,-2687.25,-2588.6100000000001,-2641.9099999999999,-76.528800000000004,-14.4809,52.754800000000003
218006.0,240.81800000000001,4456.9700000000003,4529.1400000000003,4496.8599999999997,-116.255,-28.5276,60.788899999999998
218007.0,300.40600000000001,7049.5500000000002,7095.5600000000004,7083.1199999999999,-150.83000000000001,-45.988799999999998,68.191500000000005
218008.0,298.71600000000001,8240.0400000000009,8277.4300000000003,8269.8700000000008,-148.93600000000001,-49.983400000000003,68.359499999999997
218009.0,271.72399999999999,9218.2399999999998,9249.5100000000002,9242.7999999999993,-133.27799999999999,-49.264400000000002,64.421999999999997
218010.0,226.84100000000001,9892.3700000000008,9921.1700000000001,9908.7800000000007,-108.31100000000001,-44.705599999999997,56.691499999999998
218011.0,197.54400000000001,-9824.9599999999991,-9815.0200000000004,-9818.9300000000003,-92.439800000000005,-43.804900000000004,50.1877
218012.0,141.62899999999999,9733.2299999999996,9781.6299999999992,9743.5699999999997,-59.703000000000003,-30.8476,38.992800000000003
218013.0,97.901200000000003,8247.7399999999998,8324.7600000000002,8265.4099999999999,-22.9405,-17.6511,27.002700000000001
218014.0,96.3613,7145.5100000000002,7233.71,7168.5799999999999,-12.303699999999999,-13.0146,26.117999999999999
218015.0,104.236,6012.4899999999998,6116.3500000000004,6044.4700000000003,-2.57063,-7.0548599999999997,27.1281
218016.0,109.79900000000001,4823.6400000000003,4935.7600000000002,4859.1300000000001,9.2895199999999996,-0.33438499999999999,25.465399999999999
218017.0,104.804,-4432.6700000000001,-4327.5600000000004,-4401.1499999999996,10.6379,2.8356400000000002,25.1159
218018.0,94.087900000000005,2552.6999999999998,2646.3099999999999,2581.6700000000001,0.87020200000000003,0.117704,25.557700000000001
218019.0,87.916499999999999,1126.9200000000001,1209.1300000000001,1147.0599999999999,-13.4313,-1.7987599999999999,23.599299999999999
218020.0,86.883499999999998,595.61000000000001,672.76499999999999,611.29399999999998,-18.536100000000001,-3.3792800000000001,22.3233
218021.0,84.790300000000002,160.333,232.27799999999999,173.87100000000001,-21.1449,-5.7086399999999999,21.330100000000002
218022.0,56.358499999999999,88.766999999999996,39.192599999999999,96.926400000000001,-7.9825900000000001,4.18499,-1.1359300000000001
218023.0,111.387,-97.872399999999999,-6.5222600000000002,-84.096000000000004,24.773700000000002,5.0088699999999999,32.733699999999999
218024.0,102.611,1281.3599999999999,1374.0899999999999,1295.6900000000001,5.8354900000000001,2.9434800000000001,31.230599999999999
218025.0,94.056299999999993,-903.10000000000002,-815.976,-889.35500000000002,-1.94278,1.6765000000000001,27.355
218026.0,114.715,-336.92599999999999,-234.67599999999999,-311.37599999999998,-18.307300000000001,1.83982,34.873600000000003
218027.0,152.58199999999999,274.73500000000001,387.89299999999997,313.29399999999998,-47.282400000000003,-0.90556899999999996,47.0595
218028.0,168.572,-1345.5799999999999,-1243.6600000000001,-1303.0699999999999,-64.775000000000006,-7.8751199999999999,50.924799999999998
218029.0,215.792,-4143.3199999999997,-4047.2600000000002,-4096.3400000000001,-96.588399999999993,-22.058299999999999,58.300199999999997
218030.0,248.34299999999999,-3935.04,-3852.2600000000002,-3889.5300000000002,-117.696,-30.747299999999999,63.572200000000002
218031.0,277.82799999999997,-5260.8500000000004,-5193.3599999999997,-5219.4499999999998,-136.02699999999999,-40.001199999999997,66.842299999999994
218032.0,291.96899999999999,-7290.5,-7246.8400000000001,-7257.6000000000004,-144.55000000000001,-48.141500000000001,68.450500000000005
218033.0,277.31400000000002,-8388.5300000000007,-8365.1800000000003,-8366.0100000000002,-136.608,-50.668100000000003,65.038700000000006
218034.0,239.89400000000001,-9312.3899999999994,-9302.6200000000008,-9300.3700000000008,-115.876,-48.803899999999999,57.734200000000001
218035.0,153.48099999999999,-9808.9599999999991,-9789.4599999999991,-9804.3099999999995,-68.391999999999996,-37.673499999999997,40.640999999999998
218036.0,115.947,-9426.1700000000001,-9391.0900000000001,-9418.6100000000006,-46.463799999999999,-30.342400000000001,32.572499999999998
218037.0,92.201099999999997,-8776.3400000000001,-8723.3999999999996,-8764.5799999999999,-28.4635,-22.668299999999999,27.147600000000001
218038.0,86.167699999999996,-7821.9200000000001,-7752.71,-7805.6000000000004,-16.376300000000001,-16.057200000000002,25.297899999999998
218039.0,88.041799999999995,-6718.4399999999996,-6637.6499999999996,-6697.2600000000002,-7.60785,-10.748900000000001,25.600999999999999
218040.0,94.198899999999995,-5640.0900000000001,-5546.8100000000004,-5613.5200000000004,5.8386300000000002,-3.5461999999999998,24.525200000000002
218041.0,103.94799999999999,-3198.9400000000001,-3094.8600000000001,-3165.8400000000001,2.7260800000000001,3.0021200000000001,27.527999999999999
218042.0,96.560900000000004,-2230.73,-2136.4200000000001,-2200.1100000000001,-5.3236400000000001,-0.084447300000000003,27.651499999999999
218043.0,92.185100000000006,-1492.8900000000001,-1405.6099999999999,-1466.45,-11.648300000000001,-2.2145600000000001,26.243500000000001
218044.0,92.384200000000007,-892.24900000000002,-807.59799999999996,-869.94000000000005,-17.1191,-3.17591,24.8355
218045.0,90.734999999999999,-396.31200000000001,-316.50799999999998,-378.423,-20.796500000000002,-4.8983999999999996,23.1111
218046.0,153.25800000000001,-2031.0999999999999,-1912.72,-2018.29,59.777299999999997,-2.2890000000000001,-5.5151599999999998
218047.0,114.13500000000001,-963.93100000000004,-881.58199999999999,-968.49300000000005,29.506699999999999,1.796,32.799100000000003
218048.0,192.61799999999999,2782.9699999999998,2861.8800000000001,2825.5,-83.078599999999994,-19.3369,59.424700000000001
218049.0,178.65700000000001,9679.7099999999991,9715.0400000000009,9693.7199999999993,-83.789100000000005,-37.3232,43.694099999999999
218050.0,93.4024,4109.5500000000002,4201.6700000000001,4132.3800000000001,-1.4298299999999999,-3.3218899999999998,24.362300000000001
218051.0,94.153000000000006,2301.8299999999999,2393.3800000000001,2323.1799999999998,-5.2400799999999998,0.90244500000000005,25.143799999999999
218052.0,104.55,8779.9300000000003,8835.4699999999993,8791.4599999999991,-39.194600000000001,-24.375599999999999,25.573
218053.0,251.13800000000001,6152.1000000000004,6209.1400000000003,6193.9099999999999,-120.167,-34.276800000000001,67.351600000000005
218054.0,100.461,1033.8299999999999,1124.1700000000001,1047.72,-1.0734699999999999,2.2959100000000001,31.488299999999999
218055.0,107.15900000000001,921.423,1012.03,928.69000000000005,8.4765300000000003,3.1449799999999999,34.807600000000001
218056.0,96.582899999999995,-705.51700000000005,-623.89499999999998,-691.85599999999999,-10.2866,-0.65495599999999998,33.043999999999997
218057.0,126.03100000000001,2430.52,2517.1300000000001,2456.9299999999998,-34.460299999999997,-2.64263,46.147100000000002
218058.0,165.21600000000001,1663.51,1758.0799999999999,1702.8800000000001,-58.262300000000003,-5.3510600000000004,58.470500000000001
218059.0,175.245,3108.2199999999998,3197.3800000000001,3148.9000000000001,-68.293300000000002,-12.204599999999999,58.578000000000003
218060.0,176.196,-2763.6199999999999,-2669.9499999999998,-2718.8600000000001,-68.784300000000002,-14.1031,56.7744
218061.0,224.25800000000001,4268.8100000000004,4338.0600000000004,4312.8400000000001,-103.411,-26.514700000000001,64.331999999999994
218062.0,271.86000000000001,6434.3100000000004,6477.6199999999999,6471.6300000000001,-132.93700000000001,-41.977699999999999,68.195599999999999
218063.0,281.06999999999999,7677.4899999999998,7709.5799999999999,7710.6400000000003,-137.65700000000001,-48.199100000000001,68.599900000000005
218064.0,269.87900000000002,8753.1700000000001,8779.3700000000008,8781.5900000000001,-131.215,-50.131799999999998,65.559200000000004
218065.0,233.51499999999999,9411.4300000000003,9438.8600000000006,9431.9300000000003,-112.47499999999999,-45.6721,56.889899999999997
218066.0,198.57499999999999,-9325.5300000000007,-9318.4400000000005,-9314.5499999999993,-93.581100000000006,-46.004199999999997,47.319899999999997
218067.0,130.81999999999999,9439.5400000000009,9485.3099999999995,9450.7900000000009,-57.045200000000001,-29.7437,31.573899999999998
218068.0,93.182599999999994,7915.7600000000002,7979.9099999999999,7929.1000000000004,-27.838799999999999,-20.125900000000001,23.844799999999999
218069.0,88.995699999999999,7049.5500000000002,7121.4499999999998,7064.9899999999998,-19.9041,-16.205200000000001,23.421099999999999
218070.0,89.968599999999995,6109.9799999999996,6191.6000000000004,6129.3199999999997,-12.9956,-12.168799999999999,23.713200000000001
218071.0,92.255300000000005,5104.0900000000001,5193.79,5126.4200000000001,-5.4183300000000001,-7.4737099999999996,23.896000000000001
218072.0,88.384100000000004,-4678.9099999999999,-4594.5900000000001,-4660.7399999999998,-2.9171,-5.3479799999999997,24.441400000000002
218073.0,93.482399999999998,3175.6700000000001,3267.2199999999998,3198.1700000000001,-2.4203000000000001,-0.85304999999999997,25.115400000000001
218074.0,97.304100000000005,1515.8399999999999,1610.0899999999999,1536.1700000000001,-8.5469299999999997,2.7079200000000001,24.817799999999998
218075.0,94.275400000000005,795.68399999999997,885.18299999999999,812.86400000000003,-12.0359,1.9115800000000001,23.6265
218076.0,89.137200000000007,188.607,270.06200000000001,202.22800000000001,-15.422499999999999,-0.97851100000000002,22.495000000000001
218077.0,52.259300000000003,103.761,56.781799999999997,108.86199999999999,-5.36233,4.9283599999999996,-5.7497999999999996
218078.0,112.18899999999999,-75.925399999999996,16.163900000000002,-61.342199999999998,22.677,5.6946300000000001,34.622199999999999
218079.0,103.59099999999999,-1777.04,-1683.1700000000001,-1761.6400000000001,5.17516,2.8444500000000001,31.7409
218080.0,93.743099999999998,14.617100000000001,99.337900000000005,30.4588,-0.84667800000000004,2.3597899999999998,29.9024
218081.0,115.753,-940.91700000000003,-841.13800000000003,-915.68499999999995,-17.989000000000001,2.4426000000000001,38.014600000000002
218082.0,149.43700000000001,-2567.75,-2462.0300000000002,-2528.0799999999999,-42.971400000000003,0.48830000000000001,52.389000000000003
218083.0,163.11500000000001,-2558.8899999999999,-2461.71,-2516.6700000000001,-57.207299999999996,-7.8285,56.217700000000001
218084.0,201.875,-2988.5300000000002,-2900.5799999999999,-2939.3099999999999,-86.369299999999996,-19.701699999999999,61.593800000000002
218085.0,229.24700000000001,-5238.6599999999999,-5161.9399999999996,-5189.8800000000001,-104.23699999999999,-28.010999999999999,66.032700000000006
218086.0,251.816,-6191.5799999999999,-6129.2600000000002,-6145.7700000000004,-118.867,-36.509999999999998,68.060100000000006
218087.0,267.72300000000001,-6586.6499999999996,-6540.6700000000001,-6547.0299999999997,-128.672,-44.613999999999997,68.733999999999995
218088.0,268.68599999999998,-7841.1499999999996,-7813.4300000000003,-7808.9799999999996,-129.24299999999999,-50.298499999999997,67.280799999999999
218089.0,246.28,-8770.7999999999993,-8758.4400000000005,-8748.8500000000004,-117.649,-51.043300000000002,60.415199999999999
218090.0,144.45099999999999,-9455.5200000000004,-9437.6399999999994,-9449.0200000000004,-65.666899999999998,-37.5349,33.947600000000001
218091.0,108.746,-9040.6499999999996,-9005.3400000000001,-9034.3799999999992,-44.8414,-29.436900000000001,26.6418
218092.0,92.918499999999995,-8263.3099999999995,-8213.8799999999992,-8256.1900000000005,-31.963899999999999,-23.5868,24.203700000000001
218093.0,86.705799999999996,-7427.0900000000001,-7367.2600000000002,-7418.1800000000003,-23.229500000000002,-19.1006,23.651700000000002
218094.0,84.669200000000004,-6583.21,-6514.8100000000004,-6571.6999999999998,-16.432600000000001,-15.154199999999999,23.421299999999999
218095.0,84.698499999999996,-5651.2299999999996,-5574.46,-5636.3299999999999,-8.3917900000000003,-10.5922,23.48
218096.0,91.688699999999997,-3732.8499999999999,-3644.5700000000002,-3712.21,-2.6573699999999998,-1.62923,25.696899999999999
218097.0,92.900400000000005,-2829.3499999999999,-2739.9400000000001,-2807.3000000000002,-4.6669700000000001,0.036274099999999997,26.1816
218098.0,94.410399999999996,-1998.6700000000001,-1907.9100000000001,-1976.8099999999999,-7.6717599999999999,1.1389400000000001,25.829699999999999
218099.0,98.389399999999995,-1252.5599999999999,-1158.1900000000001,-1231.45,-11.0382,2.4973000000000001,25.4026
218100.0,96.888000000000005,-561.08100000000002,-470.416,-543.25199999999995,-14.9956,1.2182200000000001,24.404499999999999
218101.0,146.886,1846.8299999999999,1972.0799999999999,1863.9300000000001,50.737099999999998,-1.0668200000000001,-1.98369
218102.0,118.881,865.52700000000004,954.91899999999998,864.53200000000004,26.814,1.7876399999999999,35.9876
218103.0,176.29900000000001,3795.6500000000001,3869.98,3836.9200000000001,-75.238299999999995,-17.215599999999998,54.922499999999999
218104.0,168.57900000000001,8855.0400000000009,8889.7700000000004,8872.6599999999999,-80.800200000000004,-36.718899999999998,35.978499999999997
218105.0,86.155000000000001,4284.25,4364.5500000000002,4298.0299999999997,-10.138,-5.9186800000000002,22.1966
218106.0,96.991,2538.77,2631.8699999999999,2553.77,-6.8672199999999997,1.1568799999999999,24.2608
218107.0,104.742,8121.0299999999997,8165.6099999999997,8130.3900000000003,-43.331400000000002,-26.1218,23.333100000000002
218108.0,232.239,4334.4700000000003,4390.0200000000004,4379.5600000000004,-108.483,-31.6769,65.838999999999999
218109.0,103.623,-361.89999999999998,-270.85899999999998,-346.56099999999998,-1.4494499999999999,1.88334,34.6096
218110.0,109.40300000000001,-711.71100000000001,-620.72900000000004,-703.27099999999996,8.4616600000000002,3.78315,37.103900000000003
218111.0,94.786199999999994,1854.27,1933.8199999999999,1868.22,-9.59877,1.6859900000000001,33.100499999999997
218112.0,121.146,-492.29300000000001,-409.613,-466.68900000000002,-31.623799999999999,-2.9174699999999998,45.738599999999998
218113.0,163.97499999999999,1678.4000000000001,1772.9200000000001,1718.3599999999999,-57.270200000000003,-7.1239999999999997,58.143000000000001
218114.0,168.07900000000001,1854.6300000000001,1941.5799999999999,1895.6900000000001,-66.505099999999999,-10.888400000000001,54.619300000000003
218115.0,162.21100000000001,-2642.1199999999999,-2557.2800000000002,-2598.4899999999998,-64.149100000000004,-12.5733,51.938400000000001
218116.0,208.22399999999999,4139.0699999999997,4204.7799999999997,4182.9899999999998,-94.192899999999995,-24.659199999999998,62.063800000000001
218117.0,245.29400000000001,6232.5500000000002,6276.8500000000004,6273.8400000000001,-117.184,-37.675400000000003,65.515199999999993
218118.0,252.98400000000001,7112.4200000000001,7144.8699999999999,7147.8400000000001,-122.616,-43.319600000000001,63.532699999999998
218119.0,245.001,7938.6499999999996,7966.1199999999999,7967.9899999999998,-119.70699999999999,-45.654200000000003,57.658999999999999
218120.0,218.39400000000001,8654.8400000000001,8685.1200000000008,8679.0300000000007,-106.837,-42.877000000000002,48.882199999999997
218121.0,185.78999999999999,-8500.9899999999998,-8485.2000000000007,-8485.4300000000003,-88.449700000000007,-44.8065,39.914000000000001
218122.0,128.56700000000001,8596.2199999999993,8636.1000000000004,8608.2900000000009,-58.323500000000003,-30.769200000000001,27.2622
218123.0,91.766099999999994,7537.2399999999998,7587.9200000000001,7546.8000000000002,-33.564599999999999,-21.927,21.782
218124.0,84.297200000000004,6783.5500000000002,6841.7399999999998,6794.5500000000002,-25.715800000000002,-17.687799999999999,20.9468
218125.0,81.393299999999996,5980.1300000000001,6046.0799999999999,5992.4300000000003,-19.1052,-13.595000000000001,20.703299999999999
218126.0,82.476100000000002,5153.96,5227.3900000000003,5167.0500000000002,-13.861000000000001,-9.6836599999999997,21.153700000000001
218127.0,80.104600000000005,-4742.5799999999999,-4671.9200000000001,-4731.9200000000001,-11.5745,-8.7733000000000008,21.834800000000001
218128.0,91.039100000000005,3397.5500000000002,3484.3200000000002,3411.9000000000001,-7.6475299999999997,-2.21713,23.157599999999999
218129.0,103.988,1689.96,1789.8499999999999,1705.79,-7.2897800000000004,4.2515099999999997,25.508199999999999
218130.0,101.85599999999999,882.71000000000004,978.83900000000006,897.13599999999997,-9.1714300000000009,3.7457199999999999,25.936499999999999
218131.0,94.872299999999996,207.28700000000001,293.74200000000002,219.62299999999999,-11.494899999999999,1.09978,26.080200000000001
218132.0,49.944299999999998,119.006,74.339200000000005,120.715,-5.5747999999999998,6.3509700000000002,-8.2825799999999994
218133.0,114.21299999999999,-200.58199999999999,-107.44199999999999,-184.51400000000001,21.245799999999999,6.0881800000000004,37.160400000000003
218134.0,103.742,1158.6400000000001,1251.4000000000001,1175.4000000000001,5.0749500000000003,3.6090900000000001,33.244
218135.0,96.749499999999998,-1051.79,-967.00400000000002,-1033.72,-1.49387,2.63754,33.417299999999997
218136.0,107.866,-476.483,-384.28300000000002,-453.87599999999998,-15.0846,3.9909500000000002,36.410499999999999
218137.0,147.95599999999999,238.97900000000001,345.55200000000002,277.036,-39.7239,-0.46428399999999997,52.933900000000001
218138.0,160.69200000000001,-1337.4400000000001,-1242.97,-1294.4200000000001,-57.647399999999998,-8.4354800000000001,54.552599999999998
218139.0,185.60400000000001,-3943.5500000000002,-3860.1799999999998,-3894.8400000000001,-77.215199999999996,-17.2547,58.897100000000002
218140.0,212.69300000000001,-3538.1199999999999,-3466.4099999999999,-3488.6599999999999,-95.009799999999998,-25.428799999999999,63.707099999999997
218141.0,230.35300000000001,-4625.71,-4568.0699999999997,-4578.04,-106.248,-33.1417,65.964399999999998
218142.0,240.12200000000001,-6318.9099999999999,-6273.8500000000004,-6276.1700000000001,-113.377,-39.603900000000003,64.443299999999994
218143.0,242.63499999999999,-7080.5200000000004,-7049.4700000000003,-7044.5299999999997,-116.062,-45.788800000000002,60.633299999999998
218144.0,228.27099999999999,-7920.3100000000004,-7898.4700000000003,-7892.6400000000003,-109.744,-47.8337,53.147100000000002
218145.0,141.31399999999999,-8498.7000000000007,-8475.7800000000007,-8491.3299999999999,-65.033199999999994,-37.5747,29.638200000000001
218146.0,112.254,-8139.0799999999999,-8106.3599999999997,-8135.8999999999996,-48.221699999999998,-30.802,24.509
218147.0,96.184200000000004,-7672.8199999999997,-7632.3400000000001,-7669.4300000000003,-37.5167,-25.813700000000001,22.485199999999999
218148.0,85.466999999999999,-7053.6300000000001,-7006.2600000000002,-7048.2600000000002,-29.166599999999999,-21.436299999999999,21.258500000000002
218149.0,79.099999999999994,-6307.4499999999998,-6252.3699999999999,-6299.8699999999999,-21.855499999999999,-17.029,20.6538
218150.0,77.655299999999997,-5544.3800000000001,-5481.3500000000004,-5535.1499999999996,-15.929600000000001,-12.790900000000001,20.8384
218151.0,84.339299999999994,-3891.48,-3813.8000000000002,-3879.4899999999998,-8.4837299999999995,-4.9947600000000003,22.919499999999999
218152.0,90.179599999999994,-3049.9699999999998,-2965.2199999999998,-3036.6599999999999,-7.2117899999999997,-1.48702,24.061800000000002
218153.0,96.814300000000003,-2222.71,-2130.9499999999998,-2208.1900000000001,-7.2768300000000004,1.6131,25.217099999999999
218154.0,104.74299999999999,-1405.98,-1306.75,-1390.0,-8.7934099999999997,4.3613499999999998,26.8735
218155.0,103.51900000000001,-646.74599999999998,-550.93700000000001,-631.68200000000002,-11.5215,3.5833300000000001,27.7865
218156.0,139.93299999999999,-2307.4899999999998,-2179.8499999999999,-2291.1799999999998,41.234400000000001,1.20381,0.44008199999999997
218157.0,124.693,-845.95799999999997,-743.86599999999999,-837.73199999999997,22.889900000000001,-0.44868200000000003,37.970100000000002
218158.0,160.435,2553.27,2620.3499999999999,2594.4699999999998,-66.062600000000003,-14.3164,53.535600000000002
218159.0,166.84200000000001,7858.8199999999997,7886.4099999999999,7884.8900000000003,-77.987700000000004,-37.312100000000001,39.546799999999998
218160.0,84.454099999999997,4164.3900000000003,4238.1700000000001,4174.9700000000003,-13.0975,-7.6529199999999999,23.572700000000001
218161.0,97.812799999999996,2537.1700000000001,2627.8000000000002,2548.6799999999998,-7.9525399999999999,-0.33698899999999998,26.2851
218162.0,105.301,7571.0600000000004,7609.9499999999998,7583.2600000000002,-43.494199999999999,-26.353400000000001,26.7241
218163.0,209.15100000000001,5490.9399999999996,5542.6899999999996,5535.8900000000003,-95.889899999999997,-27.433,61.992100000000001
218164.0,103.129,1179.74,1264.49,1189.2,2.0083899999999999,3.7924799999999999,37.009599999999999
218165.0,116.251,1046.26,1140.3,1055.6900000000001,9.7416199999999993,4.6860299999999997,41.3063
218166.0,93.584000000000003,-548.73000000000002,-472.67599999999999,-530.08600000000001,-6.4325000000000001,1.9037900000000001,36.097099999999998
218167.0,121.196,2488.1900000000001,2568.6199999999999,2515.54,-31.671900000000001,-2.4137900000000001,47.062100000000001
218168.0,155.15000000000001,1679.72,1767.5,1719.0899999999999,-52.889400000000002,-4.7086499999999996,57.1965
218169.0,152.58799999999999,3097.3600000000001,3174.7600000000002,3139.5100000000002,-56.905799999999999,-7.4541199999999996,54.455399999999997
218170.0,146.64500000000001,-2693.98,-2618.0500000000002,-2649.2600000000002,-53.780000000000001,-9.1676800000000007,52.297699999999999
218171.0,189.71799999999999,3809.23,3870.0700000000002,3854.6300000000001,-83.430499999999995,-21.369599999999998,59.833500000000001
218172.0,217.47999999999999,5516.7799999999997,5561.2299999999996,5558.8900000000003,-102.438,-32.676600000000001,59.823999999999998
218173.0,222.303,6448.0200000000004,6482.8699999999999,6486.1999999999998,-106.807,-37.351100000000002,56.768599999999999
218174.0,210.86099999999999,7196.96,7227.2299999999996,7231.1000000000004,-102.455,-39.305700000000002,49.287799999999997
218175.0,196.62200000000001,7603.9799999999996,7632.9799999999996,7636.6300000000001,-94.6892,-39.655900000000003,45.0334
218176.0,175.964,-7381.6300000000001,-7359.8100000000004,-7358.1300000000001,-82.008300000000006,-41.572800000000001,41.1783
218177.0,136.11000000000001,7880.5600000000004,7912.7399999999998,7898.71,-60.778199999999998,-32.128300000000003,34.478299999999997
218178.0,88.457700000000003,7007.1000000000004,7052.5900000000001,7017.54,-32.788400000000003,-21.787500000000001,22.1494
218179.0,82.006600000000006,6400.54,6452.1700000000001,6410.7799999999997,-26.710000000000001,-18.261600000000001,21.154
218180.0,79.851500000000001,5708.6800000000003,5766.8999999999996,5718.9700000000003,-21.726500000000001,-14.8756,21.604299999999999
218181.0,80.709699999999998,4946.3900000000003,5012.2600000000002,4956.8199999999997,-16.983499999999999,-11.225,22.437899999999999
218182.0,78.720799999999997,-4552.9399999999996,-4488.9499999999998,-4544.6999999999998,-14.5448,-10.7498,22.948799999999999
218183.0,90.294899999999998,3366.9200000000001,3449.1700000000001,3377.6900000000001,-9.7812300000000008,-3.9426000000000001,24.662800000000001
218184.0,106.52500000000001,1716.6600000000001,1816.23,1729.3900000000001,-7.0229999999999997,3.3633899999999999,28.028400000000001
218185.0,105.61799999999999,910.053,1007.4,922.524,-8.0232399999999995,3.35236,28.924600000000002
218186.0,98.508399999999995,205.11000000000001,293.18599999999998,216.43600000000001,-9.8209300000000006,0.89141099999999995,29.006599999999999
218187.0,49.411000000000001,82.698599999999999,40.584899999999998,85.7988,-8.3810500000000001,5.3433299999999999,-8.7813700000000008
218188.0,118.122,-205.88499999999999,-107.47499999999999,-184.255,18.160499999999999,5.7986000000000004,40.160800000000002
218189.0,105.80500000000001,-1896.72,-1806.72,-1881.25,8.0908999999999995,4.1164899999999998,36.514600000000002
218190.0,96.578000000000003,-120.58,-38.708300000000001,-105.443,1.8663099999999999,3.5714399999999999,34.572699999999998
218191.0,109.026,-1021.8,-932.40899999999999,-996.03399999999999,-12.063499999999999,4.9900399999999996,40.921399999999998
218192.0,142.80799999999999,-2554.6900000000001,-2453.9400000000001,-2517.5700000000002,-40.343800000000002,-0.37420199999999998,50.738700000000001
218193.0,147.49199999999999,-2588.5500000000002,-2505.2600000000002,-2544.5799999999999,-50.520600000000002,-5.7057399999999996,54.132800000000003
218194.0,170.02000000000001,-2638.46,-2561.04,-2591.98,-68.947599999999994,-14.651199999999999,56.113300000000002
218195.0,192.91300000000001,-4698.8900000000003,-4632.6999999999998,-4649.8999999999996,-83.561400000000006,-22.118400000000001,61.269599999999997
218196.0,206.67500000000001,-5446.1800000000003,-5391.1400000000003,-5398.6300000000001,-93.597999999999999,-29.332000000000001,61.043900000000001
218197.0,212.58199999999999,-5573.7399999999998,-5528.0299999999997,-5530.1099999999997,-99.055499999999995,-34.468299999999999,58.288200000000003
218198.0,210.529,-6477.9099999999999,-6444.8199999999997,-6440.3900000000003,-100.236,-39.905999999999999,52.097999999999999
218199.0,200.06100000000001,-7055.4899999999998,-7026.2200000000003,-7023.4099999999999,-95.511899999999997,-41.491999999999997,46.708199999999998
218200.0,148.43700000000001,-7596.0799999999999,-7575.6099999999997,-7581.04,-66.593599999999995,-38.487299999999998,36.276899999999998
218201.0,115.935,-7540.3800000000001,-7515.3599999999997,-7531.71,-49.183399999999999,-33.129300000000001,28.325399999999998
218202.0,93.320300000000003,-7129.54,-7094.4399999999996,-7121.1099999999997,-36.264800000000001,-26.692900000000002,23.229600000000001
218203.0,82.942999999999998,-6580.1199999999999,-6536.6599999999999,-6571.0799999999999,-28.8537,-21.6616,21.575500000000002
218204.0,78.350200000000001,-5987.6199999999999,-5938.0,-5979.1899999999996,-23.683700000000002,-17.9072,21.438600000000001
218205.0,76.747100000000003,-5292.6000000000004,-5236.5299999999997,-5284.5500000000002,-18.8245,-14.402900000000001,21.963899999999999
218206.0,82.959599999999995,-3807.0500000000002,-3734.9400000000001,-3798.4899999999998,-10.8733,-7.1810099999999997,23.9207
218207.0,89.789699999999996,-3025.7600000000002,-2944.9000000000001,-3016.21,-8.6405200000000004,-3.5097900000000002,25.450900000000001
218208.0,97.465900000000005,-2229.3699999999999,-2139.9400000000001,-2218.54,-7.36374,0.049717200000000003,27.017600000000002
218209.0,106.96599999999999,-1444.3900000000001,-1345.77,-1431.47,-7.8742000000000001,3.5677300000000001,29.430800000000001
218210.0,106.744,-668.40499999999997,-571.81100000000004,-655.20500000000004,-9.8611599999999999,3.3563200000000002,30.763999999999999
218211.0,133.94200000000001,1800.8,1927.6300000000001,1819.77,35.431600000000003,4.07829,5.31935
218212.0,133.827,933.15499999999997,1042.73,942.125,19.768999999999998,-1.5911200000000001,43.302999999999997
218213.0,152.81399999999999,3447.0799999999999,3510.79,3490.21,-59.318899999999999,-12.6119,55.2179
218214.0,174.74600000000001,7201.9399999999996,7222.3199999999997,7238.04,-76.913600000000002,-37.307499999999997,50.434600000000003
218215.0,86.163899999999998,3983.8499999999999,4054.04,3994.8099999999999,-13.439299999999999,-9.9278999999999993,27.744199999999999
218216.0,98.290599999999998,2475.79,2563.73,2486.6999999999998,-7.8044000000000002,-1.9905900000000001,29.2864
218217.0,98.069199999999995,7098.8299999999999,7139.4200000000001,7114.9899999999998,-38.373399999999997,-23.7972,27.374700000000001
218218.0,182.607,3582.5599999999999,3630.7600000000002,3628.5900000000001,-80.107699999999994,-22.296900000000001,58.818899999999999
218219.0,102.21599999999999,-238.417,-153.19399999999999,-227.19800000000001,7.0430900000000003,3.4361999999999999,35.7361
218220.0,123.30200000000001,-492.06900000000002,-390.89499999999998,-481.255,9.5390599999999992,5.0387500000000003,43.185699999999997
218221.0,99.898799999999994,1856.6099999999999,1933.4100000000001,1874.3499999999999,-4.0481299999999996,-1.24458,41.130400000000002
218222.0,125.80200000000001,-355.714,-276.08100000000002,-327.80900000000003,-29.161000000000001,-0.16708500000000001,52.842500000000001
218223.0,137.928,1759.0999999999999,1838.6099999999999,1798.1099999999999,-42.232700000000001,-1.22655,54.549700000000001
218224.0,138.34299999999999,1642.8399999999999,1715.22,1683.8399999999999,-47.346400000000003,-7.5451800000000002,52.567700000000002
218225.0,141.14400000000001,-2285.8800000000001,-2208.6399999999999,-2242.7199999999998,-46.994900000000001,-8.3389199999999999,53.517899999999997
218226.0,170.72900000000001,3649.79,3706.27,3696.2199999999998,-71.368200000000002,-17.0288,58.524999999999999
218227.0,186.66499999999999,5169.8199999999997,5211.46,5213.96,-84.802499999999995,-26.328199999999999,55.814700000000002
218228.0,192.12899999999999,5719.75,5752.7299999999996,5762.9899999999998,-88.923400000000001,-31.142199999999999,54.008099999999999
218229.0,184.45400000000001,6242.7299999999996,6269.8699999999999,6283.9099999999999,-85.373599999999996,-34.434800000000003,49.2789
218230.0,187.12200000000001,6805.0100000000002,6826.3699999999999,6846.8699999999999,-84.555400000000006,-37.989199999999997,51.386499999999998
218231.0,178.53899999999999,-6685.0799999999999,-6666.4099999999999,-6649.6400000000003,-78.490200000000002,-39.170999999999999,51.146900000000002
218232.0,140.38499999999999,7339.3299999999999,7370.1300000000001,7365.3199999999997,-60.163699999999999,-30.574100000000001,41.716799999999999
218233.0,83.599699999999999,6592.3400000000001,6638.1099999999997,6604.8800000000001,-28.600100000000001,-20.665500000000002,22.915500000000002
218234.0,82.369200000000006,5940.7399999999998,5990.25,5952.9799999999996,-25.2516,-18.969799999999999,24.479099999999999
218235.0,82.201400000000007,5308.1099999999997,5362.8000000000002,5320.1099999999997,-21.5806,-16.6709,26.1236
218236.0,83.115099999999998,4676.2799999999997,4738.4200000000001,4687.6999999999998,-17.249500000000001,-13.4674,27.016300000000001
218237.0,81.636799999999994,-4327.3400000000001,-4266.1800000000003,-4317.71,-14.8354,-13.346,27.241199999999999
218238.0,91.195499999999996,3238.77,3317.9400000000001,3249.3699999999999,-9.8702799999999993,-5.90496,28.158799999999999
218239.0,106.871,1680.1900000000001,1777.53,1691.8399999999999,-6.3354799999999996,2.1469,30.609500000000001
218240.0,106.495,889.60599999999999,985.64599999999996,901.62,-6.9940899999999999,2.4723600000000001,31.4222
218241.0,99.464399999999998,206.20099999999999,293.55000000000001,217.89599999999999,-8.2991600000000005,0.29452699999999998,31.311499999999999
218242.0,50.842500000000001,88.228800000000007,46.960999999999999,90.371600000000001,-12.2174,3.4153699999999998,-10.1014
218243.0,123.965,-373.952,-270.80000000000001,-350.42599999999999,13.8186,6.06677,44.4116
218244.0,106.054,982.28499999999997,1073.23,996.64999999999998,9.8083299999999998,2.75867,35.422899999999998
218245.0,99.295100000000005,-995.55799999999999,-911.55499999999995,-980.81200000000001,8.3362800000000004,2.8494799999999998,34.599800000000002
218246.0,121.295,-453.32499999999999,-358.60199999999998,-426.58100000000002,-12.173999999999999,3.7576200000000002,48.549199999999999
218247.0,131.46100000000001,52.995600000000003,140.238,90.219399999999993,-34.870600000000003,1.14754,51.253700000000002
218248.0,130.005,-1266.6099999999999,-1188.05,-1225.01,-38.249000000000002,-3.93119,51.094499999999996
218249.0,158.38499999999999,-3535.1399999999999,-3464.8699999999999,-3489.1399999999999,-60.949800000000003,-12.945,56.619700000000002
218250.0,171.24100000000001,-2946.73,-2885.1500000000001,-2898.1999999999998,-70.094200000000001,-18.567599999999999,58.852899999999998
218251.0,179.74700000000001,-3760.5,-3708.6999999999998,-3712.6300000000001,-77.734700000000004,-24.279199999999999,57.494999999999997
218252.0,183.45599999999999,-5151.0200000000004,-5105.4700000000003,-5105.6800000000003,-81.947800000000001,-28.453299999999999,54.819400000000002
218253.0,181.91499999999999,-5601.3299999999999,-5567.8900000000003,-5559.9200000000001,-82.715000000000003,-33.9407,50.542099999999998
218254.0,181.83799999999999,-6166.3800000000001,-6136.4200000000001,-6127.1000000000004,-82.077200000000005,-36.0304,50.650300000000001
218255.0,155.71100000000001,-7036.4300000000003,-7023.8599999999997,-7009.5600000000004,-66.930000000000007,-38.567999999999998,43.978700000000003
218256.0,109.285,-7101.0500000000002,-7080.7799999999997,-7084.4300000000003,-44.7883,-31.9878,28.8995
218257.0,85.346500000000006,-6767.1999999999998,-6730.2700000000004,-6753.75,-30.840499999999999,-24.136500000000002,23.345199999999998
218258.0,82.673100000000005,-6173.4499999999998,-6127.9700000000003,-6161.3900000000003,-26.410799999999998,-20.694500000000001,24.437799999999999
218259.0,81.802599999999998,-5532.6599999999999,-5483.6499999999996,-5521.7799999999997,-23.0901,-19.009399999999999,25.954000000000001
218260.0,80.677899999999994,-4942.5900000000001,-4888.6999999999998,-4932.5200000000004,-18.9177,-16.684100000000001,26.692699999999999
218261.0,84.249899999999997,-3639.6300000000001,-3570.6399999999999,-3630.3299999999999,-10.9923,-9.6538299999999992,27.391100000000002
218262.0,90.331299999999999,-2924.6199999999999,-2846.5100000000002,-2914.9299999999998,-8.5473599999999994,-5.5954199999999998,28.335100000000001
218263.0,97.425200000000004,-2180.3299999999999,-2093.4499999999998,-2170.02,-6.7771100000000004,-1.63733,29.360099999999999
218264.0,107.11799999999999,-1408.24,-1311.79,-1396.2,-6.9656200000000004,2.3487300000000002,31.757200000000001
218265.0,107.20399999999999,-661.39200000000005,-566.28300000000002,-648.47699999999998,-8.3829200000000004,2.5873900000000001,33.052799999999998
218266.0,130.88900000000001,-2442.98,-2317.9699999999998,-2419.3200000000002,33.009099999999997,7.4031900000000004,12.4923
218267.0,141.154,-758.03700000000003,-644.78200000000004,-754.56899999999996,16.5534,-2.5205899999999999,47.0364
218268.0,144.47200000000001,2234.29,2294.5500000000002,2279.4899999999998,-51.901400000000002,-9.97851,56.395099999999999
218269.0,171.06100000000001,6722.8599999999997,6742.3900000000003,6767.3699999999999,-68.295699999999997,-34.139000000000003,58.534599999999998
218270.0,87.156899999999993,3860.1999999999998,3928.3099999999999,3875.0,-11.0555,-10.6051,31.8432
218271.0,98.314700000000002,2415.6799999999998,2501.7800000000002,2428.3299999999999,-6.1080100000000002,-2.6009500000000001,31.8794
218272.0,94.341099999999997,6679.6199999999999,6720.0699999999997,6705.8800000000001,-30.7194,-22.3996,33.1676
218273.0,163.11699999999999,4811.4499999999998,4855.6899999999996,4860.8999999999996,-65.991900000000001,-17.916699999999999,58.777200000000001
218274.0,103.35599999999999,1293.28,1383.28,1308.75,6.1231799999999996,1.8767199999999999,34.6965
218275.0,125.124,1233.5699999999999,1339.1600000000001,1246.95,8.0974500000000003,5.2092099999999997,42.670000000000002
218276.0,101.375,-471.89600000000002,-391.89699999999999,-456.589,-5.1293600000000001,-1.8665400000000001,39.908099999999997
218277.0,120.733,2604.3800000000001,2684.8800000000001,2632.9699999999998,-23.877199999999998,-0.150168,51.2194
218278.0,127.446,1631.21,1708.0899999999999,1670.52,-33.925800000000002,-1.9087700000000001,52.742899999999999
218279.0,132.273,2840.5700000000002,2909.4400000000001,2882.46,-42.431699999999999,-6.5510099999999998,52.7652
218280.0,136.00700000000001,-2315.4000000000001,-2241.4000000000001,-2272.9299999999998,-42.988500000000002,-7.2876099999999999,53.719999999999999
218281.0,154.93899999999999,3368.77,3421.1399999999999,3416.0700000000002,-59.944400000000002,-13.6264,58.212899999999998
218282.0,165.744,4559.4300000000003,4597.1999999999998,4609.29,-68.148700000000005,-21.248799999999999,58.178199999999997
218283.0,173.44399999999999,5234.8800000000001,5263.4899999999998,5285.8900000000003,-71.523300000000006,-26.1569,59.785699999999999
218284.0,169.959,5821.4200000000001,5842.9799999999996,5869.8199999999997,-69.207499999999996,-30.141999999999999,57.814300000000003
218285.0,180.672,6243.3000000000002,6259.1300000000001,6291.3000000000002,-72.754000000000005,-34.685600000000001,61.5336
218286.0,175.17500000000001,-6150.5299999999997,-6133.96,-6103.1199999999999,-69.116,-35.927999999999997,59.848799999999997
218287.0,134.245,6955.0699999999997,6987.8500000000004,6992.04,-51.337400000000002,-27.6463,46.877800000000001
218288.0,85.032600000000002,6137.4099999999999,6180.4799999999996,6159.1300000000001,-23.383800000000001,-20.511900000000001,31.285499999999999
218289.0,84.976200000000006,5646.4899999999998,5692.7700000000004,5666.4899999999998,-20.823799999999999,-19.2178,32.639400000000002
218290.0,84.469700000000003,5115.4799999999996,5167.3400000000001,5133.6700000000001,-17.813199999999998,-17.153400000000001,32.776600000000002
218291.0,84.722099999999998,4509.3800000000001,4569.1099999999997,4525.71,-14.251200000000001,-14.064,32.226700000000001
218292.0,82.895899999999997,-4171.5100000000002,-4112.1099999999997,-4156.5,-12.16,-14.1379,31.443000000000001
218293.0,91.629900000000006,3167.4400000000001,3244.8000000000002,3180.75,-7.8591600000000001,-6.54399,31.354399999999998
218294.0,106.527,1651.8199999999999,1747.1900000000001,1664.1400000000001,-4.75007,1.6474200000000001,32.659300000000002
218295.0,106.214,882.40599999999995,976.78800000000001,895.05399999999997,-5.4952899999999998,2.0917599999999998,33.183399999999999
218296.0,99.179900000000004,198.53800000000001,284.892,211.45099999999999,-6.7878100000000003,0.045793599999999997,32.607900000000001
218297.0,52.5747,68.835899999999995,29.6508,71.3125,-15.384499999999999,1.3197399999999999,-11.6929
218298.0,127.327,-369.68900000000002,-263.54199999999997,-348.339,10.0238,5.6371200000000004,46.038400000000003
218299.0,103.648,-2054.2199999999998,-1963.6400000000001,-2038.46,9.1404899999999998,2.92089,33.863399999999999
218300.0,102.79300000000001,-126.432,-37.438899999999997,-110.334,7.4170100000000003,1.70475,34.863199999999999
218301.0,118.15900000000001,-1044.0799999999999,-948.43299999999999,-1019.23,-12.0078,2.2101000000000002,45.186300000000003
218302.0,123.47,-2594.4099999999999,-2507.8699999999999,-2557.9400000000001,-25.029599999999999,0.10446900000000001,50.672400000000003
218303.0,126.05200000000001,-2339.1599999999999,-2259.0,-2298.6100000000001,-32.379100000000001,-3.8584800000000001,51.252400000000002
218304.0,146.54900000000001,-2272.5300000000002,-2207.6799999999998,-2225.77,-51.351700000000001,-10.844799999999999,57.307899999999997
218305.0,154.44999999999999,-4169.0600000000004,-4112.3199999999997,-4120.04,-58.397799999999997,-15.135999999999999,58.009300000000003
218306.0,160.56999999999999,-4669.6800000000003,-4621.9499999999998,-4619.6499999999996,-63.154499999999999,-19.754200000000001,58.462400000000002
218307.0,164.232,-4535.8100000000004,-4493.7799999999997,-4485.7799999999997,-65.414900000000003,-23.058199999999999,58.801600000000001
218308.0,165.41499999999999,-5226.8699999999999,-5197.0699999999997,-5178.0299999999997,-65.904399999999995,-28.645199999999999,57.885100000000001
218309.0,172.37299999999999,-5711.1800000000003,-5684.6599999999999,-5662.1499999999996,-68.018600000000006,-31.228400000000001,60.828800000000001
218310.0,149.566,-6667.8900000000003,-6654.8199999999997,-6627.8900000000003,-57.977699999999999,-35.636499999999998,49.085299999999997
218311.0,103.01000000000001,-6759.6499999999996,-6736.9899999999998,-6732.0299999999997,-36.135599999999997,-29.171600000000002,34.109900000000003
218312.0,86.436800000000005,-6291.1800000000003,-6254.0699999999997,-6270.3100000000004,-25.352399999999999,-22.882899999999999,31.273599999999998
218313.0,85.671000000000006,-5767.3299999999999,-5724.7600000000002,-5748.6499999999996,-22.069199999999999,-20.8748,32.687199999999997
218314.0,84.376099999999994,-5305.75,-5259.5900000000001,-5287.9899999999998,-19.071899999999999,-19.617999999999999,32.899799999999999
218315.0,82.536500000000004,-4767.4700000000003,-4715.8599999999997,-4751.0200000000004,-15.5661,-17.395099999999999,32.107900000000001
218316.0,84.880600000000001,-3544.9899999999998,-3477.46,-3531.5100000000002,-8.7964000000000002,-10.5037,30.609500000000001
218317.0,90.536900000000003,-2857.3699999999999,-2780.6300000000001,-2844.6500000000001,-6.6977599999999997,-6.3396499999999998,30.9191
218318.0,97.087000000000003,-2129.6100000000001,-2044.29,-2117.4299999999998,-5.0967799999999999,-2.29718,31.322600000000001
218319.0,106.54600000000001,-1393.71,-1299.1500000000001,-1380.8099999999999,-5.4029199999999999,1.8622000000000001,33.488199999999999
218320.0,106.646,-650.73099999999999,-557.21799999999996,-637.10599999999999,-6.8100399999999999,2.23699,34.463000000000001
218321.0,128.92099999999999,1639.76,1761.71,1663.1099999999999,30.084599999999998,10.121700000000001,18.524000000000001
218322.0,146.071,1014.95,1132.25,1017.64,14.829499999999999,-3.20045,48.972799999999999
218323.0,136.845,3235.8200000000002,3291.6399999999999,3282.2199999999998,-45.140900000000002,-7.1878599999999997,57.097099999999998
218324.0,153.01900000000001,6372.7600000000002,6396.3500000000004,6421.1599999999999,-54.327500000000001,-29.7683,58.1496
218325.0,86.350200000000001,3868.3299999999999,3934.71,3886.27,-7.633,-9.4956499999999995,34.028100000000002
218326.0,97.453599999999994,2423.4000000000001,2507.8699999999999,2437.3600000000001,-3.7104499999999998,-1.86425,33.134700000000002
218327.0,105.889,6293.75,6329.8900000000003,6328.7200000000003,-30.3462,-24.722200000000001,42.232300000000002
218328.0,154.72399999999999,3094.04,3133.4499999999998,3147.0900000000001,-55.220399999999998,-14.941800000000001,62.836799999999997
218329.0,106.876,-113.101,-25.3569,-101.056,7.7408000000000001,1.3897999999999999,38.512500000000003
218330.0,128.61600000000001,-410.142,-304.78899999999999,-398.47500000000002,11.0619,5.1390000000000002,45.053400000000003
218331.0,100.432,2021.0799999999999,2101.9899999999998,2039.6099999999999,-3.9900199999999999,-0.219609,39.362299999999998
218332.0,111.78700000000001,-343.75700000000001,-264.108,-311.702,-20.178999999999998,0.11157300000000001,46.390999999999998
218333.0,121.072,1602.0799999999999,1675.21,1641.1900000000001,-31.0078,-2.1020799999999999,50.805100000000003
218334.0,129.33600000000001,1477.6400000000001,1541.6600000000001,1520.6099999999999,-39.036299999999997,-4.2315399999999999,54.492100000000001
218335.0,130.36199999999999,-2098.2399999999998,-2030.53,-2054.3000000000002,-37.976599999999998,-5.2340400000000002,54.911099999999998
218336.0,145.22499999999999,3305.5300000000002,3353.4299999999998,3355.48,-50.378999999999998,-10.8116,59.800800000000002
218337.0,159.685,4563.7399999999998,4597.8400000000001,4618.2700000000004,-57.088200000000001,-18.578099999999999,64.317999999999998
218338.0,169.35900000000001,5037.3900000000003,5063.8699999999999,5093.9399999999996,-60.380699999999997,-23.538799999999998,67.530299999999997
218339.0,164.28899999999999,5525.1899999999996,5546.8999999999996,5578.1899999999996,-58.010899999999999,-26.8001,64.834400000000002
218340.0,168.28,6059.3800000000001,6078.8400000000001,6110.3800000000001,-60.314100000000003,-29.5444,65.317599999999999
218341.0,157.44900000000001,-5948.1700000000001,-5927.0,-5896.5699999999997,-54.916800000000002,-31.610199999999999,59.795299999999997
218342.0,129.768,6433.1199999999999,6465.5200000000004,6477.0799999999999,-43.005699999999997,-27.267499999999998,50.008400000000002
218343.0,95.9923,6030.5900000000001,6069.2799999999997,6060.6199999999999,-23.5045,-22.1966,40.1768
218344.0,89.527600000000007,5584.6499999999996,5627.4799999999996,5611.25,-18.295300000000001,-19.3156,38.682600000000001
218345.0,85.483000000000004,5071.5500000000002,5120.7700000000004,5095.1099999999997,-13.954700000000001,-16.328099999999999,36.992600000000003
218346.0,84.422700000000006,4511.9499999999998,4569.6599999999999,4532.5299999999997,-10.318099999999999,-12.951599999999999,35.301900000000003
218347.0,81.804900000000004,-4186.9499999999998,-4129.3199999999997,-4167.4300000000003,-8.4919200000000004,-13.055199999999999,33.601700000000001
218348.0,90.723299999999995,3159.6300000000001,3235.3699999999999,3175.04,-5.0227700000000004,-5.6113400000000002,32.932400000000001
218349.0,105.726,1648.5699999999999,1742.1300000000001,1661.3699999999999,-2.6492300000000002,2.1767500000000002,33.780900000000003
218350.0,105.51900000000001,874.47500000000002,967.32799999999997,887.66700000000003,-3.53146,2.4985200000000001,34.192
218351.0,98.589399999999998,202.06299999999999,287.37700000000001,216.191,-4.8586200000000002,0.269289,33.546300000000002
218352.0,53.833599999999997,72.455500000000001,36.186500000000002,75.857200000000006,-18.090499999999999,-1.17337,-12.4063
218353.0,128.547,-445.22000000000003,-336.08800000000002,-423.73599999999999,8.3521599999999996,4.7752999999999997,45.532600000000002
218354.0,107.515,904.19399999999996,993.54399999999998,917.59799999999996,12.746700000000001,3.2446000000000002,36.856000000000002
218355.0,105.68600000000001,-1127.3699999999999,-1036.6199999999999,-1111.79,6.0454499999999998,1.1325000000000001,36.478099999999998
218356.0,110.711,-534.59900000000005,-441.40499999999997,-508.96300000000002,-9.9578600000000002,1.8028999999999999,40.809600000000003
218357.0,117.46899999999999,211.87899999999999,298.99000000000001,247.34800000000001,-20.862300000000001,-0.24134900000000001,47.386699999999998
218358.0,124.574,-1016.54,-938.62300000000005,-975.99599999999998,-30.462199999999999,-2.6574399999999998,52.146299999999997
218359.0,137.34899999999999,-3271.0700000000002,-3211.1700000000001,-3223.5999999999999,-43.5867,-8.4116499999999998,57.6066
218360.0,145.393,-2546.5599999999999,-2495.1999999999998,-2495.9200000000001,-48.498699999999999,-11.903700000000001,60.706899999999997
218361.0,153.358,-3236.0100000000002,-3193.3099999999999,-3182.8600000000001,-52.762799999999999,-16.455400000000001,63.182299999999998
218362.0,159.49799999999999,-4537.3199999999997,-4499.7399999999998,-4482.71,-54.895099999999999,-19.832999999999998,65.516099999999994
218363.0,161.63499999999999,-4935.0,-4908.5100000000002,-4880.1499999999996,-55.506599999999999,-25.5047,64.996600000000001
218364.0,165.107,-5473.3800000000001,-5447.7600000000002,-5418.8500000000004,-56.852899999999998,-27.6691,65.913200000000003
218365.0,138.351,-6174.3699999999999,-6150.9499999999998,-6127.6099999999997,-46.2226,-31.873000000000001,51.781999999999996
218366.0,112.393,-6171.7299999999996,-6143.5699999999997,-6134.9300000000003,-33.260599999999997,-29.127099999999999,43.4238
218367.0,99.542699999999996,-6015.6599999999999,-5982.3900000000003,-5986.5900000000001,-26.016999999999999,-25.5791,40.538800000000002
218368.0,91.531999999999996,-5694.8400000000001,-5658.2600000000002,-5668.6599999999999,-20.347999999999999,-22.581900000000001,38.904200000000003
218369.0,85.504999999999995,-5232.6700000000001,-5190.8599999999997,-5208.3500000000004,-15.4458,-19.578399999999998,37.069699999999997
218370.0,82.062100000000001,-4739.5900000000001,-4690.6000000000004,-4717.6000000000004,-11.548999999999999,-16.577300000000001,35.135100000000001
218371.0,83.623000000000005,-3542.8800000000001,-3476.7399999999998,-3525.9499999999998,-5.71387,-9.4344599999999996,32.074199999999998
218372.0,89.466399999999993,-2859.1900000000001,-2783.6999999999998,-2844.04,-4.1422999999999996,-5.4551600000000002,32.032200000000003
218373.0,96.208699999999993,-2137.23,-2053.1900000000001,-2123.5100000000002,-2.90361,-1.6166799999999999,32.272399999999998
218374.0,105.824,-1382.5799999999999,-1289.52,-1369.02,-3.38761,2.33996,34.477499999999999
218375.0,106.05500000000001,-650.87,-558.64800000000002,-636.57899999999995,-4.8686299999999996,2.6008599999999999,35.427
218376.0,127.601,-2625.5500000000002,-2512.3400000000001,-2609.3600000000001,29.921900000000001,12.1859,25.196400000000001
218377.0,148.18299999999999,-642.00800000000004,-520.72400000000005,-638.58199999999999,12.465199999999999,-4.2770000000000001,48.755800000000001
218378.0,134.04499999999999,2105.9000000000001,2156.9299999999998,2154.5599999999999,-37.650700000000001,-4.5882899999999998,61.002000000000002
218379.0,141.47499999999999,6092.8400000000001,6114.8800000000001,6144.9799999999996,-44.471200000000003,-25.975899999999999,57.744700000000002
218380.0,82.860600000000005,3908.0700000000002,3970.98,3926.5,-4.7504099999999996,-7.4882200000000001,34.118299999999998
218381.0,95.2547,2434.4200000000001,2516.23,2448.1799999999998,-0.82521199999999995,0.038793500000000002,33.235900000000001
218382.0,113.462,6161.5799999999999,6188.9099999999999,6203.6700000000001,-29.958500000000001,-23.498999999999999,48.841299999999997
218383.0,152.238,4568.46,4604.3699999999999,4623.1800000000003,-47.578600000000002,-12.9207,67.242699999999999
218384.0,112.49299999999999,1314.54,1409.49,1326.3399999999999,8.8933099999999996,-1.9022699999999999,38.173999999999999
218385.0,133.05099999999999,1289.04,1403.28,1301.3800000000001,11.328099999999999,2.7759900000000002,42.822299999999998
218386.0,104.869,-429.50099999999998,-342.66199999999998,-405.642,-3.5440700000000001,-1.76441,40.464500000000001
218387.0,110.224,2610.1300000000001,2689.1199999999999,2645.9699999999998,-16.5075,1.34504,47.024299999999997
218388.0,117.94499999999999,1571.6099999999999,1639.1900000000001,1611.78,-24.767600000000002,0.36563099999999998,53.5548
218389.0,127.61,2745.6799999999998,2805.1799999999998,2790.9299999999998,-31.607199999999999,-2.0029300000000001,58.820700000000002
218390.0,128.642,-2210.8899999999999,-2147.3400000000001,-2164.54,-30.9922,-3.05166,58.872900000000001
218391.0,141.71899999999999,3178.46,3221.7399999999998,3229.8600000000001,-42.692599999999999,-8.2781199999999995,63.561500000000002
218392.0,157.33000000000001,4291.8999999999996,4323.1499999999996,4347.7200000000003,-49.832799999999999,-16.5092,68.645799999999994
218393.0,166.03299999999999,4959.3299999999999,4984.2200000000003,5017.4200000000001,-53.419499999999999,-21.151399999999999,70.983999999999995
218394.0,157.983,5520.6700000000001,5542.9200000000001,5576.2700000000004,-50.872500000000002,-23.5533,66.283900000000003
218395.0,157.697,5836.75,5858.7700000000004,5892.8400000000001,-51.091900000000003,-24.930099999999999,65.260099999999994
218396.0,144.59899999999999,-5667.5699999999997,-5645.5100000000002,-5614.0699999999997,-44.956000000000003,-27.4544,58.923999999999999
218397.0,129.27799999999999,6224.3500000000004,6249.3000000000002,6272.4300000000003,-38.070999999999998,-25.4618,53.807000000000002
218398.0,100.32299999999999,5907.6700000000001,5938.8599999999997,5943.8699999999999,-23.0031,-20.803899999999999,44.811
218399.0,89.941000000000003,5595.0200000000004,5632.4200000000001,5625.6400000000003,-17.051200000000001,-18.051300000000001,41.024000000000001
218400.0,83.393900000000002,5144.5,5189.3100000000004,5170.1000000000004,-12.397399999999999,-14.843500000000001,37.930599999999998
218401.0,80.843299999999999,4561.54,4615.1300000000001,4582.8699999999999,-8.1168999999999993,-11.109999999999999,35.514899999999997
218402.0,77.673400000000001,-4220.2600000000002,-4166.3599999999997,-4199.6099999999997,-5.7972799999999998,-11.1874,33.355600000000003
218403.0,87.880799999999994,3200.4299999999998,3273.1500000000001,3216.1399999999999,-2.0218500000000001,-3.6233300000000002,33.059899999999999
218404.0,104.04300000000001,1660.4000000000001,1751.23,1672.24,-0.180115,3.81406,33.992899999999999
218405.0,103.813,884.17399999999998,974.39599999999996,896.46000000000004,-1.19763,3.8495400000000002,34.3795
218406.0,96.895200000000003,197.69399999999999,280.84399999999999,211.57900000000001,-2.77373,1.37341,33.703200000000002
218407.0,55.094700000000003,59.142099999999999,25.392900000000001,64.3874,-20.084900000000001,-3.2402500000000001,-12.249700000000001
218408.0,129.04900000000001,-472.16399999999999,-357.64800000000002,-449.13799999999998,5.3507800000000003,3.4368799999999999,42.914299999999997
218409.0,115.645,-2004.98,-1905.27,-1993.45,14.996600000000001,-0.44409500000000002,35.465400000000002
218410.0,112.276,-84.573599999999999,16.1374,-67.561700000000002,5.4930300000000001,-1.9009100000000001,35.523600000000002
218411.0,113.063,-1071.1199999999999,-975.04300000000001,-1041.8199999999999,-9.4016500000000001,0.56484599999999996,41.802700000000002
218412.0,114.339,-2547.46,-2465.48,-2511.3699999999999,-17.004100000000001,1.64838,48.762900000000002
218413.0,121.95,-2238.4000000000001,-2165.1599999999999,-2197.0999999999999,-24.370999999999999,-0.44332500000000002,54.907299999999999
218414.0,134.04599999999999,-2127.7199999999998,-2073.5900000000001,-2078.6999999999998,-36.340800000000002,-5.7446000000000002,61.177199999999999
218415.0,142.37299999999999,-3960.0700000000002,-3912.8499999999999,-3908.2399999999998,-41.021500000000003,-9.49953,64.504499999999993
218416.0,151.25800000000001,-4426.1099999999997,-4387.3699999999999,-4371.0600000000004,-45.535299999999999,-14.1174,67.483199999999997
218417.0,157.233,-4279.8100000000004,-4245.1700000000001,-4223.3100000000004,-48.134300000000003,-17.5672,69.308999999999997
218418.0,157.583,-4962.9200000000001,-4937.7299999999996,-4905.7799999999997,-49.251600000000003,-23.143899999999999,67.051400000000001
218419.0,157.15899999999999,-5397.2399999999998,-5371.4399999999996,-5340.5699999999997,-49.629800000000003,-24.641200000000001,66.011700000000005
218420.0,133.90899999999999,-5906.1400000000003,-5882.8100000000004,-5856.2399999999998,-39.582599999999999,-27.915199999999999,54.844000000000001
218421.0,119.44,-5985.3299999999999,-5961.1400000000003,-5940.8900000000003,-32.151600000000002,-27.058399999999999,49.944299999999998
218422.0,105.35899999999999,-5842.8100000000004,-5816.7600000000002,-5803.9399999999996,-24.9664,-24.4343,45.688299999999998
218423.0,92.956299999999999,-5600.1199999999999,-5569.6499999999996,-5566.6899999999996,-18.6294,-21.564399999999999,41.542700000000004
218424.0,84.087199999999996,-5280.8800000000001,-5243.9899999999998,-5252.4399999999996,-13.7921,-18.5076,38.087699999999998
218425.0,78.245500000000007,-4804.3299999999999,-4759.9700000000003,-4780.3500000000004,-9.4508600000000005,-15.006600000000001,35.1173
218426.0,80.472399999999993,-3583.9899999999998,-3520.5300000000002,-3566.02,-2.8198099999999999,-7.50793,32.007300000000001
218427.0,86.969499999999996,-2881.6199999999999,-2808.4299999999998,-2865.73,-1.22916,-3.5573000000000001,32.012300000000003
218428.0,94.499499999999998,-2141.77,-2059.75,-2127.8400000000001,-0.33321000000000001,0.172073,32.405500000000004
218429.0,104.363,-1397.1199999999999,-1306.3699999999999,-1384.22,-0.95194400000000001,3.9306999999999999,34.693600000000004
218430.0,104.661,-650.12599999999998,-560.13099999999997,-636.35299999999995,-2.6188799999999999,3.9002500000000002,35.769500000000001
218431.0,132.24199999999999,1653.75,1755.5699999999999,1661.3699999999999,36.621699999999997,13.0717,33.1815
218432.0,144.43899999999999,1073.8699999999999,1190.4000000000001,1072.02,10.694000000000001,-5.4418300000000004,47.020000000000003
218433.0,133.01400000000001,3227.8000000000002,3275.4400000000001,3277.7399999999998,-31.392399999999999,-2.3582999999999998,64.121200000000002
218434.0,143.559,6042.3100000000004,6059.7200000000003,6101.5299999999997,-38.521299999999997,-23.446000000000002,62.527200000000001
218435.0,80.628500000000003,3980.0799999999999,4041.7199999999998,3997.79,-1.51115,-5.08629,33.640700000000002
218436.0,92.005099999999999,2466.8499999999999,2545.0,2476.8200000000002,0.71068699999999996,2.0600900000000002,31.747
218437.0,120.44199999999999,6174.0299999999997,6195.3400000000001,6225.9700000000003,-26.552099999999999,-20.733499999999999,54.945399999999999
218438.0,150.93000000000001,3042.3000000000002,3074.6799999999998,3098.25,-39.9084,-10.130100000000001,71.475499999999997
218439.0,111.97499999999999,-168.04300000000001,-63.32,-150.60900000000001,-0.47518300000000002,-2.5319099999999999,32.007100000000001
218440.0,131.06700000000001,-391.70299999999997,-266.37400000000002,-369.98500000000001,1.80063,1.5292699999999999,35.141399999999997
218441.0,100.872,1989.0,2076.0300000000002,2010.5599999999999,-7.8669799999999999,-2.8216800000000002,35.607300000000002
218442.0,108.221,-353.48000000000002,-274.536,-315.51600000000002,-17.1204,0.15271899999999999,45.299199999999999
218443.0,124.746,1599.9000000000001,1671.0799999999999,1645.9100000000001,-26.365200000000002,0.93707700000000005,56.464399999999998
218444.0,130.24299999999999,1477.96,1537.71,1525.9100000000001,-29.976099999999999,-0.19606199999999999,61.2712
218445.0,127.83199999999999,-2107.5500000000002,-2047.8,-2060.52,-27.2987,-1.4879,60.9009
218446.0,142.53,3279.3899999999999,3318.3299999999999,3331.9000000000001,-35.713299999999997,-5.9272900000000002,68.688500000000005
218447.0,152.999,4478.25,4507.1599999999999,4534.4899999999998,-41.971899999999998,-13.6043,71.171599999999998
218448.0,159.86500000000001,4892.6800000000003,4916.0799999999999,4951.8999999999996,-45.769500000000001,-17.9192,72.202699999999993
218449.0,152.10400000000001,5302.5900000000001,5323.4200000000001,5360.7799999999997,-43.575200000000002,-20.556000000000001,67.240300000000005
218450.0,155.36699999999999,5760.21,5779.79,5821.2299999999996,-44.036799999999999,-22.442399999999999,68.063000000000002
218451.0,144.42099999999999,-5639.6300000000001,-5620.8000000000002,-5580.9200000000001,-39.276800000000001,-24.3047,62.612699999999997
218452.0,134.33600000000001,6168.1800000000003,6186.5100000000002,6224.9300000000003,-33.594999999999999,-22.291899999999998,59.590600000000002
218453.0,106.57899999999999,6057.9200000000001,6084.5,6103.2600000000002,-19.545500000000001,-18.252400000000002,50.520200000000003
218454.0,92.332400000000007,5701.6499999999996,5735.0100000000002,5738.6199999999999,-12.520300000000001,-14.891999999999999,45.251300000000001
218455.0,83.047899999999998,5220.1199999999999,5262.3100000000004,5250.0600000000004,-6.7923099999999996,-11.661799999999999,40.569000000000003
218456.0,79.540000000000006,4653.4799999999996,4705.6999999999998,4677.0799999999999,-3.2738200000000002,-8.4571000000000005,36.646799999999999
218457.0,75.790000000000006,-4303.1400000000003,-4249.5100000000002,-4280.0,-1.85764,-8.7512100000000004,33.335700000000003
218458.0,85.131399999999999,3235.3099999999999,3305.77,3248.1700000000001,-0.046310999999999998,-1.4777899999999999,31.7121
218459.0,100.36499999999999,1667.8499999999999,1753.4300000000001,1675.97,1.37618,5.6580399999999997,33.042299999999997
218460.0,99.661100000000005,881.05100000000004,965.404,890.42899999999997,0.88665300000000002,5.6452499999999999,33.7742
218461.0,93.264899999999997,207.38399999999999,285.26100000000002,219.67500000000001,-0.179424,3.1052499999999998,33.717500000000001
218462.0,56.668999999999997,71.666600000000003,40.063499999999998,79.110600000000005,-21.904800000000002,-4.80145,-11.7377
218463.0,127.075,-503.33499999999998,-386.06799999999998,-482.57100000000003,0.21973300000000001,2.1536900000000001,38.237099999999998
218464.0,116.459,981.327,1092.52,998.31799999999998,5.5258700000000003,-1.82196,29.9846
218465.0,108.83799999999999,-1034.75,-931.26099999999997,-1017.12,-1.3379300000000001,-3.4344700000000001,29.4861
218466.0,107.934,-534.553,-439.923,-506.26499999999999,-10.5267,-0.061782299999999998,37.591099999999997
218467.0,118.73699999999999,202.999,287.0,242.68899999999999,-18.133800000000001,2.7587700000000002,50.963099999999997
218468.0,125.837,-1036.8,-964.971,-992.77099999999996,-26.086200000000002,0.207789,57.322600000000001
218469.0,134.89099999999999,-3256.0900000000001,-3205.1300000000001,-3205.6700000000001,-28.971299999999999,-3.12425,66.027600000000007
218470.0,142.92599999999999,-2510.23,-2466.6799999999998,-2456.9000000000001,-34.054299999999998,-7.3570000000000002,69.205100000000002
218471.0,149.18799999999999,-3172.8000000000002,-3136.7600000000002,-3116.3200000000002,-37.826000000000001,-11.7621,70.937100000000001
218472.0,152.56700000000001,-4432.6099999999997,-4399.2799999999997,-4375.1400000000003,-40.764400000000002,-14.9069,71.008399999999995
218473.0,151.20699999999999,-4764.6199999999999,-4739.8699999999999,-4705.8900000000003,-42.1325,-20.1279,67.612099999999998
218474.0,152.42699999999999,-5226.6499999999996,-5202.0500000000002,-5167.2799999999997,-42.798900000000003,-21.4678,67.543800000000005
218475.0,137.69800000000001,-5848.3699999999999,-5831.5600000000004,-5791.1199999999999,-35.539400000000001,-24.4861,59.932400000000001
218476.0,124.79900000000001,-5933.8500000000004,-5916.7299999999996,-5880.6199999999999,-29.096900000000002,-23.7315,55.166600000000003
218477.0,111.833,-5932.8400000000001,-5911.9899999999998,-5884.4099999999999,-22.110900000000001,-22.1493,50.982999999999997
218478.0,97.031700000000001,-5740.3800000000001,-5714.2399999999998,-5698.4799999999996,-14.7423,-19.406500000000001,45.788600000000002
218479.0,84.613799999999998,-5346.7799999999997,-5312.3299999999999,-5311.75,-8.25915,-15.788600000000001,40.825000000000003
218480.0,77.934399999999997,-4868.21,-4823.96,-4839.0200000000004,-3.9904199999999999,-12.333399999999999,36.747599999999998
218481.0,77.524100000000004,-3631.98,-3569.73,-3614.6599999999999,-0.42390800000000001,-5.0279600000000002,30.75
218482.0,83.676000000000002,-2913.77,-2843.1599999999999,-2900.5,0.35519899999999999,-1.1695199999999999,30.398499999999999
218483.0,91.242199999999997,-2160.9299999999998,-2082.9299999999998,-2150.3000000000002,1.0462100000000001,2.4490799999999999,31.2834
218484.0,100.842,-1383.48,-1298.04,-1373.8800000000001,0.98149799999999998,5.9643699999999997,34.095300000000002
218485.0,101.102,-642.91600000000005,-558.47900000000004,-631.47400000000005,-0.0918239,5.7685199999999996,35.7181
218486.0,137.554,-2545.77,-2445.7199999999998,-2540.9699999999998,41.374099999999999,11.316599999999999,35.815800000000003
218487.0,133.66800000000001,-723.42999999999995,-616.05499999999995,-729.04899999999998,9.4714299999999998,-5.5267400000000002,42.197800000000001
218488.0,140.227,2243.4499999999998,2287.3499999999999,2297.79,-25.3187,0.756351,71.284800000000004
218489.0,143.87799999999999,5895.4499999999998,5912.4899999999998,5957.0,-37.286299999999997,-23.0688,62.990000000000002
218490.0,76.851500000000001,3978.9499999999998,4041.3400000000001,3986.23,-0.28811599999999998,-1.84276,28.310600000000001
218491.0,85.807599999999994,2352.8699999999999,2423.6399999999999,2356.8200000000002,1.1342399999999999,4.2609000000000004,29.210100000000001
218492.0,133.49199999999999,6229.75,6247.5600000000004,6289.29,-30.5442,-21.3964,60.130099999999999
218493.0,153.23099999999999,4721.46,4750.9200000000001,4780.04,-29.500599999999999,-6.4521800000000002,77.823700000000002
218494.0,106.214,1396.9000000000001,1492.47,1414.5799999999999,-4.9814600000000002,3.6104400000000001,33.726100000000002
218495.0,122.94499999999999,1226.03,1342.47,1248.8499999999999,-4.1950900000000004,2.9647800000000002,34.706899999999997
218496.0,88.865799999999993,-398.47500000000002,-322.63099999999997,-380.48599999999999,-5.1328300000000002,1.4185000000000001,32.148000000000003
218497.0,100.946,2486.2800000000002,2557.3899999999999,2522.3499999999999,-13.2864,-0.70532300000000003,44.216999999999999
218498.0,132.965,1542.9100000000001,1611.26,1593.6500000000001,-25.7135,2.3009900000000001,62.988399999999999
218499.0,138.92099999999999,2878.4099999999999,2934.5999999999999,2931.48,-27.416699999999999,3.6762000000000001,68.341099999999997
218500.0,133.31100000000001,-2405.3600000000001,-2352.71,-2356.6399999999999,-23.610099999999999,1.1799599999999999,67.118099999999998
218501.0,151.41200000000001,3326.4299999999998,3361.7600000000002,3383.8699999999999,-27.396799999999999,-2.6904300000000001,77.747600000000006
218502.0,148.261,4370.9200000000001,4397.9799999999996,4428.1400000000003,-30.872599999999998,-9.4615399999999994,73.928200000000004
218503.0,151.708,4920.9700000000003,4943.4399999999996,4979.8599999999997,-35.563400000000001,-13.860900000000001,73.019099999999995
218504.0,144.87100000000001,5367.5,5388.1000000000004,5424.6700000000001,-35.857999999999997,-17.684000000000001,67.519800000000004
218505.0,150.339,5621.6700000000001,5640.8599999999997,5682.29,-38.993499999999997,-20.7042,68.006100000000004
218506.0,141.62,-5469.5699999999997,-5449.1999999999998,-5409.3400000000001,-36.453299999999999,-22.210999999999999,62.647500000000001
218507.0,141.78800000000001,6126.6400000000003,6142.8299999999999,6190.71,-35.0899,-22.941500000000001,61.918399999999998
218508.0,115.187,6133.5799999999999,6157.79,6184.29,-22.910399999999999,-18.647200000000002,53.915500000000002
218509.0,96.629900000000006,5905.5500000000002,5938.3299999999999,5946.3999999999996,-15.245200000000001,-14.8805,46.804200000000002
218510.0,84.180899999999994,5445.5299999999997,5488.4200000000001,5471.8400000000001,-9.5487800000000007,-10.7163,41.089300000000001
218511.0,76.332800000000006,4764.0600000000004,4818.6800000000003,4777.1400000000003,-3.3590900000000001,-5.93276,32.901800000000001
218512.0,69.992400000000004,-4391.3100000000004,-4335.5,-4377.2200000000003,-0.88797899999999996,-5.11205,27.6389
218513.0,80.517399999999995,3166.3299999999999,3233.04,3171.4699999999998,0.47251700000000002,1.34487,27.9481
218514.0,92.961299999999994,1583.47,1659.2,1586.1700000000001,1.78084,7.2738899999999997,31.276499999999999
218515.0,91.744699999999995,843.46000000000004,917.19899999999996,847.41499999999996,1.5389699999999999,7.24777,32.098100000000002
218516.0,86.128299999999996,199.27000000000001,267.154,205.45599999999999,0.76442399999999999,5.2017899999999999,32.190199999999997
218517.0,57.839500000000001,56.690100000000001,27.110600000000002,66.293599999999998,-23.372699999999998,-5.5313699999999999,-11.007899999999999
218518.0,121.334,-366.92000000000002,-253.56899999999999,-349.73200000000003,-1.5792999999999999,2.9392299999999998,34.121400000000001
218519.0,112.268,-2091.7399999999998,-1987.6600000000001,-2074.1900000000001,-2.7011099999999999,2.0872600000000001,32.935000000000002
218520.0,93.314099999999996,-289.28300000000002,-202.52099999999999,-273.892,-3.9992000000000001,0.33966099999999999,27.2638
218521.0,93.930800000000005,-1081.0899999999999,-997.16899999999998,-1057.1500000000001,-5.2532500000000004,1.9766999999999999,32.259300000000003
218522.0,122.848,-2454.7600000000002,-2370.5999999999999,-2413.9699999999998,-17.438600000000001,4.2928300000000004,54.193100000000001
218523.0,134.46100000000001,-2366.6999999999998,-2301.4699999999998,-2318.3099999999999,-26.1631,3.1880700000000002,64.693100000000001
218524.0,143.45500000000001,-2249.25,-2201.46,-2196.8800000000001,-22.7729,-1.0936999999999999,74.155000000000001
218525.0,149.535,-4108.0100000000002,-4067.71,-4050.6500000000001,-25.154299999999999,-5.3121099999999997,76.976100000000002
218526.0,148.864,-4551.2600000000002,-4516.6199999999999,-4491.3800000000001,-27.549099999999999,-8.9133899999999997,75.132000000000005
218527.0,146.86500000000001,-4316.3999999999996,-4284.1000000000004,-4257.0900000000001,-30.095500000000001,-10.8393,72.696600000000004
218528.0,143.36099999999999,-4887.4899999999998,-4862.3599999999997,-4828.0100000000002,-33.030700000000003,-15.981,67.918499999999995
218529.0,145.715,-5229.8699999999999,-5204.6499999999996,-5170.3800000000001,-36.157200000000003,-18.310199999999998,67.404499999999999
218530.0,141.31299999999999,-5754.9099999999999,-5736.8800000000001,-5693.75,-36.230699999999999,-23.811900000000001,61.554900000000004
218531.0,137.477,-5955.0,-5940.3500000000004,-5894.2399999999998,-32.843899999999998,-24.0456,60.312100000000001
218532.0,121.566,-5991.0,-5975.3299999999999,-5937.3599999999997,-26.4193,-23.402899999999999,54.0334
218533.0,101.886,-5883.29,-5860.5100000000002,-5837.8900000000003,-18.488,-20.283999999999999,46.813800000000001
218534.0,85.363399999999999,-5607.8199999999997,-5576.8199999999997,-5571.8299999999999,-11.5229,-15.9137,40.776400000000002
218535.0,70.050399999999996,-5096.8299999999999,-5054.1499999999996,-5074.5299999999997,-5.1054300000000001,-11.3444,32.019500000000001
218536.0,75.426299999999998,-3612.6399999999999,-3549.5100000000002,-3602.3699999999999,0.32516099999999998,-0.63054299999999996,27.3552
218537.0,80.409599999999998,-2811.2800000000002,-2744.4000000000001,-2804.0900000000001,0.74904899999999996,2.1130399999999998,28.3276
218538.0,86.200699999999998,-2033.3299999999999,-1962.5899999999999,-2028.0799999999999,1.3571599999999999,4.6836799999999998,29.9924
218539.0,93.858099999999993,-1299.98,-1224.4100000000001,-1295.9100000000001,1.5775300000000001,7.5447699999999998,32.720100000000002
218540.0,93.247699999999995,-592.70000000000005,-519.09500000000003,-586.84699999999998,1.1087899999999999,7.49064,34.1663
218541.0,137.66,1852.25,1956.53,1857.05,40.742100000000001,8.1551899999999993,33.5334
218542.0,124.376,955.55999999999995,1054.8499999999999,951.52700000000004,13.259499999999999,-3.9016099999999998,39.244300000000003
218543.0,166.47,3468.1399999999999,3515.4699999999998,3535.1900000000001,-24.7867,1.7318199999999999,86.212199999999996
218544.0,134.803,5727.6899999999996,5746.8100000000004,5788.5200000000004,-29.4542,-20.145800000000001,61.776699999999998
218545.0,73.730099999999993,3878.9699999999998,3940.1300000000001,3879.46,2.3530500000000001,2.16689,23.763400000000001
218546.0,79.450599999999994,2234.71,2295.98,2237.9099999999999,2.2055799999999999,5.8124700000000002,29.600300000000001
218547.0,143.35499999999999,6066.9099999999999,6082.6899999999996,6135.1400000000003,-34.268000000000001,-21.265599999999999,62.829000000000001
218548.0,159.93100000000001,3514.3499999999999,3547.5999999999999,3576.71,-20.7258,-3.7817099999999999,84.312600000000003
218549.0,106.611,-97.232900000000001,-11.4001,-80.851799999999997,0.61002100000000004,7.3240400000000001,40.7194
218550.0,116.93300000000001,-497.12900000000002,-395.77499999999998,-481.09899999999999,0.74877800000000005,4.0407999999999999,39.656500000000001
218551.0,90.065200000000004,2043.48,2117.1300000000001,2064.02,-0.19375899999999999,4.3424399999999999,35.223700000000001
218552.0,96.588099999999997,-442.98099999999999,-373.76799999999997,-410.31,-9.6693899999999999,-0.52256400000000003,42.627499999999998
218553.0,129.75999999999999,1500.49,1566.52,1550.52,-21.293500000000002,1.9227799999999999,62.9983
218554.0,152.94,1520.45,1578.0899999999999,1581.3499999999999,-25.0822,3.2564600000000001,77.353300000000004
218555.0,155.977,-2245.0500000000002,-2187.29,-2188.6799999999998,-22.882200000000001,1.40205,80.610399999999998
218556.0,172.727,3699.4499999999998,3738.4400000000001,3766.5700000000002,-23.639299999999999,-0.379274,90.829599999999999
218557.0,146.39699999999999,4842.8400000000001,4873.8599999999997,4902.1800000000003,-19.1755,-6.3557300000000003,76.517399999999995
218558.0,145.38499999999999,5074.46,5101.1999999999998,5134.6499999999996,-23.057200000000002,-9.4051399999999994,74.268299999999996
218559.0,136.82499999999999,5287.3100000000004,5310.5299999999997,5343.9899999999998,-23.908899999999999,-12.5787,68.547499999999999
218560.0,138.352,5565.1499999999996,5586.3199999999997,5623.7600000000002,-27.1816,-16.175999999999998,67.075599999999994
218561.0,131.755,-5401.1899999999996,-5374.4399999999996,-5340.46,-26.382999999999999,-17.8551,62.011699999999998
218562.0,140.73500000000001,5860.9799999999996,5876.8000000000002,5927.3500000000004,-33.307299999999998,-22.8278,61.399999999999999
218563.0,124.678,6175.6800000000003,6195.3900000000003,6232.0900000000001,-27.711300000000001,-17.560500000000001,57.318800000000003
218564.0,98.811300000000003,5935.46,5964.0200000000004,5975.3999999999996,-18.261399999999998,-13.406700000000001,48.144500000000001
218565.0,81.959599999999995,5511.4899999999998,5554.75,5535.5699999999997,-9.9926100000000009,-6.5221099999999996,40.334600000000002
218566.0,73.581299999999999,4811.29,4867.8199999999997,4818.0200000000004,-1.32944,-0.53521099999999999,29.141300000000001
218567.0,66.110900000000001,-4437.5900000000001,-4382.5,-4433.8500000000004,1.218,-0.232182,22.530000000000001
218568.0,74.796599999999998,2993.46,3053.79,2995.96,1.84605,3.6240000000000001,26.1372
218569.0,87.621200000000002,1515.6099999999999,1581.3900000000001,1517.3199999999999,3.7390699999999999,8.8025199999999995,32.587299999999999
218570.0,87.9709,821.40700000000004,886.63800000000003,824.21400000000006,4.5638899999999998,9.0111899999999991,33.4313
218571.0,83.646199999999993,220.078,281.89299999999997,224.90799999999999,4.2211400000000001,7.9163399999999999,32.707999999999998
218572.0,58.415300000000002,66.873900000000006,38.699599999999997,77.726600000000005,-24.485800000000001,-5.3130600000000001,-10.192299999999999
218573.0,117.717,-331.68000000000001,-223.12299999999999,-315.88499999999999,3.1617600000000001,5.20526,33.796100000000003
218574.0,112.11799999999999,935.43399999999997,1030.97,949.03700000000003,0.11026900000000001,4.0081899999999999,38.771500000000003
218575.0,89.333100000000002,-1254.5,-1178.23,-1238.8800000000001,0.44479400000000002,3.7570399999999999,31.982600000000001
218576.0,89.984099999999998,-598.85900000000004,-520.13199999999995,-575.61000000000001,-2.24735,2.82152,32.403799999999997
218577.0,117.09,295.512,378.22399999999999,332.97300000000001,-14.962300000000001,4.0298699999999998,51.1327
218578.0,140.84,-1008.08,-938.74900000000002,-957.84900000000005,-20.823699999999999,4.4007300000000003,69.832800000000006
218579.0,167.62299999999999,-3581.9299999999998,-3534.1700000000001,-3520.6700000000001,-23.385400000000001,-1.54382,88.208100000000002
218580.0,161.71700000000001,-2990.1700000000001,-2951.6100000000001,-2926.1700000000001,-20.571999999999999,-4.8098599999999996,85.047200000000004
218581.0,149.39400000000001,-3636.0900000000001,-3600.1900000000001,-3572.8400000000001,-18.3248,-6.7161600000000004,77.796800000000005
218582.0,144.33199999999999,-4732.5299999999997,-4696.1899999999996,-4670.0900000000001,-18.7898,-7.2468199999999996,74.531099999999995
218583.0,138.13300000000001,-4876.5900000000001,-4846.7399999999998,-4815.2600000000002,-21.049199999999999,-11.172499999999999,69.654499999999999
218584.0,135.80000000000001,-5145.5200000000004,-5116.3199999999997,-5086.0799999999999,-23.544699999999999,-13.666700000000001,67.251099999999994
218585.0,135.673,-5536.5600000000004,-5513.3100000000004,-5473.3000000000002,-30.9575,-20.450399999999998,61.117800000000003
218586.0,144.405,-5705.5299999999997,-5688.8599999999997,-5638.0500000000002,-35.450899999999997,-22.491800000000001,62.870100000000001
218587.0,132.59399999999999,-5982.2700000000004,-5971.8500000000004,-5919.6599999999999,-31.425899999999999,-22.0777,57.094099999999997
218588.0,105.09099999999999,-5998.0200000000004,-5983.9200000000001,-5949.75,-22.4634,-18.998000000000001,46.901000000000003
218589.0,81.105199999999996,-5698.9399999999996,-5673.9300000000003,-5664.29,-14.1516,-13.7188,38.528199999999998
218590.0,59.331899999999997,-5247.6599999999999,-5207.9799999999996,-5230.3400000000001,-3.96434,-6.5144599999999997,26.822299999999998
218591.0,74.652799999999999,-3465.9499999999998,-3405.5599999999999,-3463.5999999999999,1.1878299999999999,2.8658299999999999,26.034500000000001
218592.0,77.0595,-2638.0900000000001,-2578.3099999999999,-2633.9400000000001,1.1928300000000001,3.9287999999999998,29.1266
218593.0,81.265199999999993,-1913.46,-1851.9300000000001,-1909.55,2.5934699999999999,5.7122099999999998,31.228000000000002
218594.0,89.662800000000004,-1214.3,-1147.3399999999999,-1211.47,4.15524,8.5914300000000008,33.981099999999998
218595.0,89.975899999999996,-556.476,-489.63299999999998,-551.92200000000003,4.2450999999999999,8.8145799999999994,34.756900000000002
218596.0,137.56899999999999,-2439.1999999999998,-2330.8099999999999,-2430.6999999999998,40.928199999999997,7.5038799999999997,30.7271
218597.0,120.161,-806.61199999999997,-707.154,-806.42100000000005,14.1754,-3.9024999999999999,36.135199999999998
218598.0,193.761,2458.75,2505.8000000000002,2534.1999999999998,-31.240600000000001,1.41825,100.42
218599.0,116.69499999999999,5611.1999999999998,5639.1099999999997,5661.9899999999998,-19.9299,-15.986000000000001,56.9178
218600.0,74.451499999999996,3601.3000000000002,3660.6599999999999,3600.6199999999999,3.8416700000000001,2.14032,25.3047
218601.0,75.740399999999994,2098.96,2156.02,2103.4899999999998,-0.0122422,2.9715199999999999,29.9589
218602.0,131.19,5650.1300000000001,5672.0299999999997,5713.5,-32.3508,-20.899799999999999,56.726900000000001
218603.0,166.233,5437.5600000000004,5475.8100000000004,5503.3299999999999,-20.824000000000002,-2.1356999999999999,87.646600000000007
218604.0,109.791,1327.2,1413.47,1346.5999999999999,3.2619899999999999,7.2208500000000004,43.6691
218605.0,115.477,1144.6199999999999,1243.24,1159.3900000000001,2.6359400000000002,4.80389,39.822699999999998
218606.0,93.528899999999993,-373.16000000000003,-302.05900000000003,-353.334,0.148121,5.23874,39.270299999999999
218607.0,86.998400000000004,2542.79,2602.5799999999999,2568.3600000000001,-7.9649900000000002,2.9445899999999998,39.379600000000003
218608.0,116.563,1412.73,1470.4000000000001,1458.51,-18.4557,2.9237600000000001,57.031100000000002
218609.0,163.83699999999999,2731.3499999999999,2785.73,2797.5500000000002,-27.8916,2.45642,83.168800000000005
218610.0,179.036,-2356.7600000000002,-2296.54,-2294.1599999999999,-27.447099999999999,2.0025499999999998,93.108500000000006
218611.0,192.33600000000001,3928.48,3970.5300000000002,4002.5900000000001,-27.799800000000001,0.45222499999999999,100.88
218612.0,145.892,4947.2399999999998,4983.46,5007.4099999999999,-16.9969,-5.1862300000000001,76.559200000000004
218613.0,142.65100000000001,5307.6700000000001,5341.5100000000002,5369.8000000000002,-18.581399999999999,-7.3839499999999996,73.591399999999993
218614.0,137.5,5564.3500000000004,5594.6999999999998,5624.2799999999997,-18.790700000000001,-9.4332799999999999,70.441699999999997
218615.0,130.66399999999999,5600.4200000000001,5628.9899999999998,5655.4799999999996,-19.396599999999999,-12.0825,66.411100000000005
218616.0,117.65600000000001,-5402.8999999999996,-5370.6199999999999,-5346.6199999999999,-17.705400000000001,-13.766999999999999,57.566200000000002
218617.0,118.5,5614.25,5638.9899999999998,5668.4499999999998,-25.479800000000001,-19.7361,53.904200000000003
218618.0,130.58099999999999,5716.29,5739.8999999999996,5779.21,-32.236800000000002,-17.433900000000001,57.710299999999997
218619.0,106.374,5675.5600000000004,5706.1899999999996,5720.7600000000002,-23.680399999999999,-11.7172,50.412300000000002
218620.0,81.645399999999995,5216.54,5261.21,5239.96,-11.287599999999999,-4.7854400000000004,39.655999999999999
218621.0,73.980400000000003,4453.1300000000001,4509.7399999999998,4459.4799999999996,-0.232734,0.6361,29.358899999999998
218622.0,69.600399999999993,-4086.7199999999998,-4031.1399999999999,-4084.73,2.7019299999999999,-0.37959999999999999,24.763200000000001
218623.0,75.042599999999993,2803.0300000000002,2861.8099999999999,2803.5700000000002,2.1261700000000001,2.0407700000000002,26.963999999999999
218624.0,85.635499999999993,1483.21,1542.3900000000001,1486.3900000000001,-0.50390599999999997,5.2414100000000001,36.177999999999997
218625.0,91.189899999999994,847.50199999999995,909.08100000000002,845.88599999999997,1.0391600000000001,5.5875399999999997,37.967500000000001
218626.0,89.371099999999998,211.64599999999999,275.34500000000003,207.83099999999999,2.9555099999999999,5.7915900000000002,34.3765
218627.0,57.826999999999998,55.246000000000002,27.0852,65.253699999999995,-24.923999999999999,-4.0560700000000001,-9.2372300000000003
218628.0,119.54600000000001,-241.21199999999999,-131.422,-226.005,5.7859499999999997,5.4813299999999998,34.084400000000002
218629.0,112.65900000000001,-1991.46,-1895.4000000000001,-1977.28,3.14005,4.3663100000000004,38.896599999999999
218630.0,95.545400000000001,-284.88600000000002,-208.33600000000001,-266.798,3.3277299999999999,5.1323600000000003,37.479599999999998
218631.0,85.5244,-1231.9400000000001,-1163.3299999999999,-1211.29,-2.7461700000000002,4.0441700000000003,34.283799999999999
218632.0,101.17100000000001,-2507.6799999999998,-2437.0100000000002,-2478.4899999999998,-10.8491,5.2946,44.777700000000003
218633.0,141.59200000000001,-2142.23,-2070.2199999999998,-2095.3200000000002,-18.604700000000001,5.3150500000000003,70.515900000000002
218634.0,191.36799999999999,-2711.5999999999999,-2665.6999999999998,-2640.4299999999998,-29.8309,-1.77851,100.063
218635.0,172.32499999999999,-4901.0900000000001,-4865.4799999999996,-4831.1000000000004,-24.093900000000001,-4.46333,89.852199999999996
218636.0,149.20400000000001,-5320.4200000000001,-5284.9099999999999,-5256.75,-18.1145,-5.9323699999999997,77.712800000000001
218637.0,141.40899999999999,-4868.8800000000001,-4829.1599999999999,-4807.3699999999999,-17.071300000000001,-6.6770899999999997,73.189499999999995
218638.0,138.55199999999999,-5242.6400000000003,-5206.7299999999996,-5180.0699999999997,-17.296199999999999,-8.6458499999999994,70.986800000000002
218639.0,132.96700000000001,-5384.7700000000004,-5351.6599999999999,-5324.3400000000001,-17.650300000000001,-10.8416,67.442899999999995
218640.0,114.46599999999999,-5424.6999999999998,-5391.25,-5368.6199999999999,-21.130500000000001,-14.92,53.872100000000003
218641.0,125.56999999999999,-5440.2799999999997,-5411.0,-5378.7600000000002,-29.494399999999999,-16.817399999999999,56.1785
218642.0,133.10599999999999,-5499.6400000000003,-5479.0699999999997,-5433.6400000000003,-33.766500000000001,-18.592199999999998,57.265500000000003
218643.0,114.539,-5623.1300000000001,-5606.9300000000003,-5567.1400000000003,-28.158100000000001,-17.713699999999999,49.358600000000003
218644.0,81.124300000000005,-5482.6400000000003,-5457.8699999999999,-5447.7399999999998,-17.115400000000001,-13.5945,37.329900000000002
218645.0,61.765900000000002,-4896.6899999999996,-4854.3299999999999,-4881.9099999999999,-4.1767099999999999,-6.5231300000000001,27.375699999999998
218646.0,76.462900000000005,-3231.5999999999999,-3172.0900000000001,-3232.0100000000002,1.9819,1.47275,27.465800000000002
218647.0,78.186400000000006,-2465.8200000000002,-2407.6300000000001,-2463.9000000000001,-0.826372,1.6727300000000001,30.681799999999999
218648.0,79.939599999999999,-1810.8499999999999,-1756.1600000000001,-1806.3499999999999,-1.9132800000000001,2.1579899999999999,34.646099999999997
218649.0,86.631799999999998,-1229.22,-1170.6800000000001,-1229.6099999999999,-0.033298599999999998,3.2825099999999998,36.617800000000003
218650.0,90.186300000000003,-606.46199999999999,-542.27200000000005,-611.36400000000003,1.8594299999999999,3.9433400000000001,34.7254
218651.0,137.58600000000001,2086.1100000000001,2201.1900000000001,2101.6100000000001,39.412700000000001,9.1706699999999994,27.796199999999999
218652.0,113.874,872.08900000000006,969.32100000000003,872.85199999999998,11.3019,-4.3122400000000001,32.393300000000004
218653.0,206.84,3712.23,3745.6599999999999,3786.52,-25.6752,5.9561000000000002,110.373
218654.0,95.490700000000004,5700.0600000000004,5734.7799999999997,5735.5,-12.5481,-8.3648500000000006,49.007100000000001
218655.0,78.456999999999994,3450.8400000000001,3507.4499999999998,3451.1700000000001,4.7325799999999996,2.9059200000000001,30.967099999999999
218656.0,74.973399999999998,1825.79,1882.3,1828.3800000000001,3.8008600000000001,2.22566,28.922899999999998
218657.0,95.003200000000007,4987.54,5015.3699999999999,5029.25,-23.284800000000001,-14.789,42.387500000000003
218658.0,173.90000000000001,4105.4799999999996,4137.8100000000004,4175.1099999999997,-18.9114,1.75576,92.225099999999998
218659.0,112.527,-143.67599999999999,-58.390700000000002,-123.98699999999999,5.3551399999999996,7.85785,46.220300000000002
218660.0,113.11799999999999,-539.00800000000004,-443.60599999999999,-522.779,2.6805099999999999,6.7799100000000001,40.081600000000002
218661.0,94.822900000000004,2085.5999999999999,2149.5300000000002,2102.9099999999999,7.74932,7.7992900000000001,42.222000000000001
218662.0,85.897800000000004,-395.303,-347.911,-371.50099999999998,5.5394199999999998,7.8943300000000001,42.484999999999999
218663.0,116.328,1404.75,1446.9200000000001,1448.9300000000001,-5.16404,7.6468600000000002,61.670400000000001
218664.0,173.58699999999999,1473.8699999999999,1510.8800000000001,1538.6900000000001,-18.227699999999999,7.8328100000000003,92.698400000000007
218665.0,191.982,-2330.52,-2284.1900000000001,-2267.02,-19.732800000000001,7.9761699999999998,103.7
218666.0,199.624,4190.8000000000002,4224.5,4266.2700000000004,-24.845199999999998,3.8668100000000001,105.932
218667.0,151.96199999999999,5435.6400000000003,5465.5299999999997,5498.5699999999997,-14.4138,-0.41186099999999998,80.615399999999994
218668.0,143.00700000000001,5572.5500000000002,5600.2799999999997,5634.1099999999997,-13.7994,-2.8376100000000002,75.286299999999997
218669.0,138.07900000000001,5692.3299999999999,5719.8900000000003,5751.7200000000003,-14.705299999999999,-5.0679800000000004,72.320599999999999
218670.0,123.31699999999999,5863.3299999999999,5893.8199999999997,5913.9300000000003,-14.3169,-5.8021599999999998,64.6631
218671.0,99.977500000000006,-5769.4099999999999,-5741.8000000000002,-5721.4799999999996,-12.7066,-7.4794099999999997,50.356699999999996
218672.0,83.322999999999993,5299.0100000000002,5333.2600000000002,5330.5200000000004,-15.2691,-11.680300000000001,39.777700000000003
218673.0,114.045,4895.8699999999999,4919.4300000000003,4951.0200000000004,-29.689,-15.1791,49.575400000000002
218674.0,113.173,4850.2700000000004,4876.96,4906.79,-26.768799999999999,-10.7743,51.3553
218675.0,92.0364,4712.5900000000001,4749.3100000000004,4751.25,-15.684900000000001,-4.6088199999999997,45.627400000000002
218676.0,74.659300000000002,4224.8900000000003,4273.3199999999997,4240.8900000000003,-2.4317299999999999,0.35204999999999997,35.256700000000002
218677.0,67.157600000000002,-3910.8699999999999,-3863.4699999999998,-3902.3800000000001,1.90073,-2.6908099999999999,29.2181
218678.0,82.738600000000005,2603.3000000000002,2665.2199999999998,2596.46,6.6775900000000004,3.7655500000000002,28.075399999999998
218679.0,86.909999999999997,1281.79,1335.8599999999999,1292.77,-1.43909,3.1665800000000002,41.097799999999999
218680.0,96.432299999999998,799.18799999999999,858.76700000000005,802.76999999999998,-1.0260800000000001,5.6584599999999998,44.161900000000003
218681.0,94.134399999999999,185.42099999999999,250.572,178.136,3.12683,7.4115099999999998,36.0319
218682.0,56.087600000000002,71.574799999999996,41.743200000000002,77.869600000000005,-24.607900000000001,-2.0995300000000001,-8.1367399999999996
218683.0,116.366,-247.74199999999999,-142.38,-236.804,5.4512600000000004,5.4513600000000002,33.137500000000003
218684.0,112.187,982.16099999999994,1076.0999999999999,998.38099999999997,4.3482399999999997,7.0141,40.073099999999997
218685.0,98.775199999999998,-1242.74,-1166.77,-1224.0999999999999,6.1555099999999996,5.6594600000000002,40.183500000000002
218686.0,85.320099999999996,-698.42100000000005,-638.63400000000001,-680.46199999999999,7.7986700000000004,6.3898400000000004,37.198900000000002
218687.0,101.824,283.47000000000003,344.72899999999998,309.64299999999997,3.8453599999999999,8.3070599999999999,49.269500000000001
218688.0,148.697,-879.00099999999998,-818.803,-834.88,-8.4508799999999997,9.8286999999999995,78.935199999999995
218689.0,199.108,-4055.1100000000001,-4020.1300000000001,-3980.77,-25.771000000000001,2.8967399999999999,105.636
218690.0,179.41999999999999,-3673.02,-3644.6999999999998,-3599.77,-22.254999999999999,-0.37517099999999998,94.183300000000003
218691.0,156.09399999999999,-4380.3500000000004,-4353.4200000000001,-4314.3100000000004,-17.0063,-2.1969099999999999,82.004999999999995
218692.0,142.07400000000001,-5438.1000000000004,-5409.9700000000003,-5377.3500000000004,-14.457100000000001,-2.93919,74.741699999999994
218693.0,137.952,-5464.54,-5437.0699999999997,-5403.79,-14.2532,-3.9838900000000002,72.102900000000005
218694.0,127.967,-5668.0600000000004,-5642.1700000000001,-5609.6800000000003,-15.1821,-5.8266,65.866399999999999
218695.0,82.304400000000001,-5447.8699999999999,-5411.6700000000001,-5411.3699999999999,-12.747199999999999,-8.2314000000000007,39.842399999999998
218696.0,90.350800000000007,-4992.3800000000001,-4952.3699999999999,-4953.5900000000001,-18.372199999999999,-8.7375799999999995,42.299500000000002
218697.0,110.039,-4760.6199999999999,-4726.2700000000004,-4709.8299999999999,-26.8874,-11.583299999999999,50.074199999999998
218698.0,117.386,-4715.2700000000004,-4689.1800000000003,-4656.96,-29.087199999999999,-14.222099999999999,51.8827
218699.0,98.235699999999994,-4715.96,-4692.4399999999996,-4666.5799999999999,-20.966000000000001,-13.0749,44.680399999999999
218700.0,68.2166,-4523.1199999999999,-4489.6999999999998,-4497.0299999999997,-7.9771900000000002,-8.9810700000000008,33.140999999999998
218701.0,77.116900000000001,-3102.79,-3044.0599999999999,-3104.8899999999999,5.9175700000000004,1.39697,27.446200000000001
218702.0,86.397900000000007,-2278.7600000000002,-2214.1399999999999,-2281.3899999999999,4.2502199999999997,3.9842900000000001,31.678899999999999
218703.0,88.145899999999997,-1554.3299999999999,-1499.1199999999999,-1543.79,-1.8857200000000001,2.6930900000000002,41.470599999999997
218704.0,86.530699999999996,-1142.9000000000001,-1090.45,-1134.9200000000001,-2.44285,1.5344800000000001,41.0931
218705.0,86.640199999999993,-705.63,-645.47699999999998,-711.90200000000004,1.5826800000000001,3.6328499999999999,33.785699999999999
