Label,S_Mises,S_S11,S_S22,S_S33,S_S12,S_S13,S_S23
1.0,1.87162e-28,-7.9785599999999996e-26,-7.9959899999999998e-26,-7.9778500000000002e-26,2.5337499999999998e-29,8.4162600000000001e-30,-2.03842e-29
2.0,1.4379100000000001e-28,-7.9809200000000001e-26,-7.9943999999999998e-26,-7.9803099999999998e-26,1.74235e-29,7.4637600000000006e-30,-1.4007799999999999e-29
3.0,1.09555e-28,-7.9829799999999998e-26,-7.9933799999999998e-26,-7.98252e-26,9.9435300000000005e-30,6.2274200000000002e-30,-9.4112499999999993e-30
4.0,8.3854399999999998e-29,-7.9847800000000002e-26,-7.9929100000000001e-26,-7.9845400000000005e-26,2.6298599999999999e-30,5.4079100000000004e-30,-6.0871200000000003e-30
5.0,6.4368699999999995e-29,-7.9863399999999997e-26,-7.99263e-26,-7.9862299999999996e-26,-2.6045399999999998e-30,4.6402399999999998e-30,-3.6012699999999999e-30
6.0,5.0777700000000003e-29,-7.9878699999999998e-26,-7.9927300000000003e-26,-7.9878900000000005e-26,-7.4840099999999994e-30,4.0086499999999999e-30,-1.7056099999999998e-30
7.0,4.0972799999999999e-29,-7.98911e-26,-7.9927499999999999e-26,-7.9891799999999997e-26,-1.06619e-29,3.38967e-30,-3.5163499999999999e-31
8.0,1.7748900000000001e-28,-7.9787899999999996e-26,-7.9958799999999998e-26,-7.9785700000000006e-26,1.58104e-29,6.5225499999999996e-30,-1.8528e-29
9.0,1.4329599999999999e-28,-7.9807799999999995e-26,-7.99462e-26,-7.9805700000000003e-26,1.1995699999999999e-29,5.6649299999999998e-30,-1.3677599999999999e-29
10.0,1.1163e-28,-7.9828e-26,-7.9936599999999998e-26,-7.9826100000000004e-26,6.0704899999999997e-30,5.0221199999999998e-30,-9.5094800000000004e-30
11.0,8.6452500000000002e-29,-7.9845299999999995e-26,-7.9930200000000002e-26,-7.9844300000000004e-26,1.2144699999999999e-30,4.2219900000000003e-30,-6.4083100000000002e-30
12.0,6.7053399999999998e-29,-7.98621e-26,-7.9928099999999998e-26,-7.9861799999999995e-26,-3.5019899999999997e-30,3.6810500000000003e-30,-4.0045500000000003e-30
13.0,5.1997199999999999e-29,-7.9875899999999997e-26,-7.9926100000000004e-26,-7.9875999999999995e-26,-6.9003800000000004e-30,3.0935000000000001e-30,-2.26977e-30
14.0,4.1786299999999998e-29,-7.9890099999999997e-26,-7.9928300000000005e-26,-7.9890800000000006e-26,-9.88091e-30,2.5256699999999999e-30,-6.0382099999999998e-31
15.0,1.7628100000000001e-28,-7.9788899999999998e-26,-7.9952599999999997e-26,-7.97871e-26,2.0491499999999999e-29,1.06842e-29,-2.8224900000000001e-29
16.0,1.3642600000000001e-28,-7.9811599999999999e-26,-7.9938999999999996e-26,-7.98087e-26,1.4291100000000001e-29,9.3431799999999998e-30,-1.94531e-29
17.0,1.0486500000000001e-28,-7.9831400000000001e-26,-7.9930999999999997e-26,-7.9829100000000001e-26,7.3232699999999994e-30,7.9222200000000004e-30,-1.2817999999999999e-29
18.0,8.0386399999999996e-29,-7.9848900000000003e-26,-7.9926399999999998e-26,-7.9847300000000001e-26,1.29507e-30,6.6811500000000001e-30,-7.9715699999999996e-30
19.0,6.2235300000000005e-29,-7.9864999999999999e-26,-7.9925299999999997e-26,-7.98644e-26,-4.0229900000000003e-30,5.7081799999999999e-30,-4.3517100000000002e-30
20.0,4.8856899999999998e-29,-7.9879000000000003e-26,-7.9925000000000003e-26,-7.9878900000000005e-26,-8.0699999999999998e-30,4.7649099999999998e-30,-1.57649e-30
21.0,4.0375900000000002e-29,-7.9892600000000004e-26,-7.9927200000000005e-26,-7.9892999999999996e-26,-1.1559800000000001e-29,3.9153899999999998e-30,7.4617500000000001e-31
22.0,1.65611e-28,-7.9792700000000002e-26,-7.9951700000000003e-26,-7.9794300000000004e-26,1.16909e-29,7.3084499999999997e-30,-2.47861e-29
23.0,1.3480699999999999e-28,-7.9811500000000001e-26,-7.9941500000000003e-26,-7.98121e-26,8.32685e-30,6.6468500000000004e-30,-1.8348900000000001e-29
24.0,1.0605e-28,-7.9830100000000004e-26,-7.9933199999999998e-26,-7.9830200000000002e-26,3.92776e-30,5.7893899999999999e-30,-1.2693400000000001e-29
25.0,8.24962e-29,-7.9847700000000004e-26,-7.9928500000000001e-26,-7.9847700000000004e-26,-5.7640299999999999e-31,4.99272e-30,-8.2710799999999995e-30
26.0,6.3992800000000002e-29,-7.9863000000000005e-26,-7.9925600000000003e-26,-7.9863100000000003e-26,-4.4044699999999999e-30,4.19958e-30,-4.8759000000000002e-30
27.0,5.0383100000000001e-29,-7.9877699999999995e-26,-7.9925799999999999e-26,-7.9878e-26,-7.8620300000000002e-30,3.5236299999999997e-30,-2.2318699999999999e-30
28.0,4.01848e-29,-7.9890199999999995e-26,-7.9925999999999995e-26,-7.9890599999999998e-26,-1.03737e-29,2.8247700000000001e-30,-4.1334500000000001e-31
29.0,1.6096299999999999e-28,-7.9794900000000003e-26,-7.9943599999999995e-26,-7.9798200000000006e-26,1.4652700000000001e-29,1.15274e-29,-3.2874299999999999e-29
30.0,1.2615500000000001e-28,-7.9815699999999996e-26,-7.9933299999999996e-26,-7.9816500000000003e-26,9.9356800000000004e-30,1.03193e-29,-2.2813000000000001e-29
31.0,9.7836699999999999e-29,-7.9834399999999997e-26,-7.9927099999999995e-26,-7.9834200000000001e-26,4.2896100000000003e-30,8.8229299999999996e-30,-1.5019399999999999e-29
32.0,7.5718500000000001e-29,-7.98513e-26,-7.9924000000000001e-26,-7.9850899999999997e-26,-9.84784e-31,7.4897000000000002e-30,-9.1288899999999999e-30
33.0,5.8919299999999996e-29,-7.9866600000000001e-26,-7.9922999999999998e-26,-7.9866199999999998e-26,-5.3978600000000003e-30,6.2756699999999998e-30,-4.66552e-30
34.0,4.6988699999999999e-29,-7.9880899999999999e-26,-7.9923800000000005e-26,-7.9880600000000005e-26,-9.3105699999999994e-30,5.2475600000000001e-30,-1.20318e-30
35.0,3.9197299999999999e-29,-7.9893399999999999e-26,-7.9925399999999995e-26,-7.9893200000000003e-26,-1.22461e-29,4.1311899999999997e-30,1.3301300000000001e-30
36.0,1.50886e-28,-7.9799000000000001e-26,-7.9943100000000005e-26,-7.9804299999999997e-26,7.0035e-30,7.51424e-30,-2.8359400000000001e-29
37.0,1.2408400000000001e-28,-7.9816299999999996e-26,-7.9935700000000005e-26,-7.9819699999999996e-26,4.6458600000000002e-30,6.9516300000000001e-30,-2.11064e-29
38.0,9.8405299999999999e-29,-7.9833899999999996e-26,-7.9929299999999997e-26,-7.9835800000000003e-26,1.15447e-30,6.15616e-30,-1.4573299999999999e-29
39.0,7.7107700000000001e-29,-7.9850299999999997e-26,-7.9925500000000005e-26,-7.98513e-26,-2.4103099999999999e-30,5.2859600000000002e-30,-9.3260700000000005e-30
40.0,6.0335000000000005e-29,-7.98655e-26,-7.9923900000000003e-26,-7.9865900000000004e-26,-5.8644900000000002e-30,4.5140499999999999e-30,-5.2664900000000002e-30
41.0,4.7753100000000002e-29,-7.9878799999999996e-26,-7.9923699999999995e-26,-7.9879199999999999e-26,-8.7178600000000004e-30,3.6507699999999999e-30,-2.04316e-30
42.0,3.9066500000000002e-29,-7.9891799999999997e-26,-7.9925299999999997e-26,-7.9891799999999997e-26,-1.12211e-29,2.92649e-30,6.85869e-31
43.0,1.43473e-28,-7.9801999999999998e-26,-7.9934200000000001e-26,-7.9810099999999995e-26,8.65084e-30,1.09092e-29,-3.4231700000000001e-29
44.0,1.1411899999999999e-28,-7.9821000000000004e-26,-7.9927400000000001e-26,-7.98252e-26,5.2963199999999997e-30,1.0113500000000001e-29,-2.40234e-29
45.0,8.9520399999999998e-29,-7.9838299999999999e-26,-7.9923099999999996e-26,-7.9840199999999995e-26,9.3743899999999995e-31,8.7843299999999996e-30,-1.58375e-29
46.0,7.0004400000000004e-29,-7.9854299999999997e-26,-7.9921100000000002e-26,-7.9854899999999996e-26,-3.3505899999999999e-30,7.5337700000000004e-30,-9.4906100000000001e-30
47.0,5.5159399999999998e-29,-7.9868999999999998e-26,-7.9921000000000004e-26,-7.98689e-26,-7.1816900000000007e-30,6.31841e-30,-4.5389400000000003e-30
48.0,4.4679199999999998e-29,-7.9882500000000001e-26,-7.9922100000000004e-26,-7.9881900000000002e-26,-1.04247e-29,5.1223099999999997e-30,-6.60991e-31
49.0,3.83404e-29,-7.9894800000000005e-26,-7.9924099999999999e-26,-7.9893999999999998e-26,-1.3161299999999999e-29,3.94925e-30,2.5095499999999999e-30
50.0,1.3479400000000001e-28,-7.9806599999999997e-26,-7.99348e-26,-7.9814999999999999e-26,2.58377e-30,6.9391999999999994e-30,-2.9361899999999998e-29
51.0,1.12069e-28,-7.9821999999999995e-26,-7.9929500000000004e-26,-7.9827800000000004e-26,9.8017600000000005e-31,6.5404199999999999e-30,-2.20289e-29
52.0,8.98471e-29,-7.9838200000000001e-26,-7.9925199999999999e-26,-7.9841899999999995e-26,-1.59634e-30,5.9010900000000001e-30,-1.52101e-29
53.0,7.1017400000000003e-29,-7.9853699999999998e-26,-7.9922700000000004e-26,-7.9855600000000005e-26,-4.4455999999999998e-30,5.1343799999999998e-30,-9.6379600000000006e-30
54.0,5.6083700000000004e-29,-7.98678e-26,-7.9921700000000001e-26,-7.9868800000000002e-26,-7.2504299999999995e-30,4.3234399999999999e-30,-5.12175e-30
55.0,4.5047100000000002e-29,-7.9880999999999997e-26,-7.99223e-26,-7.9881200000000004e-26,-9.8189900000000007e-30,3.5304100000000001e-30,-1.54987e-30
56.0,3.7472200000000002e-29,-7.9892700000000002e-26,-7.9923699999999995e-26,-7.9892899999999998e-26,-1.1920499999999999e-29,2.6767100000000001e-30,1.14877e-30
57.0,1.2560100000000001e-28,-7.9809999999999997e-26,-7.9925999999999995e-26,-7.9821500000000005e-26,3.2713600000000001e-30,9.3539199999999998e-30,-3.2839399999999998e-29
58.0,1.0158099999999999e-28,-7.98269e-26,-7.9921899999999997e-26,-7.98337e-26,1.0811700000000001e-30,8.8966600000000007e-30,-2.344e-29
59.0,8.0918000000000002e-29,-7.9842700000000002e-26,-7.9919300000000004e-26,-7.9846299999999998e-26,-2.2406200000000001e-30,7.98104e-30,-1.55483e-29
60.0,6.3929500000000001e-29,-7.9857599999999999e-26,-7.9918300000000001e-26,-7.9859100000000003e-26,-5.6492400000000001e-30,6.8699799999999998e-30,-9.1513800000000006e-30
61.0,5.1179799999999996e-29,-7.9871500000000005e-26,-7.99189e-26,-7.9871700000000001e-26,-8.8135299999999996e-30,5.7182499999999999e-30,-4.0086899999999998e-30
62.0,4.2385299999999999e-29,-7.9884399999999997e-26,-7.9920400000000004e-26,-7.9883600000000002e-26,-1.16156e-29,4.5360299999999999e-30,8.9704299999999998e-32
63.0,3.7181600000000001e-29,-7.9896000000000004e-26,-7.9922700000000004e-26,-7.9894900000000003e-26,-1.38549e-29,3.3536199999999999e-30,3.0700800000000001e-30
64.0,1.1911499999999999e-28,-7.9814200000000004e-26,-7.9927200000000005e-26,-7.9824799999999996e-26,-1.20404e-30,5.7404099999999999e-30,-2.8339500000000001e-29
65.0,1.00229e-28,-7.9827900000000002e-26,-7.9924000000000001e-26,-7.9835499999999998e-26,-2.2812400000000001e-30,5.6349900000000001e-30,-2.1469400000000001e-29
66.0,8.1234699999999995e-29,-7.9842700000000002e-26,-7.99212e-26,-7.9847599999999995e-26,-4.09034e-30,5.15263e-30,-1.4862199999999999e-29
67.0,6.4868599999999996e-29,-7.9857e-26,-7.9919800000000005e-26,-7.9859800000000001e-26,-6.3306400000000001e-30,4.5179099999999999e-30,-9.2379400000000007e-30
68.0,5.1766400000000004e-29,-7.9870400000000005e-26,-7.99195e-26,-7.9871700000000001e-26,-8.61913e-30,3.8090199999999998e-30,-4.6345599999999997e-30
69.0,4.2279799999999998e-29,-7.9882699999999997e-26,-7.9920500000000002e-26,-7.98831e-26,-1.07502e-29,2.9566600000000001e-30,-8.3906999999999999e-31
70.0,3.6205799999999998e-29,-7.9894400000000002e-26,-7.99223e-26,-7.9893800000000002e-26,-1.2643300000000001e-29,2.2202500000000001e-30,2.40726e-30
71.0,1.0973200000000001e-28,-7.9817700000000002e-26,-7.99195e-26,-7.9831099999999995e-26,-8.8344799999999993e-31,7.2570600000000006e-30,-2.9985399999999999e-29
72.0,9.0547899999999999e-29,-7.9832099999999998e-26,-7.99172e-26,-7.9840699999999996e-26,-2.3737700000000001e-30,7.3349600000000004e-30,-2.1846399999999999e-29
73.0,7.3000299999999998e-29,-7.9846500000000005e-26,-7.9915800000000006e-26,-7.9851399999999998e-26,-4.8550900000000002e-30,6.6007600000000002e-30,-1.4585400000000001e-29
74.0,5.8482899999999996e-29,-7.98604e-26,-7.9915800000000006e-26,-7.9862899999999995e-26,-7.5823900000000006e-30,5.7120100000000001e-30,-8.3683399999999998e-30
75.0,4.7465800000000001e-29,-7.9873599999999997e-26,-7.9916799999999997e-26,-7.9874099999999999e-26,-1.01422e-29,4.6456900000000002e-30,-3.2727799999999997e-30
76.0,4.0162700000000001e-29,-7.9885900000000001e-26,-7.99189e-26,-7.9885300000000002e-26,-1.24683e-29,3.5480699999999999e-30,8.3312499999999995e-31
77.0,3.62515e-29,-7.9897200000000003e-26,-7.99212e-26,-7.9895400000000004e-26,-1.43856e-29,2.3152000000000001e-30,4.3238199999999997e-30
78.0,1.05491e-28,-7.98212e-26,-7.99212e-26,-7.9833100000000001e-26,-4.1095599999999997e-30,4.6155100000000001e-30,-2.6282199999999998e-29
79.0,9.0030299999999997e-29,-7.9833199999999999e-26,-7.9919400000000002e-26,-7.9841899999999995e-26,-4.70765e-30,4.4348599999999998e-30,-2.0241299999999999e-29
80.0,7.3744900000000002e-29,-7.9846700000000001e-26,-7.99178e-26,-7.9852499999999999e-26,-6.1064300000000003e-30,4.1878499999999999e-30,-1.4028500000000001e-29
81.0,5.9339899999999997e-29,-7.9859999999999997e-26,-7.9917100000000002e-26,-7.9863399999999997e-26,-7.8480099999999999e-30,3.6373399999999999e-30,-8.5070699999999999e-30
82.0,4.79552e-29,-7.9872700000000004e-26,-7.9917600000000004e-26,-7.9874400000000004e-26,-9.7135899999999994e-30,2.9651200000000002e-30,-3.82624e-30
83.0,3.9802299999999998e-29,-7.9884499999999995e-26,-7.9918800000000002e-26,-7.9884700000000003e-26,-1.155e-29,2.24258e-30,2.5707900000000001e-32
84.0,3.4895199999999998e-29,-7.9895400000000004e-26,-7.9921100000000002e-26,-7.9895299999999995e-26,-1.3200000000000001e-29,1.31852e-30,2.9755899999999999e-30
85.0,9.7631900000000002e-29,-7.9823699999999995e-26,-7.9914800000000003e-26,-7.9838299999999999e-26,-3.7599200000000002e-30,5.5697799999999998e-30,-2.71736e-29
86.0,8.2318199999999998e-29,-7.9835700000000005e-26,-7.9913499999999995e-26,-7.9845799999999997e-26,-4.9696700000000003e-30,5.4397499999999998e-30,-2.03346e-29
87.0,6.7094100000000001e-29,-7.9849099999999999e-26,-7.9913100000000003e-26,-7.9855399999999998e-26,-6.8327999999999995e-30,4.92628e-30,-1.35284e-29
88.0,5.4137600000000002e-29,-7.9862400000000005e-26,-7.9913600000000004e-26,-7.9865599999999998e-26,-8.9173999999999995e-30,4.1674900000000002e-30,-7.5595599999999999e-30
89.0,4.44327e-29,-7.9875000000000003e-26,-7.9915099999999997e-26,-7.9876200000000002e-26,-1.10245e-29,3.2714499999999997e-30,-2.4910400000000001e-30
90.0,3.8232499999999998e-29,-7.9887000000000002e-26,-7.99172e-26,-7.9886300000000005e-26,-1.29785e-29,2.22194e-30,1.6874200000000001e-30
91.0,3.5135500000000002e-29,-7.9897700000000004e-26,-7.9919900000000003e-26,-7.9896700000000001e-26,-1.46956e-29,1.12934e-30,4.7237999999999998e-30
92.0,9.61639e-29,-7.9826200000000002e-26,-7.9917299999999998e-26,-7.9838200000000001e-26,-5.9541200000000001e-30,3.3995100000000002e-30,-2.42662e-29
93.0,8.2663800000000001e-29,-7.9836900000000004e-26,-7.9916000000000001e-26,-7.9846299999999998e-26,-6.3962199999999995e-30,3.44856e-30,-1.89904e-29
94.0,6.8026000000000004e-29,-7.9849400000000004e-26,-7.9914999999999999e-26,-7.9855800000000001e-26,-7.4849600000000004e-30,3.1566199999999999e-30,-1.3085299999999999e-29
95.0,5.5135199999999995e-29,-7.9862199999999998e-26,-7.9915099999999997e-26,-7.98661e-26,-8.9456800000000006e-30,2.7028499999999999e-30,-7.6333400000000001e-30
96.0,4.4914599999999999e-29,-7.9874400000000004e-26,-7.9915900000000004e-26,-7.9876200000000002e-26,-1.04998e-29,2.11354e-30,-3.0213999999999999e-30
97.0,3.7949800000000003e-29,-7.9885800000000003e-26,-7.9917600000000004e-26,-7.9886400000000003e-26,-1.20673e-29,1.3323799999999999e-30,8.5866899999999992e-31
98.0,3.3998899999999998e-29,-7.9896600000000003e-26,-7.9919900000000003e-26,-7.9895799999999996e-26,-1.3423699999999999e-29,7.0215999999999997e-31,4.1865299999999998e-30
99.0,4.1532199999999998e-29,-7.9887500000000003e-26,-7.9925799999999999e-26,-7.9887899999999995e-26,-9.1646799999999997e-30,1.89979e-30,-1.56556e-30
100.0,4.28059e-29,-7.9886599999999999e-26,-7.9926600000000005e-26,-7.9887400000000005e-26,-9.0820099999999995e-30,1.25329e-30,-1.27763e-30
101.0,4.1448900000000002e-29,-7.9884600000000005e-26,-7.9923099999999996e-26,-7.9884899999999999e-26,-8.7075999999999998e-30,7.7035099999999998e-31,-2.3555600000000001e-30
102.0,4.2112600000000001e-29,-7.9884700000000003e-26,-7.9923800000000005e-26,-7.9885099999999994e-26,-9.1982900000000002e-30,2.24961e-31,-1.4541200000000001e-30
103.0,3.8442699999999997e-29,-7.9884100000000003e-26,-7.99189e-26,-7.9883299999999996e-26,-8.4229200000000003e-30,4.8514900000000001e-32,-2.9491900000000001e-30
104.0,3.8904200000000003e-29,-7.9885499999999998e-26,-7.9920400000000004e-26,-7.9884399999999997e-26,-9.1770900000000004e-30,-5.74218e-31,-9.1881700000000004e-31
105.0,3.07952e-29,-7.98871e-26,-7.9912600000000001e-26,-7.98837e-26,-7.2690999999999993e-30,4.9196799999999997e-31,-3.60109e-30
106.0,5.4213000000000003e-29,-7.9874500000000002e-26,-7.9927300000000003e-26,-7.9875199999999999e-26,-7.16458e-30,2.3280899999999999e-30,-2.5587400000000001e-30
107.0,5.5011199999999997e-29,-7.9871600000000003e-26,-7.9925199999999999e-26,-7.9872399999999999e-26,-7.3716999999999997e-30,1.59894e-30,-3.1435499999999999e-30
108.0,5.6628199999999996e-29,-7.9870699999999998e-26,-7.9925600000000003e-26,-7.9871700000000001e-26,-8.47266e-30,1.02829e-30,-3.1663999999999997e-30
109.0,5.5645900000000002e-29,-7.9868999999999998e-26,-7.99223e-26,-7.9869400000000002e-26,-8.8206900000000005e-30,3.7111800000000001e-31,-3.7065700000000002e-30
110.0,5.5147799999999996e-29,-7.9869699999999996e-26,-7.9921600000000003e-26,-7.9869599999999998e-26,-1.03036e-29,-1.14666e-31,-3.2420899999999997e-30
111.0,5.17323e-29,-7.9869800000000005e-26,-7.99178e-26,-7.9869099999999996e-26,-9.94399e-30,-3.4677800000000001e-31,-3.6806699999999998e-30
112.0,4.7972099999999999e-29,-7.9870099999999999e-26,-7.9913999999999996e-26,-7.9868999999999998e-26,-9.6978500000000007e-30,-1.9800899999999999e-30,-3.2650499999999998e-30
113.0,6.9528500000000003e-29,-7.9858799999999998e-26,-7.9927499999999999e-26,-7.9859200000000001e-26,-4.2300299999999997e-30,2.7333200000000002e-30,-4.4894099999999998e-30
114.0,7.2547800000000003e-29,-7.9856699999999994e-26,-7.9928500000000001e-26,-7.9857799999999995e-26,-5.8675999999999999e-30,2.0347e-30,-4.84674e-30
115.0,7.4447699999999999e-29,-7.9853500000000002e-26,-7.9926800000000001e-26,-7.98547e-26,-7.4173599999999996e-30,1.12539e-30,-5.2994999999999997e-30
116.0,7.5082099999999996e-29,-7.9853e-26,-7.9925799999999999e-26,-7.9853699999999998e-26,-9.8666299999999993e-30,5.1788499999999998e-31,-5.4181500000000003e-30
117.0,7.3855399999999996e-29,-7.9852300000000003e-26,-7.9922999999999998e-26,-7.9852599999999997e-26,-1.1399699999999999e-29,-2.1047e-31,-5.47092e-30
118.0,7.0157899999999995e-29,-7.9853799999999996e-26,-7.9919099999999996e-26,-7.9852599999999997e-26,-1.2671899999999999e-29,-1.0535199999999999e-30,-5.3703400000000003e-30
119.0,6.4861099999999995e-29,-7.9857699999999997e-26,-7.99155e-26,-7.9854299999999997e-26,-1.3854700000000001e-29,-3.85021e-31,-5.0255600000000002e-30
120.0,9.0100000000000005e-29,-7.98428e-26,-7.9932099999999998e-26,-7.9843100000000005e-26,-1.14499e-30,3.3270600000000001e-30,-6.8079100000000005e-30
121.0,9.4518500000000002e-29,-7.9838299999999999e-26,-7.9932400000000003e-26,-7.9839700000000005e-26,-3.6567600000000001e-30,2.26809e-30,-7.4061499999999995e-30
122.0,9.7575499999999997e-29,-7.9835999999999999e-26,-7.9932500000000001e-26,-7.9837500000000004e-26,-7.1889800000000004e-30,1.42477e-30,-7.9305699999999998e-30
123.0,9.9375599999999998e-29,-7.9833500000000004e-26,-7.9930800000000001e-26,-7.9834999999999997e-26,-1.07278e-29,3.7967400000000001e-31,-8.1633300000000004e-30
124.0,9.7470199999999998e-29,-7.9834299999999999e-26,-7.9927400000000001e-26,-7.9834200000000001e-26,-1.4200000000000001e-29,-5.4821499999999997e-31,-8.25452e-30
125.0,9.3613099999999997e-29,-7.9836900000000004e-26,-7.9923499999999999e-26,-7.9834800000000001e-26,-1.7229600000000001e-29,-9.9610599999999991e-31,-7.7446499999999999e-30
126.0,8.7897700000000004e-29,-7.9839100000000006e-26,-7.99178e-26,-7.9835300000000002e-26,-1.85224e-29,-2.4531400000000001e-30,-7.3794700000000002e-30
127.0,1.1650700000000001e-28,-7.9823499999999999e-26,-7.9938700000000002e-26,-7.9824000000000001e-26,2.7046099999999999e-30,3.7134800000000001e-30,-1.00244e-29
128.0,1.2211e-28,-7.9819300000000004e-26,-7.99405e-26,-7.9820699999999999e-26,-1.8641699999999998e-30,2.6893700000000001e-30,-1.0831e-29
129.0,1.2797100000000001e-28,-7.9814200000000004e-26,-7.9941199999999997e-26,-7.9816600000000001e-26,-7.1180300000000003e-30,1.37038e-30,-1.14959e-29
130.0,1.29869e-28,-7.9812600000000002e-26,-7.9939399999999999e-26,-7.98138e-26,-1.2945399999999999e-29,1.9117600000000001e-31,-1.20764e-29
131.0,1.29297e-28,-7.9813100000000003e-26,-7.9936300000000005e-26,-7.9812799999999998e-26,-1.8811099999999999e-29,-9.3682099999999997e-31,-1.19421e-29
132.0,1.2409699999999999e-28,-7.9816000000000002e-26,-7.9929899999999996e-26,-7.9812799999999998e-26,-2.3252600000000001e-29,-2.2162900000000001e-30,-1.16119e-29
133.0,1.15714e-28,-7.9822700000000004e-26,-7.9923599999999997e-26,-7.9815799999999994e-26,-2.6517099999999999e-29,-2.3207099999999999e-30,-1.06124e-29
134.0,1.4764400000000001e-28,-7.9803900000000005e-26,-7.9949099999999998e-26,-7.9804299999999997e-26,6.0953900000000001e-30,4.42392e-30,-1.4121999999999999e-29
135.0,1.5684999999999999e-28,-7.9796700000000001e-26,-7.9952400000000001e-26,-7.9799099999999999e-26,-2.0197800000000001e-32,2.9243e-30,-1.52617e-29
136.0,1.6460900000000001e-28,-7.9791400000000005e-26,-7.9954100000000001e-26,-7.9793800000000003e-26,-7.3841100000000004e-30,1.5392800000000001e-30,-1.6778600000000001e-29
137.0,1.7072499999999999e-28,-7.97877e-26,-7.9954199999999999e-26,-7.9789700000000005e-26,-1.6530799999999999e-29,-1.7327700000000001e-31,-1.75551e-29
138.0,1.6990799999999999e-28,-7.9788600000000004e-26,-7.9949299999999994e-26,-7.9787600000000002e-26,-2.5371199999999999e-29,-2.0349000000000002e-30,-1.7761599999999999e-29
139.0,1.6412899999999999e-28,-7.9794099999999997e-26,-7.9942299999999998e-26,-7.97888e-26,-3.3036099999999999e-29,-3.2891999999999998e-30,-1.6845599999999999e-29
140.0,1.5445100000000001e-28,-7.9800299999999998e-26,-7.9931900000000002e-26,-7.9790300000000004e-26,-3.7914300000000001e-29,-5.0415999999999998e-30,-1.5673799999999999e-29
141.0,1.8132700000000001e-28,-7.9783799999999998e-26,-7.9961699999999996e-26,-7.9784800000000001e-26,9.8053599999999995e-30,4.8063299999999999e-30,-1.87337e-29
142.0,1.9635000000000001e-28,-7.9774199999999997e-26,-7.9967899999999997e-26,-7.97763e-26,3.3242000000000001e-30,3.6358799999999997e-30,-2.13773e-29
143.0,2.1394800000000001e-28,-7.9763299999999999e-26,-7.9974500000000002e-26,-7.9766899999999995e-26,-7.5668000000000005e-30,1.6503500000000001e-30,-2.3918799999999999e-29
144.0,2.24866e-28,-7.9757799999999995e-26,-7.9975999999999994e-26,-7.9759800000000001e-26,-2.1058900000000001e-29,-9.4679e-31,-2.6034e-29
145.0,2.2821600000000001e-28,-7.9758500000000004e-26,-7.9972200000000002e-26,-7.9756699999999995e-26,-3.5920700000000002e-29,-3.4212e-30,-2.6551600000000003e-29
146.0,2.2099899999999999e-28,-7.9765599999999999e-26,-7.9960499999999998e-26,-7.9756599999999997e-26,-4.8098099999999999e-29,-6.0062399999999997e-30,-2.5587500000000002e-29
147.0,2.06022e-28,-7.9778799999999996e-26,-7.9946399999999996e-26,-7.9761500000000001e-26,-5.5894800000000001e-29,-7.3510699999999996e-30,-2.3258300000000001e-29
148.0,4.0754999999999998e-29,-7.9889100000000006e-26,-7.9926100000000004e-26,-7.9889499999999997e-26,-9.8359499999999999e-30,1.9651100000000001e-30,-5.7506899999999999e-31
149.0,4.0339099999999998e-29,-7.9886799999999995e-26,-7.9924000000000001e-26,-7.9887500000000003e-26,-9.2829800000000004e-30,1.21814e-30,-1.52473e-30
150.0,4.0637900000000001e-29,-7.9886500000000001e-26,-7.9923900000000003e-26,-7.9887000000000002e-26,-9.3951099999999995e-30,5.2867099999999999e-31,-1.23182e-30
151.0,3.87957e-29,-7.9884999999999997e-26,-7.9920699999999998e-26,-7.9885499999999998e-26,-8.8152099999999996e-30,4.46618e-33,-2.1128500000000001e-30
152.0,3.8490500000000002e-29,-7.9885800000000003e-26,-7.99206e-26,-7.9885599999999996e-26,-9.2600199999999996e-30,-7.1910799999999998e-31,-1.2116199999999999e-30
153.0,3.3992000000000003e-29,-7.9885499999999998e-26,-7.9916099999999999e-26,-7.9885099999999994e-26,-8.03574e-30,-3.6338500000000001e-31,-2.19995e-30
154.0,3.4571699999999999e-29,-7.9885499999999998e-26,-7.9916799999999997e-26,-7.9885300000000002e-26,-8.0639900000000004e-30,-2.00567e-30,-6.9446100000000001e-31
155.0,5.1415099999999996e-29,-7.9875199999999999e-26,-7.9924799999999996e-26,-7.9875899999999997e-26,-7.70888e-30,2.4645400000000001e-30,-2.8453799999999999e-30
156.0,5.2802700000000003e-29,-7.9874000000000001e-26,-7.9925000000000003e-26,-7.9874900000000005e-26,-8.1889699999999998e-30,1.6230599999999998e-30,-3.2504799999999997e-30
157.0,5.3197699999999999e-29,-7.9871600000000003e-26,-7.9922800000000002e-26,-7.9872700000000004e-26,-8.5368599999999995e-30,7.8091100000000003e-31,-3.6774399999999999e-30
158.0,5.3191000000000006e-29,-7.9871500000000005e-26,-7.9921999999999995e-26,-7.9872100000000005e-26,-9.4624899999999998e-30,-2.2783900000000001e-32,-3.7469299999999998e-30
159.0,5.1621900000000001e-29,-7.9870400000000005e-26,-7.9918999999999998e-26,-7.9870899999999994e-26,-9.7129299999999994e-30,-4.8445100000000002e-31,-3.9532799999999999e-30
160.0,4.95756e-29,-7.9871299999999998e-26,-7.9917100000000002e-26,-7.9871100000000002e-26,-1.0116e-29,-1.6989799999999998e-30,-3.31952e-30
161.0,4.5742999999999998e-29,-7.9872999999999998e-26,-7.9913399999999997e-26,-7.9870500000000003e-26,-9.9739899999999994e-30,-1.3751400000000001e-30,-4.21031e-30
162.0,6.6273099999999996e-29,-7.9861400000000003e-26,-7.9926499999999996e-26,-7.9862199999999998e-26,-5.4284500000000001e-30,3.0518700000000002e-30,-5.38399e-30
163.0,6.8381799999999995e-29,-7.9858399999999994e-26,-7.9925700000000001e-26,-7.9859899999999999e-26,-6.5477600000000001e-30,1.9809000000000001e-30,-5.8922699999999998e-30
164.0,6.9959100000000001e-29,-7.9857e-26,-7.9925299999999997e-26,-7.9858500000000004e-26,-8.2052300000000006e-30,1.0012e-30,-6.4269499999999994e-30
165.0,7.0494099999999995e-29,-7.9854999999999994e-26,-7.9923200000000005e-26,-7.9856499999999998e-26,-9.7937200000000004e-30,4.59573e-32,-6.6738000000000007e-30
166.0,6.9154599999999996e-29,-7.98553e-26,-7.9920899999999994e-26,-7.9855999999999997e-26,-1.1393700000000001e-29,-1.02599e-30,-6.6079500000000003e-30
167.0,6.65954e-29,-7.9855999999999997e-26,-7.9917600000000004e-26,-7.9855499999999996e-26,-1.24805e-29,-1.5942799999999998e-30,-6.6506899999999998e-30
168.0,6.2148399999999996e-29,-7.9857199999999996e-26,-7.9913600000000004e-26,-7.9855999999999997e-26,-1.2760400000000001e-29,-2.8171300000000002e-30,-5.9175200000000002e-30
169.0,8.5193500000000005e-29,-7.9845000000000001e-26,-7.9929100000000001e-26,-7.98462e-26,-2.5989200000000002e-30,3.56014e-30,-8.6874300000000007e-30
170.0,8.84329e-29,-7.9842499999999994e-26,-7.9929799999999998e-26,-7.9844300000000004e-26,-5.0714799999999997e-30,2.3403700000000001e-30,-9.4034800000000003e-30
171.0,9.1351500000000001e-29,-7.9838999999999996e-26,-7.9928799999999995e-26,-7.9841400000000005e-26,-7.9307700000000004e-30,1.10112e-30,-9.9873000000000006e-30
172.0,9.2228900000000001e-29,-7.9837899999999995e-26,-7.9927200000000005e-26,-7.9839800000000003e-26,-1.09959e-29,-1.6256300000000001e-31,-1.04495e-29
173.0,9.1604900000000005e-29,-7.9837400000000006e-26,-7.9924299999999994e-26,-7.9838399999999997e-26,-1.3910800000000001e-29,-1.32867e-30,-1.05321e-29
174.0,8.7872000000000004e-29,-7.9839100000000006e-26,-7.9920099999999999e-26,-7.9838399999999997e-26,-1.6131099999999999e-29,-2.4688000000000002e-30,-1.01529e-29
175.0,8.3279900000000003e-29,-7.9842100000000002e-26,-7.9915800000000006e-26,-7.9839100000000006e-26,-1.8012800000000001e-29,-2.95853e-30,-9.5200900000000003e-30
176.0,1.0902e-28,-7.9827800000000004e-26,-7.9934999999999996e-26,-7.9829399999999995e-26,2.4760599999999998e-31,4.1136200000000002e-30,-1.30304e-29
177.0,1.13703e-28,-7.9823499999999999e-26,-7.9935800000000003e-26,-7.9826499999999996e-26,-3.7195200000000001e-30,2.6301300000000002e-30,-1.3893799999999999e-29
178.0,1.1758400000000001e-28,-7.9820400000000005e-26,-7.9935800000000003e-26,-7.9823499999999999e-26,-8.1483400000000006e-30,1.11356e-30,-1.4980999999999999e-29
179.0,1.20249e-28,-7.9817899999999998e-26,-7.9934200000000001e-26,-7.9820699999999999e-26,-1.3078099999999999e-29,-5.2789299999999998e-31,-1.57059e-29
180.0,1.1914599999999999e-28,-7.9818200000000003e-26,-7.9930499999999995e-26,-7.9819400000000002e-26,-1.7789700000000001e-29,-2.1219900000000001e-30,-1.58836e-29
181.0,1.1596299999999999e-28,-7.9820500000000003e-26,-7.9925999999999995e-26,-7.9819400000000002e-26,-2.1996500000000001e-29,-3.5366799999999999e-30,-1.53568e-29
182.0,1.09659e-28,-7.9823599999999997e-26,-7.9919200000000006e-26,-7.9819800000000005e-26,-2.4523500000000001e-29,-5.2231099999999999e-30,-1.4469500000000001e-29
183.0,1.3756e-28,-7.9808600000000002e-26,-7.9943399999999999e-26,-7.9811300000000005e-26,2.8885999999999999e-30,4.5917399999999998e-30,-1.8430499999999999e-29
184.0,1.43842e-28,-7.9803900000000005e-26,-7.9945199999999997e-26,-7.9807599999999999e-26,-2.4281200000000001e-30,2.9250099999999999e-30,-1.9826100000000001e-29
185.0,1.5119699999999999e-28,-7.9798300000000004e-26,-7.99462e-26,-7.9802699999999995e-26,-8.9492100000000005e-30,1.01151e-30,-2.1515300000000001e-29
186.0,1.5544399999999999e-28,-7.9795500000000003e-26,-7.9944900000000003e-26,-7.9799099999999999e-26,-1.6233099999999999e-29,-1.12137e-30,-2.2936100000000001e-29
187.0,1.56399e-28,-7.9795500000000003e-26,-7.9941400000000005e-26,-7.9796899999999997e-26,-2.3855299999999999e-29,-3.4614400000000002e-30,-2.33565e-29
188.0,1.5190700000000001e-28,-7.9798699999999995e-26,-7.9934399999999997e-26,-7.9796700000000001e-26,-3.0086199999999998e-29,-5.5577199999999998e-30,-2.2838699999999999e-29
189.0,1.4473099999999999e-28,-7.9804700000000001e-26,-7.9926600000000005e-26,-7.9797999999999998e-26,-3.51068e-29,-7.1539100000000004e-30,-2.1428700000000001e-29
190.0,1.6709100000000001e-28,-7.9790799999999994e-26,-7.9953500000000001e-26,-7.9794300000000004e-26,5.8492400000000002e-30,5.2429599999999997e-30,-2.46482e-29
191.0,1.7977199999999999e-28,-7.9782099999999998e-26,-7.9957799999999995e-26,-7.9787400000000006e-26,-3.46962e-31,3.6219900000000003e-30,-2.7753499999999999e-29
192.0,1.9317899999999999e-28,-7.9774000000000001e-26,-7.9961699999999996e-26,-7.97803e-26,-8.9435599999999996e-30,1.1401799999999999e-30,-3.15439e-29
193.0,2.0349600000000001e-28,-7.9768300000000001e-26,-7.9962500000000003e-26,-7.9774299999999995e-26,-2.04602e-29,-2.1990000000000002e-30,-3.4358599999999999e-29
194.0,2.0588200000000001e-28,-7.9768399999999999e-26,-7.9957900000000004e-26,-7.9771299999999998e-26,-3.24356e-29,-5.7795700000000003e-30,-3.5474600000000003e-29
195.0,2.0144200000000001e-28,-7.9774099999999999e-26,-7.9949199999999996e-26,-7.9771100000000002e-26,-4.30276e-29,-8.9795100000000001e-30,-3.45752e-29
196.0,1.9125199999999999e-28,-7.9782199999999996e-26,-7.9936300000000005e-26,-7.9771999999999995e-26,-5.0281200000000001e-29,-1.2207e-29,-3.2212699999999999e-29
197.0,3.8699600000000002e-29,-7.9889700000000005e-26,-7.9924199999999996e-26,-7.9890400000000002e-26,-1.03331e-29,1.8794600000000001e-30,-3.85207e-31
198.0,3.88042e-29,-7.9888899999999998e-26,-7.9923699999999995e-26,-7.9889300000000001e-26,-1.0027199999999999e-29,1.03982e-30,-4.7989300000000003e-31
199.0,3.7758599999999999e-29,-7.98871e-26,-7.9921500000000005e-26,-7.9888100000000003e-26,-9.4259600000000003e-30,2.3768899999999998e-31,-1.18773e-30
200.0,3.7382499999999999e-29,-7.9887000000000002e-26,-7.9920799999999996e-26,-7.9887500000000003e-26,-9.5299699999999997e-30,-5.8243600000000004e-31,-8.6194900000000006e-31
201.0,3.4713399999999997e-29,-7.9886199999999995e-26,-7.9917700000000002e-26,-7.9886900000000004e-26,-8.6294799999999995e-30,-8.7184200000000002e-31,-1.36232e-30
202.0,3.4120299999999998e-29,-7.9886400000000003e-26,-7.9917000000000004e-26,-7.9886900000000004e-26,-8.64446e-30,-2.11161e-30,-5.3613799999999997e-31
203.0,2.9130900000000001e-29,-7.9887500000000003e-26,-7.9913000000000005e-26,-7.9886599999999999e-26,-7.2831300000000003e-30,-1.7757600000000001e-30,-1.0818000000000001e-30
204.0,4.8653800000000001e-29,-7.9877599999999997e-26,-7.9923800000000005e-26,-7.9878300000000006e-26,-8.6531899999999993e-30,2.4970900000000001e-30,-2.66657e-30
205.0,4.9306800000000001e-29,-7.9875399999999995e-26,-7.9922599999999994e-26,-7.9876800000000001e-26,-8.6981900000000006e-30,1.43367e-30,-3.15493e-30
206.0,4.9669900000000002e-29,-7.9874500000000002e-26,-7.9921700000000001e-26,-7.9875700000000001e-26,-9.1526599999999995e-30,4.5009399999999996e-31,-3.5761199999999998e-30
207.0,4.9223399999999999e-29,-7.98729e-26,-7.9919599999999998e-26,-7.9874400000000004e-26,-9.3989399999999996e-30,-3.6468500000000001e-31,-3.7730000000000003e-30
208.0,4.8035399999999999e-29,-7.9872999999999998e-26,-7.9917899999999998e-26,-7.9874000000000001e-26,-9.8135099999999998e-30,-1.46253e-30,-3.5828e-30
209.0,4.5586700000000002e-29,-7.9873099999999996e-26,-7.9914999999999999e-26,-7.9873300000000003e-26,-9.7247199999999999e-30,-1.8438499999999999e-30,-3.7221199999999997e-30
210.0,4.3341899999999998e-29,-7.9873599999999997e-26,-7.9913200000000001e-26,-7.9873499999999999e-26,-9.3664599999999993e-30,-2.9218300000000002e-30,-2.52211e-30
211.0,6.1894800000000002e-29,-7.9863499999999995e-26,-7.9924000000000001e-26,-7.9864900000000001e-26,-6.5003899999999996e-30,3.0282200000000001e-30,-5.73972e-30
212.0,6.3475999999999996e-29,-7.9861799999999995e-26,-7.9923699999999995e-26,-7.9863600000000004e-26,-7.5396699999999996e-30,1.8272000000000001e-30,-6.4009500000000001e-30
213.0,6.4713700000000003e-29,-7.9859399999999997e-26,-7.9922399999999998e-26,-7.9861699999999997e-26,-8.6867499999999993e-30,6.5533200000000002e-31,-6.8005100000000005e-30
214.0,6.4822699999999999e-29,-7.9858500000000004e-26,-7.9920699999999998e-26,-7.9860499999999998e-26,-1.00179e-29,-5.4690099999999997e-31,-7.1315499999999999e-30
215.0,6.3910899999999998e-29,-7.9857799999999995e-26,-7.9918200000000003e-26,-7.9859399999999997e-26,-1.11092e-29,-1.57511e-30,-7.1603399999999995e-30
216.0,6.1449600000000005e-29,-7.9858399999999994e-26,-7.9915300000000004e-26,-7.9859100000000003e-26,-1.1926600000000001e-29,-2.7425600000000001e-30,-6.6809400000000003e-30
217.0,5.81847e-29,-7.9859999999999997e-26,-7.9911900000000004e-26,-7.9858899999999996e-26,-1.24247e-29,-3.2481500000000003e-30,-6.6146300000000004e-30
218.0,7.9001400000000004e-29,-7.9848699999999995e-26,-7.99263e-26,-7.9850799999999999e-26,-4.2947999999999997e-30,3.61568e-30,-9.7558299999999996e-30
219.0,8.1515e-29,-7.9846000000000004e-26,-7.9926100000000004e-26,-7.9848900000000003e-26,-6.3086700000000001e-30,2.1398399999999999e-30,-1.03986e-29
220.0,8.3490900000000004e-29,-7.98439e-26,-7.9925199999999999e-26,-7.9846999999999995e-26,-8.6383299999999997e-30,6.94486e-31,-1.12045e-29
221.0,8.4488100000000005e-29,-7.9842000000000004e-26,-7.9923300000000003e-26,-7.9845099999999999e-26,-1.10489e-29,-7.7484800000000002e-31,-1.1642700000000001e-29
222.0,8.3438699999999995e-29,-7.9841899999999995e-26,-7.9920400000000004e-26,-7.9844099999999996e-26,-1.3350700000000001e-29,-2.1975599999999999e-30,-1.17374e-29
223.0,8.1142199999999999e-29,-7.9842700000000002e-26,-7.9917000000000004e-26,-7.9843599999999995e-26,-1.5225300000000001e-29,-3.5005600000000001e-30,-1.14418e-29
224.0,7.6709100000000003e-29,-7.9844099999999996e-26,-7.9912400000000005e-26,-7.9843700000000005e-26,-1.6202500000000001e-29,-4.8092099999999998e-30,-1.05295e-29
225.0,1.00414e-28,-7.9832099999999998e-26,-7.9930499999999995e-26,-7.9835499999999998e-26,-2.0372700000000001e-30,4.0873000000000001e-30,-1.4744499999999999e-29
226.0,1.0373399999999999e-28,-7.9829199999999999e-26,-7.9930700000000003e-26,-7.9833199999999999e-26,-5.4320699999999997e-30,2.3352999999999999e-30,-1.5627900000000001e-29
227.0,1.0702100000000001e-28,-7.9825899999999997e-26,-7.9930000000000006e-26,-7.9830499999999996e-26,-9.07217e-30,5.7738900000000002e-31,-1.66301e-29
228.0,1.0870200000000001e-28,-7.9824000000000001e-26,-7.9927900000000002e-26,-7.9828199999999996e-26,-1.3012800000000001e-29,-1.2199700000000001e-30,-1.7505199999999999e-29
229.0,1.0851799999999999e-28,-7.9823599999999997e-26,-7.9924900000000005e-26,-7.9826700000000004e-26,-1.67585e-29,-3.1681999999999999e-30,-1.7734100000000001e-29
230.0,1.0541499999999999e-28,-7.9824900000000006e-26,-7.9920099999999999e-26,-7.9826200000000002e-26,-1.9983700000000001e-29,-4.8702000000000001e-30,-1.73246e-29
231.0,1.0103899999999999e-28,-7.9828e-26,-7.9915300000000004e-26,-7.98263e-26,-2.24707e-29,-6.3516100000000001e-30,-1.6419e-29
232.0,1.2538699999999999e-28,-7.9814700000000005e-26,-7.9936799999999994e-26,-7.98195e-26,-1.16618e-31,4.4952000000000001e-30,-2.0893999999999999e-29
233.0,1.30342e-28,-7.9810800000000004e-26,-7.9937699999999999e-26,-7.9816600000000001e-26,-4.6861500000000001e-30,2.5441299999999999e-30,-2.22904e-29
234.0,1.3570199999999999e-28,-7.9806599999999997e-26,-7.9937600000000001e-26,-7.9813000000000005e-26,-9.8892399999999995e-30,4.2623200000000004e-31,-2.4260900000000001e-29
235.0,1.3958799999999999e-28,-7.9803699999999998e-26,-7.9936099999999997e-26,-7.9809899999999999e-26,-1.5732799999999999e-29,-2.1373899999999999e-30,-2.5775699999999999e-29
236.0,1.39864e-28,-7.9803400000000004e-26,-7.9932099999999998e-26,-7.9808100000000001e-26,-2.1713600000000001e-29,-4.62191e-30,-2.6472400000000003e-29
237.0,1.37169e-28,-7.9805700000000003e-26,-7.9926800000000001e-26,-7.9807500000000001e-26,-2.69576e-29,-7.29831e-30,-2.5908800000000002e-29
238.0,1.3147499999999999e-28,-7.9809000000000005e-26,-7.9919099999999996e-26,-7.9807199999999996e-26,-3.0894500000000002e-29,-9.6240999999999997e-30,-2.4677700000000001e-29
239.0,1.5131199999999999e-28,-7.9798200000000006e-26,-7.9944599999999998e-26,-7.9804999999999994e-26,1.9456199999999999e-30,4.9889199999999997e-30,-2.7886699999999998e-29
240.0,1.60927e-28,-7.9791400000000005e-26,-7.9946799999999999e-26,-7.9799500000000002e-26,-3.2584100000000002e-30,3.0572e-30,-3.0969999999999999e-29
241.0,1.71697e-28,-7.9784000000000006e-26,-7.9948499999999999e-26,-7.9793800000000003e-26,-1.0382300000000001e-29,2.8504799999999999e-31,-3.46481e-29
242.0,1.7930200000000001e-28,-7.9779399999999995e-26,-7.9947499999999996e-26,-7.9788999999999996e-26,-1.9397900000000001e-29,-3.2761600000000003e-30,-3.7676300000000003e-29
243.0,1.81727e-28,-7.9778900000000005e-26,-7.9943399999999999e-26,-7.9786500000000001e-26,-2.8754099999999999e-29,-7.2591400000000003e-30,-3.8804099999999999e-29
244.0,1.7818799999999999e-28,-7.9782400000000003e-26,-7.9935300000000002e-26,-7.9785700000000006e-26,-3.6986999999999999e-29,-1.0902100000000001e-29,-3.8338499999999998e-29
245.0,1.71095e-28,-7.97894e-26,-7.9925999999999995e-26,-7.9786099999999998e-26,-4.3276399999999998e-29,-1.4208299999999999e-29,-3.6243299999999997e-29
246.0,3.7124299999999998e-29,-7.9891600000000001e-26,-7.9923200000000005e-26,-7.9891699999999999e-26,-1.1109800000000001e-29,1.6682900000000001e-30,7.6508599999999998e-31
247.0,3.6254299999999999e-29,-7.9889800000000003e-26,-7.9921799999999999e-26,-7.9890900000000004e-26,-1.03972e-29,6.59728e-31,-1.9695399999999999e-32
248.0,3.5786200000000002e-29,-7.9889399999999999e-26,-7.9920899999999994e-26,-7.9890099999999997e-26,-1.00941e-29,-2.3516299999999999e-31,-2.3032799999999999e-32
249.0,3.4015499999999998e-29,-7.9888200000000001e-26,-7.9918599999999995e-26,-7.9889399999999999e-26,-9.3493199999999994e-30,-9.5846099999999999e-31,-3.8180499999999999e-31
250.0,3.3161e-29,-7.9888100000000003e-26,-7.9917600000000004e-26,-7.9889200000000003e-26,-9.1328300000000003e-30,-2.0081999999999999e-30,2.91298e-32
251.0,2.9956500000000001e-29,-7.9888100000000003e-26,-7.9914700000000005e-26,-7.9888600000000004e-26,-7.9747300000000004e-30,-2.19888e-30,-1.3316300000000001e-31
252.0,2.9206999999999998e-29,-7.9888100000000003e-26,-7.9914100000000005e-26,-7.98888e-26,-7.3925599999999995e-30,-3.2048199999999998e-30,7.7152599999999998e-31
253.0,4.5397400000000001e-29,-7.9879299999999997e-26,-7.9921799999999999e-26,-7.9880399999999998e-26,-9.4704100000000003e-30,2.19291e-30,-2.1602199999999999e-30
254.0,4.5649300000000001e-29,-7.9878199999999996e-26,-7.9921100000000002e-26,-7.9879500000000004e-26,-9.4473600000000006e-30,1.06362e-30,-2.70392e-30
255.0,4.5629300000000001e-29,-7.9876399999999998e-26,-7.99195e-26,-7.9878199999999996e-26,-9.5225200000000006e-30,4.5471000000000001e-32,-2.96961e-30
256.0,4.4954399999999998e-29,-7.9875799999999999e-26,-7.9917999999999996e-26,-7.9877499999999999e-26,-9.6377600000000001e-30,-1.0958399999999999e-30,-3.1095699999999999e-30
257.0,4.3678400000000001e-29,-7.9875000000000003e-26,-7.9915599999999998e-26,-7.9876600000000006e-26,-9.6036100000000004e-30,-1.8700299999999999e-30,-3.1018499999999999e-30
258.0,4.18851e-29,-7.9875299999999997e-26,-7.9913899999999998e-26,-7.9876499999999996e-26,-9.4155099999999998e-30,-2.9505899999999999e-30,-2.5266599999999999e-30
259.0,3.8687600000000002e-29,-7.9875700000000001e-26,-7.9910599999999996e-26,-7.9876100000000004e-26,-8.9449300000000002e-30,-3.3294100000000001e-30,-2.5450399999999999e-30
260.0,5.70958e-29,-7.9866600000000001e-26,-7.9921799999999999e-26,-7.9868300000000001e-26,-7.7279299999999996e-30,2.7876200000000001e-30,-5.6725400000000002e-30
261.0,5.8105399999999999e-29,-7.9864599999999995e-26,-7.9921000000000004e-26,-7.9867100000000002e-26,-8.40905e-30,1.44181e-30,-6.1226499999999998e-30
262.0,5.8693699999999996e-29,-7.9863299999999999e-26,-7.9919900000000003e-26,-7.9866000000000002e-26,-9.20488e-30,1.3791099999999999e-31,-6.6836499999999995e-30
263.0,5.8724999999999996e-29,-7.9861799999999995e-26,-7.9917899999999998e-26,-7.9864599999999995e-26,-1.00877e-29,-1.1130799999999999e-30,-6.8775600000000004e-30
264.0,5.7539499999999998e-29,-7.9861500000000001e-26,-7.9915699999999996e-26,-7.9863999999999996e-26,-1.0779e-29,-2.38973e-30,-6.8044099999999997e-30
265.0,5.5668599999999996e-29,-7.9861500000000001e-26,-7.9912799999999997e-26,-7.9863200000000001e-26,-1.12847e-29,-3.3703100000000002e-30,-6.5578299999999994e-30
266.0,5.2650999999999996e-29,-7.9862299999999996e-26,-7.9910200000000004e-26,-7.9863299999999999e-26,-1.11646e-29,-4.4467899999999998e-30,-5.5145200000000001e-30
267.0,7.2267400000000002e-29,-7.9852400000000001e-26,-7.9922999999999998e-26,-7.9855399999999998e-26,-5.9253499999999997e-30,3.2837200000000003e-30,-9.8941700000000006e-30
268.0,7.3906799999999997e-29,-7.9850500000000005e-26,-7.9922599999999994e-26,-7.9854100000000001e-26,-7.4916899999999996e-30,1.68174e-30,-1.0565e-29
269.0,7.5277700000000003e-29,-7.9848200000000005e-26,-7.9921100000000002e-26,-7.9852300000000003e-26,-9.2788500000000001e-30,1.3974099999999999e-31,-1.11265e-29
270.0,7.5648699999999998e-29,-7.9846999999999995e-26,-7.9919200000000006e-26,-7.9850999999999995e-26,-1.10197e-29,-1.4330200000000001e-30,-1.15919e-29
271.0,7.5007399999999995e-29,-7.9846100000000002e-26,-7.9916400000000005e-26,-7.9849699999999998e-26,-1.2724500000000001e-29,-2.96851e-30,-1.15985e-29
272.0,7.2582799999999999e-29,-7.9846799999999999e-26,-7.9913200000000001e-26,-7.9849299999999995e-26,-1.3943099999999999e-29,-4.4020099999999997e-30,-1.11443e-29
273.0,6.95749e-29,-7.98479e-26,-7.9909600000000005e-26,-7.9848800000000005e-26,-1.4848799999999999e-29,-5.5567199999999997e-30,-1.0563500000000001e-29
274.0,9.1052499999999997e-29,-7.98371e-26,-7.9925899999999997e-26,-7.9841699999999999e-26,-4.2474900000000003e-30,3.6898000000000002e-30,-1.5239399999999999e-29
275.0,9.3324899999999998e-29,-7.9834800000000001e-26,-7.9925600000000003e-26,-7.9840199999999995e-26,-6.9010699999999996e-30,1.79929e-30,-1.5995799999999999e-29
276.0,9.56414e-29,-7.9832400000000003e-26,-7.9924500000000002e-26,-7.9838100000000003e-26,-9.7324799999999997e-30,-4.5504099999999998e-32,-1.7024499999999999e-29
277.0,9.6856100000000005e-29,-7.9830399999999998e-26,-7.9922200000000002e-26,-7.9836199999999995e-26,-1.27167e-29,-2.04215e-30,-1.7783400000000001e-29
278.0,9.6248399999999996e-29,-7.9829999999999994e-26,-7.9919099999999996e-26,-7.9834999999999997e-26,-1.54831e-29,-3.9731299999999997e-30,-1.80477e-29
279.0,9.4308299999999997e-29,-7.9830600000000005e-26,-7.9915300000000004e-26,-7.9834100000000003e-26,-1.7976099999999999e-29,-5.9327700000000003e-30,-1.76326e-29
280.0,8.9894899999999999e-29,-7.9832300000000005e-26,-7.9910200000000004e-26,-7.9834100000000003e-26,-1.95195e-29,-7.66407e-30,-1.6649899999999999e-29
281.0,1.12661e-28,-7.9821299999999998e-26,-7.9930399999999997e-26,-7.9827900000000002e-26,-2.8720000000000002e-30,3.96619e-30,-2.16035e-29
282.0,1.16201e-28,-7.9818100000000005e-26,-7.9930399999999997e-26,-7.9825799999999999e-26,-6.5936200000000006e-30,1.8909400000000002e-30,-2.2767100000000001e-29
283.0,1.1987200000000001e-28,-7.9814700000000005e-26,-7.9929199999999999e-26,-7.98229e-26,-1.06409e-29,-3.67696e-31,-2.44374e-29
284.0,1.2251600000000001e-28,-7.9812199999999998e-26,-7.9927099999999995e-26,-7.9820500000000003e-26,-1.50201e-29,-2.84233e-30,-2.5825000000000001e-29
285.0,1.2282700000000001e-28,-7.9811400000000003e-26,-7.9923300000000003e-26,-7.9818700000000005e-26,-1.95651e-29,-5.61689e-30,-2.6311299999999998e-29
286.0,1.2014700000000001e-28,-7.9812899999999996e-26,-7.9918300000000001e-26,-7.9818200000000003e-26,-2.33374e-29,-8.0863299999999996e-30,-2.5961399999999998e-29
287.0,1.16463e-28,-7.9815400000000002e-26,-7.9912699999999999e-26,-7.9817399999999996e-26,-2.6569800000000002e-29,-1.04891e-29,-2.4819099999999999e-29
288.0,1.3475e-28,-7.9806099999999995e-26,-7.9935599999999996e-26,-7.9815300000000004e-26,-1.5765199999999999e-30,4.3478199999999997e-30,-2.8523600000000002e-29
289.0,1.4189199999999999e-28,-7.9800999999999995e-26,-7.9936500000000001e-26,-7.9811599999999999e-26,-5.5573899999999997e-30,2.23906e-30,-3.1507700000000003e-29
290.0,1.5009500000000001e-28,-7.9795099999999999e-26,-7.9936699999999996e-26,-7.9807199999999996e-26,-1.11992e-29,-6.3963699999999996e-31,-3.4868499999999999e-29
291.0,1.55501e-28,-7.9791299999999996e-26,-7.9934700000000002e-26,-7.9803799999999996e-26,-1.7996599999999999e-29,-4.2956700000000002e-30,-3.7510400000000002e-29
292.0,1.5680500000000001e-28,-7.9790799999999994e-26,-7.9930399999999997e-26,-7.9802099999999996e-26,-2.48628e-29,-8.0785899999999997e-30,-3.8682699999999998e-29
293.0,1.5416999999999999e-28,-7.9792999999999996e-26,-7.9923800000000005e-26,-7.9801200000000002e-26,-3.1126699999999999e-29,-1.18782e-29,-3.79718e-29
294.0,1.4796699999999999e-28,-7.9797499999999997e-26,-7.9915300000000004e-26,-7.98013e-26,-3.5720299999999998e-29,-1.5281499999999999e-29,-3.6219499999999999e-29
295.0,3.51524e-29,-7.9892700000000002e-26,-7.9921600000000003e-26,-7.9893399999999999e-26,-1.1667e-29,1.06923e-30,1.39538e-30
296.0,3.4502199999999999e-29,-7.9891899999999995e-26,-7.9920799999999996e-26,-7.9892500000000006e-26,-1.1064500000000001e-29,1.95439e-31,1.2313800000000001e-30
297.0,3.2970499999999998e-29,-7.9890699999999996e-26,-7.9918999999999998e-26,-7.9892000000000004e-26,-1.02667e-29,-8.0331799999999998e-31,8.8887599999999997e-31
298.0,3.2093300000000001e-29,-7.9890199999999995e-26,-7.99178e-26,-7.9891600000000001e-26,-9.8375999999999994e-30,-1.7678599999999998e-30,1.04378e-30
299.0,2.9751599999999997e-29,-7.9889800000000003e-26,-7.9915599999999998e-26,-7.98911e-26,-8.7692299999999996e-30,-2.3793700000000002e-30,1.02603e-30
300.0,2.8820599999999998e-29,-7.9889399999999999e-26,-7.9914399999999999e-26,-7.98911e-26,-8.2240700000000004e-30,-3.3434700000000002e-30,1.5691400000000001e-30
301.0,2.52602e-29,-7.9889999999999999e-26,-7.9911599999999999e-26,-7.9890699999999996e-26,-6.8300100000000007e-30,-3.5032799999999999e-30,1.6500499999999999e-30
302.0,4.2169799999999998e-29,-7.9881699999999994e-26,-7.9920199999999997e-26,-7.9882599999999999e-26,-1.03049e-29,1.7148e-30,-1.4321000000000001e-30
303.0,4.20316e-29,-7.9880200000000002e-26,-7.9919200000000006e-26,-7.9882e-26,-1.0071499999999999e-29,5.45548e-31,-1.7731399999999999e-30
304.0,4.1492399999999999e-29,-7.9879299999999997e-26,-7.99178e-26,-7.9881300000000002e-26,-9.9228100000000002e-30,-6.1993900000000004e-31,-2.0798100000000001e-30
305.0,4.07039e-29,-7.9878199999999996e-26,-7.9916000000000001e-26,-7.9880499999999996e-26,-9.7426800000000006e-30,-1.6135200000000001e-30,-2.1172200000000001e-30
306.0,3.9435299999999997e-29,-7.9877900000000002e-26,-7.9914300000000001e-26,-7.9880100000000004e-26,-9.4850299999999995e-30,-2.7520099999999999e-30,-1.8845299999999999e-30
307.0,3.7400699999999999e-29,-7.9877599999999997e-26,-7.9911900000000004e-26,-7.9879500000000004e-26,-8.9967200000000004e-30,-3.4728700000000001e-30,-1.6628400000000001e-30
308.0,3.5690699999999998e-29,-7.9878e-26,-7.9910499999999998e-26,-7.9879500000000004e-26,-8.2225400000000004e-30,-4.35646e-30,-7.2855300000000004e-31
309.0,5.2312500000000001e-29,-7.9869300000000004e-26,-7.9919599999999998e-26,-7.9871600000000003e-26,-8.8222000000000005e-30,2.2130100000000002e-30,-4.9890799999999998e-30
310.0,5.2647200000000003e-29,-7.9868100000000005e-26,-7.9918700000000004e-26,-7.9870799999999996e-26,-9.1986100000000003e-30,8.7443800000000007e-31,-5.4683600000000002e-30
311.0,5.2810700000000003e-29,-7.9866500000000003e-26,-7.9917100000000002e-26,-7.9869800000000005e-26,-9.6720399999999999e-30,-4.6482599999999999e-31,-5.7378200000000002e-30
312.0,5.2315799999999994e-29,-7.98655e-26,-7.9915300000000004e-26,-7.98689e-26,-1.0102400000000001e-29,-1.7880799999999998e-30,-5.8867800000000003e-30
313.0,5.1306500000000004e-29,-7.9864800000000003e-26,-7.9913000000000005e-26,-7.9867999999999996e-26,-1.04355e-29,-2.9978099999999999e-30,-5.7510400000000003e-30
314.0,4.9493999999999998e-29,-7.9864900000000001e-26,-7.9910800000000003e-26,-7.9867700000000002e-26,-1.05067e-29,-4.1976600000000003e-30,-5.2148899999999999e-30
315.0,4.6669800000000001e-29,-7.9865300000000004e-26,-7.9907599999999999e-26,-7.98672e-26,-1.0319799999999999e-29,-5.05647e-30,-4.74607e-30
316.0,6.5528700000000005e-29,-7.9856300000000002e-26,-7.9920000000000001e-26,-7.9859899999999999e-26,-7.3524600000000001e-30,2.6757499999999999e-30,-9.44465e-30
317.0,6.6456699999999997e-29,-7.98547e-26,-7.9919200000000006e-26,-7.9859000000000005e-26,-8.5087699999999998e-30,1.07854e-30,-9.8902599999999995e-30
318.0,6.7110800000000003e-29,-7.9853099999999998e-26,-7.9917700000000002e-26,-7.9857900000000005e-26,-9.68525e-30,-5.2991999999999999e-31,-1.04455e-29
319.0,6.71909e-29,-7.9851600000000006e-26,-7.9915599999999998e-26,-7.9856599999999996e-26,-1.09025e-29,-2.1065999999999999e-30,-1.0722900000000001e-29
320.0,6.6248700000000003e-29,-7.9851200000000002e-26,-7.9913100000000003e-26,-7.9855800000000001e-26,-1.1968200000000001e-29,-3.6902299999999998e-30,-1.06804e-29
321.0,6.4429299999999997e-29,-7.9850999999999995e-26,-7.9910099999999994e-26,-7.9854899999999996e-26,-1.2746499999999999e-29,-5.1188400000000002e-30,-1.0236300000000001e-29
322.0,6.1244200000000003e-29,-7.9851999999999998e-26,-7.9907e-26,-7.9854999999999994e-26,-1.2951000000000001e-29,-6.4263999999999996e-30,-9.1849499999999999e-30
323.0,8.1841400000000005e-29,-7.98422e-26,-7.9921700000000001e-26,-7.9847800000000002e-26,-6.1213199999999998e-30,2.9662200000000001e-30,-1.4761800000000001e-29
324.0,8.3278900000000004e-29,-7.9840400000000002e-26,-7.9921000000000004e-26,-7.9846600000000003e-26,-8.0940699999999995e-30,1.1239899999999999e-30,-1.5316899999999999e-29
325.0,8.4562600000000003e-29,-7.9838200000000001e-26,-7.9919300000000004e-26,-7.9845000000000001e-26,-1.0174499999999999e-29,-7.6511800000000001e-31,-1.6069599999999999e-29
326.0,8.5104300000000002e-29,-7.9836699999999997e-26,-7.9917000000000004e-26,-7.9843599999999995e-26,-1.23045e-29,-2.6799700000000001e-30,-1.6613100000000001e-29
327.0,8.4507600000000001e-29,-7.9835900000000001e-26,-7.9913999999999996e-26,-7.9842399999999996e-26,-1.4257800000000001e-29,-4.6527600000000001e-30,-1.6695700000000001e-29
328.0,8.23885e-29,-7.9836300000000005e-26,-7.99104e-26,-7.9841899999999995e-26,-1.5910500000000001e-29,-6.5376000000000005e-30,-1.62335e-29
329.0,7.9077100000000003e-29,-7.9837600000000002e-26,-7.99064e-26,-7.9841299999999996e-26,-1.6986099999999999e-29,-8.1926800000000004e-30,-1.5233300000000001e-29
330.0,1.00406e-28,-7.9827699999999995e-26,-7.9924500000000002e-26,-7.9835800000000003e-26,-5.1230600000000001e-30,3.13823e-30,-2.0941200000000001e-29
331.0,1.02697e-28,-7.9825399999999995e-26,-7.9923900000000003e-26,-7.9834200000000001e-26,-7.9589399999999998e-30,1.09796e-30,-2.1934e-29
332.0,1.0522199999999999e-28,-7.9822700000000004e-26,-7.9922399999999998e-26,-7.9832199999999996e-26,-1.09461e-29,-1.1440100000000001e-30,-2.32514e-29
333.0,1.0684000000000001e-28,-7.9820500000000003e-26,-7.9919900000000003e-26,-7.98303e-26,-1.41677e-29,-3.5979699999999997e-30,-2.43308e-29
334.0,1.0660699999999999e-28,-7.9819900000000003e-26,-7.9916400000000005e-26,-7.9829100000000001e-26,-1.74195e-29,-6.1404699999999997e-30,-2.4721099999999999e-29
335.0,1.04581e-28,-7.9820400000000005e-26,-7.9912000000000002e-26,-7.9828299999999994e-26,-2.0155899999999999e-29,-8.6643100000000005e-30,-2.42243e-29
336.0,1.0026e-28,-7.9822300000000001e-26,-7.9906599999999996e-26,-7.9828299999999994e-26,-2.2113000000000001e-29,-1.09797e-29,-2.3032100000000001e-29
337.0,1.1874400000000001e-28,-7.9814499999999998e-26,-7.9927800000000004e-26,-7.9825299999999998e-26,-4.2985999999999999e-30,3.4099200000000002e-30,-2.7546099999999999e-29
338.0,1.2377500000000001e-28,-7.9810300000000002e-26,-7.9927499999999999e-26,-7.9822399999999999e-26,-7.4351900000000001e-30,1.31516e-30,-2.9841000000000002e-29
339.0,1.2912399999999999e-28,-7.9805600000000005e-26,-7.99263e-26,-7.98195e-26,-1.15132e-29,-1.46668e-30,-3.26043e-29
340.0,1.3239500000000001e-28,-7.9802599999999997e-26,-7.9923499999999999e-26,-7.98172e-26,-1.6437399999999999e-29,-4.7943400000000002e-30,-3.4528700000000002e-29
341.0,1.32792e-28,-7.9801700000000004e-26,-7.9919300000000004e-26,-7.9815799999999994e-26,-2.1248600000000001e-29,-8.3382699999999999e-30,-3.5183099999999999e-29
342.0,1.3007099999999999e-28,-7.9803299999999994e-26,-7.9913600000000004e-26,-7.9815300000000004e-26,-2.5556899999999999e-29,-1.1771e-29,-3.44886e-29
343.0,1.2529300000000001e-28,-7.9806499999999999e-26,-7.9907199999999996e-26,-7.9814700000000005e-26,-2.8837299999999999e-29,-1.4773800000000001e-29,-3.2479899999999998e-29
344.0,3.3900299999999997e-29,-7.98945e-26,-7.9920500000000002e-26,-7.9894400000000002e-26,-1.22255e-29,5.6769000000000001e-31,2.6597299999999999e-30
345.0,3.2471100000000001e-29,-7.9893300000000001e-26,-7.9919200000000006e-26,-7.9894300000000004e-26,-1.1433e-29,-5.1949999999999998e-31,2.2814599999999998e-30
346.0,3.14647e-29,-7.9892700000000002e-26,-7.9918100000000005e-26,-7.98939e-26,-1.0812099999999999e-29,-1.4402800000000001e-30,2.2585800000000001e-30
347.0,2.9512700000000001e-29,-7.98922e-26,-7.9916400000000005e-26,-7.9893599999999995e-26,-9.7683799999999997e-30,-2.3582400000000001e-30,2.33427e-30
348.0,2.8505599999999999e-29,-7.9891500000000003e-26,-7.9914999999999999e-26,-7.9893499999999997e-26,-9.1031899999999993e-30,-3.3064599999999999e-30,2.6662100000000001e-30
349.0,2.59451e-29,-7.9891699999999999e-26,-7.9913000000000005e-26,-7.9893100000000005e-26,-7.7168400000000004e-30,-3.8075199999999997e-30,2.8860100000000002e-30
350.0,2.52368e-29,-7.9891299999999995e-26,-7.9912199999999998e-26,-7.9893200000000003e-26,-6.7333200000000001e-30,-4.5943200000000003e-30,3.5784699999999998e-30
351.0,3.9508200000000003e-29,-7.9883500000000004e-26,-7.9918700000000004e-26,-7.9884800000000001e-26,-1.0994700000000001e-29,1.00052e-30,-4.2296299999999998e-31
352.0,3.8716600000000001e-29,-7.9882599999999999e-26,-7.9917500000000006e-26,-7.9884299999999999e-26,-1.06019e-29,-7.6725400000000004e-32,-7.4019200000000001e-31
353.0,3.8057900000000001e-29,-7.9881499999999998e-26,-7.9916099999999999e-26,-7.9883799999999998e-26,-1.02988e-29,-1.18596e-30,-7.9457800000000004e-31
354.0,3.69199e-29,-7.9880800000000001e-26,-7.9914499999999997e-26,-7.9883399999999994e-26,-9.8544099999999999e-30,-2.3650199999999998e-30,-7.1033900000000003e-31
355.0,3.5557899999999998e-29,-7.9880100000000004e-26,-7.9912500000000003e-26,-7.9882699999999997e-26,-9.3519900000000002e-30,-3.2942699999999997e-30,-4.8152899999999998e-31
356.0,3.4119199999999998e-29,-7.9880000000000006e-26,-7.9910999999999999e-26,-7.9882599999999999e-26,-8.6586599999999996e-30,-4.2967100000000001e-30,7.5091300000000001e-32
357.0,3.1497900000000002e-29,-7.9880100000000004e-26,-7.9908199999999998e-26,-7.9882300000000005e-26,-7.80067e-30,-4.9483800000000002e-30,5.2090400000000003e-31
358.0,4.7981799999999999e-29,-7.9871999999999995e-26,-7.9917399999999996e-26,-7.9874299999999995e-26,-9.6941999999999998e-30,1.5782000000000001e-30,-4.1515700000000001e-30
359.0,4.7991700000000001e-29,-7.9870899999999994e-26,-7.9916600000000001e-26,-7.9874000000000001e-26,-9.8472900000000002e-30,2.3432100000000002e-31,-4.3837700000000002e-30
360.0,4.75301e-29,-7.9869800000000005e-26,-7.9914999999999999e-26,-7.9873300000000003e-26,-9.9757100000000007e-30,-1.07587e-30,-4.6034899999999998e-30
361.0,4.6946800000000002e-29,-7.9868700000000004e-26,-7.9913200000000001e-26,-7.9872599999999995e-26,-1.01193e-29,-2.4196500000000001e-30,-4.5890899999999997e-30
362.0,4.5771599999999999e-29,-7.9868200000000003e-26,-7.9911099999999997e-26,-7.9872100000000005e-26,-1.00781e-29,-3.6987799999999998e-30,-4.33197e-30
363.0,4.40105e-29,-7.9867899999999998e-26,-7.9908600000000002e-26,-7.9871399999999996e-26,-9.8630700000000002e-30,-4.83264e-30,-3.8566699999999998e-30
364.0,4.1803300000000002e-29,-7.9868599999999995e-26,-7.9907e-26,-7.9871600000000003e-26,-9.2160399999999996e-30,-5.86202e-30,-2.77513e-30
365.0,5.9678999999999997e-29,-7.9859600000000005e-26,-7.9917399999999996e-26,-7.9863700000000002e-26,-8.4809600000000003e-30,1.9401699999999999e-30,-8.5745699999999997e-30
366.0,5.9918399999999998e-29,-7.9858299999999997e-26,-7.9916199999999997e-26,-7.9863200000000001e-26,-9.2199099999999996e-30,4.2898599999999998e-31,-8.8797700000000004e-30
367.0,5.99875e-29,-7.9856900000000002e-26,-7.9914499999999997e-26,-7.9862299999999996e-26,-1.00006e-29,-1.1099900000000001e-30,-9.1699200000000003e-30
368.0,5.9573699999999998e-29,-7.9855800000000001e-26,-7.9912500000000003e-26,-7.9861500000000001e-26,-1.06978e-29,-2.7262900000000001e-30,-9.2927299999999996e-30
369.0,5.8637599999999999e-29,-7.9854899999999996e-26,-7.9909899999999998e-26,-7.9860499999999998e-26,-1.13221e-29,-4.2539999999999998e-30,-9.0837500000000007e-30
370.0,5.6764600000000004e-29,-7.9855100000000004e-26,-7.9907400000000003e-26,-7.9860099999999995e-26,-1.16381e-29,-5.7448800000000001e-30,-8.4967000000000005e-30
371.0,5.3734200000000002e-29,-7.9855600000000005e-26,-7.9904199999999999e-26,-7.9859899999999999e-26,-1.15735e-29,-6.9955399999999996e-30,-7.5072300000000006e-30
372.0,7.4024100000000002e-29,-7.9846399999999996e-26,-7.9918100000000005e-26,-7.9852699999999995e-26,-7.4832699999999997e-30,2.1947200000000002e-30,-1.3783500000000001e-29
373.0,7.4682099999999995e-29,-7.9845000000000001e-26,-7.9917000000000004e-26,-7.9851999999999998e-26,-8.8688299999999999e-30,4.5688599999999996e-31,-1.4260400000000001e-29
374.0,7.5352099999999995e-29,-7.9843399999999999e-26,-7.9915400000000002e-26,-7.9850899999999997e-26,-1.0326e-29,-1.37214e-30,-1.4825699999999999e-29
375.0,7.5415700000000004e-29,-7.9842000000000004e-26,-7.9913000000000005e-26,-7.9849799999999996e-26,-1.17953e-29,-3.3021900000000002e-30,-1.5173800000000001e-29
376.0,7.4584499999999999e-29,-7.9841299999999996e-26,-7.9910200000000004e-26,-7.9849000000000001e-26,-1.3149899999999999e-29,-5.2312300000000003e-30,-1.51269e-29
377.0,7.2677300000000004e-29,-7.9841199999999998e-26,-7.9906800000000004e-26,-7.9848099999999996e-26,-1.4181299999999999e-29,-7.0862600000000005e-30,-1.4496899999999999e-29
378.0,6.8908000000000003e-29,-7.9842600000000004e-26,-7.9903400000000004e-26,-7.9848599999999997e-26,-1.4544799999999999e-29,-8.6731899999999999e-30,-1.31406e-29
379.0,8.9909999999999997e-29,-7.9833399999999995e-26,-7.9919699999999996e-26,-7.98422e-26,-6.75618e-30,2.34796e-30,-1.97221e-29
380.0,9.1428100000000004e-29,-7.9831300000000003e-26,-7.9918700000000004e-26,-7.9841000000000002e-26,-8.7498599999999999e-30,3.60498e-31,-2.0423300000000001e-29
381.0,9.2812500000000002e-29,-7.9829100000000001e-26,-7.9916699999999999e-26,-7.9839499999999998e-26,-1.09595e-29,-1.7059500000000002e-30,-2.1381499999999999e-29
382.0,9.35679e-29,-7.9827400000000001e-26,-7.9914200000000003e-26,-7.9838299999999999e-26,-1.3320200000000001e-29,-4.0806799999999997e-30,-2.2085e-29
383.0,9.2943000000000002e-29,-7.9826399999999998e-26,-7.9910700000000005e-26,-7.9837199999999998e-26,-1.5599199999999999e-29,-6.4943200000000004e-30,-2.2111399999999999e-29
384.0,9.0606399999999998e-29,-7.9826999999999998e-26,-7.9906700000000006e-26,-7.9836799999999995e-26,-1.75187e-29,-8.8578699999999994e-30,-2.1479700000000001e-29
385.0,8.6663300000000002e-29,-7.9828699999999998e-26,-7.9902400000000001e-26,-7.9836400000000003e-26,-1.86682e-29,-1.0970900000000001e-29,-1.9844900000000001e-29
386.0,1.0543299999999999e-28,-7.9821399999999996e-26,-7.9921600000000003e-26,-7.9833000000000003e-26,-6.2664199999999999e-30,2.3450399999999999e-30,-2.5626200000000002e-29
387.0,1.08428e-28,-7.9818399999999999e-26,-7.99206e-26,-7.9831499999999999e-26,-8.4002100000000005e-30,4.4824699999999998e-31,-2.7434100000000001e-29
388.0,1.1178399999999999e-28,-7.9814800000000003e-26,-7.9918800000000002e-26,-7.9829399999999995e-26,-1.15297e-29,-2.0818200000000001e-30,-2.9199499999999998e-29
389.0,1.13526e-28,-7.9812400000000006e-26,-7.9915800000000006e-26,-7.9827800000000004e-26,-1.4994600000000001e-29,-5.0765500000000003e-30,-3.0551699999999998e-29
390.0,1.1317800000000001e-28,-7.9811799999999995e-26,-7.9912000000000002e-26,-7.9826999999999998e-26,-1.8389199999999999e-29,-8.3107699999999999e-30,-3.0835999999999998e-29
391.0,1.1074099999999999e-28,-7.9812600000000002e-26,-7.9907099999999998e-26,-7.98263e-26,-2.13121e-29,-1.13462e-29,-2.9871399999999999e-29
392.0,1.05538e-28,-7.9815300000000004e-26,-7.9901499999999996e-26,-7.9826700000000004e-26,-2.3262099999999999e-29,-1.41007e-29,-2.79661e-29
393.0,3.2716899999999998e-29,-7.98956e-26,-7.9919300000000004e-26,-7.9896000000000004e-26,-1.26131e-29,-2.0103899999999998e-31,3.5552500000000001e-30
394.0,3.1803499999999998e-29,-7.9895000000000001e-26,-7.9918399999999999e-26,-7.98956e-26,-1.2051e-29,-1.03831e-30,3.49285e-30
395.0,2.9950400000000002e-29,-7.9894599999999998e-26,-7.9917000000000004e-26,-7.98956e-26,-1.10035e-29,-2.0615000000000001e-30,3.7030300000000003e-30
396.0,2.8860599999999999e-29,-7.9893700000000004e-26,-7.99155e-26,-7.9895400000000004e-26,-1.02834e-29,-3.0901099999999999e-30,3.9071999999999997e-30
397.0,2.6807300000000001e-29,-7.9893700000000004e-26,-7.9913999999999996e-26,-7.9895299999999995e-26,-8.8694300000000002e-30,-3.9061599999999998e-30,4.2377900000000002e-30
398.0,2.5978400000000003e-29,-7.98928e-26,-7.9912600000000001e-26,-7.9895199999999997e-26,-7.94797e-30,-4.7592900000000001e-30,4.7621500000000001e-30
399.0,2.3510400000000001e-29,-7.9893100000000005e-26,-7.9910499999999998e-26,-7.9895000000000001e-26,-6.3506699999999998e-30,-5.1369600000000002e-30,5.1175300000000001e-30
400.0,3.7264200000000001e-29,-7.9885200000000004e-26,-7.99172e-26,-7.9886199999999995e-26,-1.14737e-29,4.76838e-31,4.9884400000000002e-31
401.0,3.6514699999999999e-29,-7.9884499999999995e-26,-7.9916299999999995e-26,-7.9886199999999995e-26,-1.11493e-29,-6.1533899999999998e-31,5.1171099999999996e-31
402.0,3.5370800000000002e-29,-7.98837e-26,-7.9914800000000003e-26,-7.9885999999999999e-26,-1.06288e-29,-1.7620699999999998e-30,5.5854699999999998e-31
403.0,3.4209699999999997e-29,-7.98831e-26,-7.9913200000000001e-26,-7.9885499999999998e-26,-1.0043000000000001e-29,-2.9131900000000002e-30,7.5760999999999999e-31
404.0,3.30379e-29,-7.9882400000000003e-26,-7.9911699999999997e-26,-7.98854e-26,-9.2918500000000005e-30,-4.0952000000000001e-30,1.17323e-30
405.0,3.12966e-29,-7.9882e-26,-7.9909499999999995e-26,-7.9884899999999999e-26,-8.4113500000000002e-30,-4.9352099999999998e-30,1.6531000000000002e-30
406.0,2.9930400000000002e-29,-7.9882500000000001e-26,-7.9908600000000002e-26,-7.9885099999999994e-26,-7.2025799999999996e-30,-5.7876800000000001e-30,2.57481e-30
407.0,4.4856e-29,-7.9874099999999999e-26,-7.9916000000000001e-26,-7.9876600000000006e-26,-1.0362500000000001e-29,9.1974900000000007e-31,-3.19084e-30
408.0,4.41045e-29,-7.9873200000000005e-26,-7.9914599999999995e-26,-7.98763e-26,-1.0315e-29,-2.0615699999999999e-31,-3.2710799999999998e-30
409.0,4.3460100000000001e-29,-7.9872200000000003e-26,-7.9913100000000003e-26,-7.9875899999999997e-26,-1.0302400000000001e-29,-1.5842200000000002e-30,-3.2538700000000002e-30
410.0,4.2505999999999998e-29,-7.9871299999999998e-26,-7.9911199999999995e-26,-7.9875399999999995e-26,-1.01129e-29,-2.9720599999999999e-30,-3.08304e-30
411.0,4.1362100000000001e-29,-7.9870500000000003e-26,-7.9909100000000003e-26,-7.9874900000000005e-26,-9.8342199999999995e-30,-4.3431099999999997e-30,-2.6922799999999999e-30
412.0,3.9921100000000001e-29,-7.9870299999999995e-26,-7.9907300000000005e-26,-7.98746e-26,-9.3568299999999996e-30,-5.4782099999999997e-30,-2.0065399999999998e-30
413.0,3.73518e-29,-7.9870500000000003e-26,-7.9904500000000004e-26,-7.9874400000000004e-26,-8.6344300000000006e-30,-6.4739200000000001e-30,-1.1598099999999999e-30
414.0,5.5132999999999996e-29,-7.9862000000000002e-26,-7.9915099999999997e-26,-7.9866400000000005e-26,-9.2067499999999999e-30,1.3687899999999999e-30,-7.6535999999999996e-30
415.0,5.48508e-29,-7.9861099999999997e-26,-7.9913899999999998e-26,-7.9866199999999998e-26,-9.7005900000000004e-30,-3.6867600000000002e-32,-7.8242200000000004e-30
416.0,5.4440500000000005e-29,-7.9859999999999997e-26,-7.9912199999999998e-26,-7.9865699999999996e-26,-1.0128e-29,-1.5792100000000001e-30,-7.9510000000000007e-30
417.0,5.3789500000000002e-29,-7.9858799999999998e-26,-7.9909999999999996e-26,-7.9864900000000001e-26,-1.0534e-29,-3.2561399999999999e-30,-7.9153500000000003e-30
418.0,5.2742800000000002e-29,-7.9858100000000001e-26,-7.9907799999999995e-26,-7.9864499999999997e-26,-1.07476e-29,-4.9142299999999998e-30,-7.5638200000000004e-30
419.0,5.0937399999999999e-29,-7.9857699999999997e-26,-7.9905000000000006e-26,-7.98638e-26,-1.07921e-29,-6.3282000000000005e-30,-6.7925300000000002e-30
420.0,4.8168900000000001e-29,-7.9859000000000005e-26,-7.9903099999999998e-26,-7.9864200000000004e-26,-1.02845e-29,-7.5882699999999999e-30,-5.4020199999999997e-30
421.0,6.8206000000000003e-29,-7.98496e-26,-7.99155e-26,-7.9856300000000002e-26,-8.3513699999999999e-30,1.53536e-30,-1.2904500000000001e-29
422.0,6.8144900000000002e-29,-7.9848300000000003e-26,-7.9913899999999998e-26,-7.9855800000000001e-26,-9.3106799999999996e-30,3.7209199999999999e-32,-1.31603e-29
423.0,6.8064600000000002e-29,-7.9846899999999997e-26,-7.9911900000000004e-26,-7.9855100000000004e-26,-1.03228e-29,-1.7807200000000001e-30,-1.3509700000000001e-29
424.0,6.7741099999999998e-29,-7.9845600000000001e-26,-7.9909499999999995e-26,-7.9854299999999997e-26,-1.1344400000000001e-29,-3.7475200000000002e-30,-1.3655800000000001e-29
425.0,6.67162e-29,-7.9844599999999998e-26,-7.9906599999999996e-26,-7.9853500000000002e-26,-1.22127e-29,-5.7617199999999999e-30,-1.33415e-29
426.0,6.4687899999999996e-29,-7.9844699999999996e-26,-7.9903699999999997e-26,-7.9853199999999996e-26,-1.2852100000000001e-29,-7.5343600000000001e-30,-1.24972e-29
427.0,6.1164299999999996e-29,-7.9845699999999999e-26,-7.9900199999999999e-26,-7.9853099999999998e-26,-1.2951399999999999e-29,-9.1505300000000007e-30,-1.09909e-29
428.0,8.2583399999999995e-29,-7.98371e-26,-7.9916199999999997e-26,-7.9846500000000005e-26,-7.7618200000000003e-30,1.67839e-30,-1.8476000000000001e-29
429.0,8.3156499999999999e-29,-7.9835700000000005e-26,-7.9914800000000003e-26,-7.9845899999999995e-26,-9.0885300000000003e-30,-2.4162199999999998e-33,-1.9257299999999999e-29
430.0,8.4035599999999998e-29,-7.9833799999999998e-26,-7.9912899999999995e-26,-7.9845000000000001e-26,-1.0755100000000001e-29,-2.1627399999999999e-30,-2.0024799999999999e-29
431.0,8.4139199999999997e-29,-7.9832e-26,-7.9909999999999996e-26,-7.98439e-26,-1.2533299999999999e-29,-4.5044400000000001e-30,-2.0424e-29
432.0,8.3330499999999996e-29,-7.9831400000000001e-26,-7.9907e-26,-7.9843300000000001e-26,-1.42349e-29,-6.9790799999999997e-30,-2.0295400000000001e-29
433.0,8.1062300000000003e-29,-7.9831400000000001e-26,-7.9903099999999998e-26,-7.9842600000000004e-26,-1.5587700000000001e-29,-9.2459399999999995e-30,-1.9285700000000001e-29
434.0,7.6545799999999994e-29,-7.9833399999999995e-26,-7.9899400000000004e-26,-7.9843200000000003e-26,-1.6094899999999999e-29,-1.10801e-29,-1.7358900000000001e-29
435.0,9.5074099999999997e-29,-7.9827099999999996e-26,-7.99172e-26,-7.9839300000000002e-26,-7.0132599999999999e-30,1.76379e-30,-2.39813e-29
436.0,9.7722600000000003e-29,-7.9824199999999997e-26,-7.9916199999999997e-26,-7.9837400000000006e-26,-8.9327900000000004e-30,-7.0285e-32,-2.5046699999999999e-29
437.0,9.9446300000000004e-29,-7.9821600000000003e-26,-7.9913899999999998e-26,-7.9836199999999995e-26,-1.1317200000000001e-29,-2.4893499999999998e-30,-2.6503299999999998e-29
438.0,1.00253e-28,-7.9819599999999998e-26,-7.9910900000000001e-26,-7.9835099999999995e-26,-1.38762e-29,-5.3361300000000002e-30,-2.73012e-29
439.0,9.9315300000000005e-29,-7.9818599999999995e-26,-7.9906900000000002e-26,-7.9834399999999997e-26,-1.6349599999999999e-29,-8.3388799999999995e-30,-2.7059200000000002e-29
440.0,9.6476399999999997e-29,-7.98195e-26,-7.9902599999999997e-26,-7.9834200000000001e-26,-1.84728e-29,-1.10179e-29,-2.5936399999999999e-29
441.0,9.1884299999999996e-29,-7.9821700000000001e-26,-7.9898099999999996e-26,-7.9833799999999998e-26,-1.9697199999999999e-29,-1.35215e-29,-2.3607900000000001e-29
442.0,2.83759e-28,-7.9750399999999996e-26,-7.99672e-26,-7.9722300000000001e-26,-8.5714199999999998e-29,-1.4233300000000001e-29,-3.65262e-29
443.0,4.02195e-28,-7.97229e-26,-7.9998400000000001e-26,-7.9670799999999997e-26,-1.36466e-28,-2.6594399999999998e-29,-5.9955499999999999e-29
444.0,3.0506799999999999e-28,-7.9731699999999995e-26,-7.9992600000000003e-26,-7.9717700000000002e-26,-7.2573899999999996e-29,-1.08928e-29,-4.0892200000000002e-29
445.0,4.4646499999999997e-28,-7.96826e-26,-8.0045400000000004e-26,-7.9658100000000001e-26,-1.1796200000000001e-28,-2.16551e-29,-7.0913999999999995e-29
446.0,3.1266499999999999e-28,-7.9719300000000004e-26,-8.0008500000000004e-26,-7.9717299999999999e-26,-5.1378699999999997e-29,-6.7572700000000003e-30,-4.28355e-29
447.0,4.5749900000000002e-28,-7.9657900000000005e-26,-8.0075100000000001e-26,-7.9658000000000003e-26,-7.8247099999999999e-29,-1.2305e-29,-7.4080199999999999e-29
448.0,3.0389700000000001e-28,-7.9718599999999995e-26,-8.0012799999999997e-26,-7.97235e-26,-2.6786800000000001e-29,-1.53967e-30,-4.1067299999999998e-29
449.0,4.29265e-28,-7.9659700000000003e-26,-8.0074500000000001e-26,-7.9670600000000001e-26,-3.03097e-29,-2.3605100000000001e-30,-6.7763800000000003e-29
450.0,2.7840800000000001e-28,-7.97303e-26,-8.0004100000000001e-26,-7.9735699999999994e-26,-4.0208500000000001e-30,2.56422e-30,-3.6221000000000002e-29
451.0,3.7284699999999999e-28,-7.9684700000000003e-26,-8.0049e-26,-7.9693100000000006e-26,6.7900200000000002e-30,5.1090599999999997e-30,-5.5035600000000002e-29
452.0,2.45093e-28,-7.9748599999999998e-26,-7.99888e-26,-7.9751399999999998e-26,1.01757e-29,5.3047300000000003e-30,-2.9730599999999998e-29
453.0,3.05878e-28,-7.9721100000000002e-26,-8.0014999999999998e-26,-7.9721999999999996e-26,2.6249699999999998e-29,8.6320900000000005e-30,-4.14532e-29
454.0,2.1213799999999999e-28,-7.9767999999999996e-26,-7.9973200000000005e-26,-7.9767100000000003e-26,1.70557e-29,6.4369800000000003e-30,-2.4038699999999999e-29
455.0,2.4229299999999999e-28,-7.9755899999999999e-26,-7.9984100000000003e-26,-7.9750999999999995e-26,2.9624900000000001e-29,9.2262600000000004e-30,-2.9503199999999998e-29
456.0,2.56672e-28,-7.9757400000000003e-26,-7.9951399999999998e-26,-7.9741799999999997e-26,-7.42529e-29,-1.9663599999999999e-29,-4.9261499999999998e-29
457.0,3.5464599999999998e-28,-7.9730200000000002e-26,-7.9969099999999996e-26,-7.9704299999999997e-26,-1.13348e-28,-3.72322e-29,-7.9837600000000001e-29
458.0,2.7234099999999998e-28,-7.9741299999999996e-26,-7.9970400000000004e-26,-7.9738399999999997e-26,-6.2098399999999998e-29,-1.5432200000000001e-29,-5.38463e-29
459.0,3.9028499999999999e-28,-7.9699500000000003e-26,-8.0006999999999999e-26,-7.96979e-26,-9.7891799999999998e-29,-2.9593000000000001e-29,-9.2850300000000004e-29
460.0,2.7787399999999998e-28,-7.97326e-26,-7.9984000000000005e-26,-7.9738700000000003e-26,-4.5089800000000002e-29,-9.6612000000000003e-30,-5.5285400000000004e-29
461.0,3.9955800000000001e-28,-7.9679500000000005e-26,-8.0031499999999998e-26,-7.9697399999999999e-26,-6.5581400000000002e-29,-1.7774699999999999e-29,-9.6388200000000004e-29
462.0,2.6939299999999999e-28,-7.9733199999999999e-26,-7.99882e-26,-7.9744199999999995e-26,-2.5137599999999999e-29,-3.4930699999999998e-30,-5.2534499999999999e-29
463.0,3.78702e-28,-7.9680800000000002e-26,-8.0034700000000002e-26,-7.9704799999999999e-26,-2.7732899999999998e-29,-4.9022400000000002e-30,-8.8870099999999996e-29
464.0,2.4969300000000001e-28,-7.9742600000000004e-26,-7.9983799999999998e-26,-7.9753299999999995e-26,-7.2589900000000002e-30,1.71681e-30,-4.6411700000000001e-29
465.0,3.3393999999999999e-28,-7.9701800000000002e-26,-8.0019400000000001e-26,-7.9720699999999999e-26,2.97598e-30,4.8918899999999999e-30,-7.3481099999999997e-29
466.0,2.2251999999999999e-28,-7.9758899999999996e-26,-7.9974e-26,-7.97661e-26,5.6253900000000002e-30,5.4051899999999998e-30,-3.8922300000000001e-29
467.0,2.78697e-28,-7.9731300000000003e-26,-7.9994499999999999e-26,-7.9741000000000002e-26,1.9511300000000001e-29,9.7117300000000002e-30,-5.6012099999999995e-29
468.0,1.95358e-28,-7.9775100000000002e-26,-7.9962899999999995e-26,-7.9778699999999998e-26,1.14037e-29,7.0520299999999998e-30,-3.18202e-29
469.0,2.2458600000000002e-28,-7.9761799999999995e-26,-7.9971399999999996e-26,-7.9763999999999996e-26,2.3748600000000001e-29,1.10827e-29,-4.0493800000000001e-29
470.0,2.2368299999999998e-28,-7.9766500000000003e-26,-7.99337e-26,-7.9763399999999997e-26,-6.1065e-29,-2.2745200000000001e-29,-5.4167600000000005e-29
471.0,2.9467899999999998e-28,-7.9742200000000001e-26,-7.9939999999999999e-26,-7.9741899999999995e-26,-8.6758100000000004e-29,-3.9149399999999999e-29,-8.2602400000000002e-29
472.0,2.35898e-28,-7.9755399999999998e-26,-7.9949500000000002e-26,-7.9762199999999998e-26,-5.1630300000000005e-29,-1.77474e-29,-5.8584900000000002e-29
473.0,3.2165500000000002e-28,-7.9718599999999995e-26,-7.9965400000000002e-26,-7.9737899999999996e-26,-7.4561799999999995e-29,-3.1542099999999999e-29,-9.5370999999999997e-29
474.0,2.4047e-28,-7.9748699999999996e-26,-7.9960599999999996e-26,-7.9762600000000002e-26,-3.8431299999999997e-29,-1.15375e-29,-6.0107000000000004e-29
475.0,3.2993800000000001e-28,-7.9704700000000001e-26,-7.9984399999999997e-26,-7.9737399999999994e-26,-5.18611e-29,-1.9331600000000001e-29,-9.9219399999999997e-29
476.0,2.3463799999999998e-28,-7.9749199999999997e-26,-7.9965800000000005e-26,-7.9765900000000004e-26,-2.3202799999999999e-29,-5.0851000000000003e-30,-5.71203e-29
477.0,3.1682100000000002e-28,-7.9706099999999995e-26,-7.9990900000000003e-26,-7.9741400000000005e-26,-2.4786899999999999e-29,-6.4316600000000001e-30,-9.3280400000000003e-29
478.0,2.1920699999999999e-28,-7.9757199999999996e-26,-7.9964399999999999e-26,-7.9772700000000004e-26,-9.0664899999999999e-30,6.5280600000000002e-31,-5.1103000000000003e-29
479.0,2.8552200000000002e-28,-7.9721600000000004e-26,-7.9984899999999998e-26,-7.9750100000000002e-26,-1.7730000000000001e-30,3.8836699999999999e-30,-7.9235200000000005e-29
480.0,1.97888e-28,-7.9769900000000003e-26,-7.9958500000000004e-26,-7.9781900000000002e-26,1.1621700000000001e-30,4.7960500000000001e-30,-4.3374e-29
481.0,2.4423900000000001e-28,-7.9745299999999995e-26,-7.9971399999999996e-26,-7.9763299999999999e-26,1.2049100000000001e-29,9.8076999999999995e-30,-6.2146399999999999e-29
482.0,1.7587200000000001e-28,-7.9783500000000004e-26,-7.9951100000000004e-26,-7.9791699999999999e-26,6.4960499999999995e-30,7.0028300000000007e-30,-3.5891600000000002e-29
483.0,2.0143999999999999e-28,-7.9770899999999995e-26,-7.9956700000000006e-26,-7.9779600000000003e-26,1.6448199999999999e-29,1.16623e-29,-4.6186799999999997e-29
484.0,1.8748100000000001e-28,-7.9777699999999995e-26,-7.9917999999999996e-26,-7.9784800000000001e-26,-4.78566e-29,-2.2469499999999999e-29,-5.1687499999999996e-29
485.0,2.3472000000000001e-28,-7.9757e-26,-7.9917500000000006e-26,-7.9773400000000002e-26,-6.2874500000000004e-29,-3.5030000000000001e-29,-7.3369600000000004e-29
486.0,1.9635000000000001e-28,-7.9770000000000001e-26,-7.9929500000000004e-26,-7.9784999999999997e-26,-4.0871000000000001e-29,-1.7701e-29,-5.5755500000000004e-29
487.0,2.54054e-28,-7.97411e-26,-7.9933899999999996e-26,-7.9771399999999996e-26,-5.4558400000000005e-29,-2.8338400000000002e-29,-8.3588200000000003e-29
488.0,2.00678e-28,-7.9765099999999997e-26,-7.9938499999999995e-26,-7.9784999999999997e-26,-3.1702699999999998e-29,-1.20886e-29,-5.7102800000000001e-29
489.0,2.61564e-28,-7.9732099999999998e-26,-7.99479e-26,-7.9771399999999996e-26,-3.97854e-29,-1.7999199999999999e-29,-8.76676e-29
490.0,1.97432e-28,-7.9766000000000002e-26,-7.9944300000000004e-26,-7.9787199999999998e-26,-2.0755500000000001e-29,-5.7983800000000002e-30,-5.5149600000000002e-29
491.0,2.5480900000000002e-28,-7.9732500000000002e-26,-7.9955200000000001e-26,-7.9772999999999998e-26,-2.18935e-29,-7.2007499999999996e-30,-8.3926300000000005e-29
492.0,1.8682499999999999e-28,-7.9772200000000003e-26,-7.9945500000000002e-26,-7.9791500000000003e-26,-1.0422200000000001e-29,-4.38251e-31,-5.0065300000000002e-29
493.0,2.3540499999999998e-28,-7.9743300000000001e-26,-7.9955100000000003e-26,-7.97769e-26,-5.7524000000000003e-30,2.1484100000000002e-30,-7.3989200000000001e-29
494.0,1.71634e-28,-7.9782099999999998e-26,-7.9943399999999999e-26,-7.9797700000000004e-26,-2.6608099999999999e-30,3.8262200000000001e-30,-4.3375300000000002e-29
495.0,2.07277e-28,-7.9761199999999996e-26,-7.9949799999999996e-26,-7.9784700000000003e-26,4.8973099999999997e-30,8.0854300000000006e-30,-6.0552900000000001e-29
496.0,1.55064e-28,-7.9793300000000001e-26,-7.9939800000000003e-26,-7.9804899999999996e-26,1.8756599999999999e-30,6.2312800000000002e-30,-3.6669900000000001e-29
497.0,1.7562399999999999e-28,-7.9781400000000001e-26,-7.9942100000000002e-26,-7.9795799999999997e-26,9.2447099999999997e-30,1.04968e-29,-4.6728000000000002e-29
498.0,1.5292899999999999e-28,-7.9790300000000004e-26,-7.9906499999999998e-26,-7.9804100000000001e-26,-3.6560299999999999e-29,-2.0626e-29,-4.4792499999999997e-29
499.0,1.8314000000000001e-28,-7.9773300000000004e-26,-7.9902900000000002e-26,-7.97962e-26,-4.4913299999999997e-29,-2.8680200000000001e-29,-5.9636799999999997e-29
500.0,1.6044099999999999e-28,-7.9784800000000001e-26,-7.9915300000000004e-26,-7.9803799999999996e-26,-3.20305e-29,-1.6325099999999999e-29,-4.8108799999999998e-29
501.0,1.96907e-28,-7.9763200000000001e-26,-7.9913700000000002e-26,-7.97962e-26,-3.9632599999999999e-29,-2.35588e-29,-6.7380300000000002e-29
502.0,1.64258e-28,-7.9781800000000004e-26,-7.9922599999999994e-26,-7.9804000000000003e-26,-2.5867499999999999e-29,-1.146e-29,-4.9670300000000001e-29
503.0,2.0347500000000002e-28,-7.9757099999999998e-26,-7.9923800000000005e-26,-7.9796500000000005e-26,-3.0373e-29,-1.5688600000000001e-29,-7.10068e-29
504.0,1.63158e-28,-7.9782199999999996e-26,-7.9927900000000002e-26,-7.9805200000000002e-26,-1.84326e-29,-6.1790299999999998e-30,-4.8588400000000002e-29
505.0,2.00832e-28,-7.9757699999999997e-26,-7.9930499999999995e-26,-7.9796999999999995e-26,-1.90511e-29,-7.2992500000000002e-30,-6.9473700000000002e-29
506.0,1.5662400000000001e-28,-7.9787000000000002e-26,-7.9930600000000005e-26,-7.9807900000000005e-26,-1.11674e-29,-1.33081e-30,-4.5019499999999999e-29
507.0,1.9006500000000001e-28,-7.9764700000000005e-26,-7.9933299999999996e-26,-7.9798699999999995e-26,-8.4968999999999996e-30,3.0724300000000001e-31,-6.3413700000000006e-29
508.0,1.4646800000000001e-28,-7.9794599999999998e-26,-7.9930899999999999e-26,-7.9811900000000004e-26,-5.4158300000000002e-30,2.5148700000000001e-30,-4.00948e-29
509.0,1.7230799999999999e-28,-7.9777099999999996e-26,-7.9932699999999997e-26,-7.9803e-26,-7.0217099999999996e-31,5.7156900000000001e-30,-5.4035799999999998e-29
510.0,1.3476100000000001e-28,-7.9803099999999998e-26,-7.99297e-26,-7.9817100000000002e-26,-1.9904400000000002e-30,4.95748e-30,-3.4726300000000001e-29
511.0,1.5023800000000001e-28,-7.9792899999999998e-26,-7.9929899999999996e-26,-7.9810599999999996e-26,3.2299599999999999e-30,8.4851599999999996e-30,-4.3424900000000002e-29
512.0,1.24402e-28,-7.9802099999999996e-26,-7.98996e-26,-7.9817999999999996e-26,-2.8090500000000001e-29,-1.7861800000000001e-29,-3.62031e-29
513.0,1.4192299999999999e-28,-7.9790099999999997e-26,-7.9895400000000004e-26,-7.9814100000000006e-26,-3.2374999999999998e-29,-2.31505e-29,-4.5667100000000002e-29
514.0,1.3080599999999999e-28,-7.9798300000000004e-26,-7.9905999999999997e-26,-7.9818499999999997e-26,-2.52699e-29,-1.4695e-29,-3.9646699999999997e-29
515.0,1.51929e-28,-7.9783000000000003e-26,-7.9902599999999997e-26,-7.9813899999999998e-26,-2.9189899999999998e-29,-1.8846100000000001e-29,-5.1319999999999996e-29
516.0,1.3459499999999999e-28,-7.9796100000000002e-26,-7.9911799999999995e-26,-7.9818399999999999e-26,-2.1216799999999999e-29,-1.0550400000000001e-29,-4.1303000000000002e-29
517.0,1.5709900000000001e-28,-7.9779399999999995e-26,-7.9909700000000003e-26,-7.98144e-26,-2.3488599999999999e-29,-1.3221399999999999e-29,-5.4364100000000005e-29
518.0,1.3469500000000001e-28,-7.9796899999999997e-26,-7.9916899999999995e-26,-7.9819400000000002e-26,-1.6270399999999999e-29,-6.09812e-30,-4.0969299999999998e-29
519.0,1.57137e-28,-7.9779600000000003e-26,-7.9915099999999997e-26,-7.9814499999999998e-26,-1.65417e-29,-6.8826400000000002e-30,-5.4353099999999997e-29
520.0,1.31238e-28,-7.9800299999999998e-26,-7.9920000000000001e-26,-7.9820899999999995e-26,-1.1245400000000001e-29,-1.9201999999999999e-30,-3.8872800000000002e-29
521.0,1.51862e-28,-7.9784299999999999e-26,-7.9919200000000006e-26,-7.9815400000000002e-26,-9.8051600000000003e-30,-1.0500000000000001e-30,-5.1019800000000003e-29
522.0,1.2494e-28,-7.9805700000000003e-26,-7.9921700000000001e-26,-7.9823499999999999e-26,-7.2879000000000007e-30,1.4606e-30,-3.52994e-29
523.0,1.41935e-28,-7.97928e-26,-7.9921000000000004e-26,-7.98178e-26,-4.2107700000000002e-30,3.6464700000000003e-30,-4.5455000000000001e-29
524.0,1.17088e-28,-7.9812299999999996e-26,-7.9921999999999995e-26,-7.98269e-26,-4.6092400000000003e-30,3.7500500000000001e-30,-3.1361800000000002e-29
525.0,1.27761e-28,-7.9804100000000001e-26,-7.9921000000000004e-26,-7.9823099999999996e-26,-1.27033e-30,6.3083799999999999e-30,-3.8282199999999999e-29
526.0,1.03533e-28,-7.9812400000000006e-26,-7.9895899999999994e-26,-7.9828900000000005e-26,-2.24462e-29,-1.5987100000000001e-29,-2.9273400000000001e-29
527.0,1.1108399999999999e-28,-7.9805200000000002e-26,-7.9892700000000002e-26,-7.98263e-26,-2.39132e-29,-1.8237399999999999e-29,-3.3482799999999999e-29
528.0,1.09378e-28,-7.9809399999999997e-26,-7.9901399999999998e-26,-7.9828500000000002e-26,-2.07112e-29,-1.3121999999999999e-29,-3.2042899999999999e-29
529.0,1.1800599999999999e-28,-7.9800500000000005e-26,-7.9897200000000003e-26,-7.98269e-26,-2.20149e-29,-1.5298000000000001e-29,-3.77353e-29
530.0,1.1246899999999999e-28,-7.9808299999999997e-26,-7.9906099999999995e-26,-7.9829000000000003e-26,-1.79847e-29,-9.6352199999999995e-30,-3.3804500000000002e-29
531.0,1.2249e-28,-7.97979e-26,-7.9902200000000005e-26,-7.9826800000000002e-26,-1.8685e-29,-1.10032e-29,-4.0343300000000001e-29
532.0,1.1338399999999999e-28,-7.98087e-26,-7.9910300000000002e-26,-7.9829500000000004e-26,-1.4684000000000001e-29,-5.9124800000000002e-30,-3.3940299999999998e-29
533.0,1.23436e-28,-7.97985e-26,-7.9907099999999998e-26,-7.9827400000000001e-26,-1.4417e-29,-6.1708900000000002e-30,-4.08618e-29
534.0,1.11662e-28,-7.9811400000000003e-26,-7.99138e-26,-7.9830600000000005e-26,-1.11505e-29,-2.2521599999999999e-30,-3.2674199999999998e-29
535.0,1.21558e-28,-7.9801700000000004e-26,-7.9911199999999995e-26,-7.9828e-26,-1.01276e-29,-1.7509699999999999e-30,-3.9449400000000002e-29
536.0,1.0824299999999999e-28,-7.9815199999999995e-26,-7.9915800000000006e-26,-7.9832199999999996e-26,-8.2441000000000001e-30,7.5444499999999998e-31,-3.0589999999999999e-29
537.0,1.1672100000000001e-28,-7.9807500000000001e-26,-7.9914100000000005e-26,-7.9829299999999997e-26,-6.2705200000000003e-30,2.0690600000000001e-30,-3.64145e-29
538.0,1.0419099999999999e-28,-7.9819099999999997e-26,-7.9917000000000004e-26,-7.9833500000000004e-26,-6.5364500000000004e-30,2.5678100000000001e-30,-2.7926199999999999e-29
539.0,1.0956199999999999e-28,-7.9814599999999996e-26,-7.99155e-26,-7.9832900000000005e-26,-3.7374600000000001e-30,4.8599800000000001e-30,-3.27462e-29
540.0,3.3751099999999998e-29,-7.9898499999999999e-26,-7.9918700000000004e-26,-7.9896999999999995e-26,-1.4160100000000001e-29,-1.8556900000000001e-31,5.7406400000000003e-30
541.0,3.2714199999999999e-29,-7.9897999999999998e-26,-7.9917299999999998e-26,-7.9897800000000002e-26,-1.3819699999999999e-29,-1.8497500000000001e-30,6.1072800000000002e-30
542.0,3.0759400000000001e-29,-7.9898099999999996e-26,-7.9916000000000001e-26,-7.98979e-26,-1.24351e-29,-2.9007800000000001e-30,6.6306099999999995e-30
543.0,2.9875200000000002e-29,-7.9897100000000005e-26,-7.9914300000000001e-26,-7.9897999999999998e-26,-1.14446e-29,-4.4801100000000001e-30,7.2014400000000002e-30
544.0,2.8191499999999997e-29,-7.9896799999999999e-26,-7.9913399999999997e-26,-7.9897999999999998e-26,-9.6950499999999998e-30,-5.2134500000000003e-30,7.6596300000000004e-30
545.0,2.7673400000000001e-29,-7.98956e-26,-7.9911699999999997e-26,-7.9897300000000001e-26,-8.25033e-30,-6.4577499999999997e-30,8.2505799999999997e-30
546.0,2.6118099999999998e-29,-7.9895500000000002e-26,-7.9910499999999998e-26,-7.9897499999999996e-26,-6.2248399999999998e-30,-6.88387e-30,8.6867900000000005e-30
547.0,3.3093099999999999e-29,-7.9896600000000003e-26,-7.9918800000000002e-26,-7.9896700000000001e-26,-1.3457599999999999e-29,-4.6900200000000002e-31,4.4673899999999999e-30
548.0,3.1385100000000002e-29,-7.9896700000000001e-26,-7.9917700000000002e-26,-7.9896799999999999e-26,-1.24802e-29,-1.38363e-30,4.9262500000000001e-30
549.0,3.0321300000000002e-29,-7.9896000000000004e-26,-7.9916299999999995e-26,-7.9896899999999997e-26,-1.18775e-29,-2.7127800000000001e-30,5.1242799999999999e-30
550.0,2.8430999999999999e-29,-7.9895899999999994e-26,-7.9915099999999997e-26,-7.9896999999999995e-26,-1.04535e-29,-3.6415399999999999e-30,5.51371e-30
551.0,2.7427900000000002e-29,-7.9894900000000003e-26,-7.9913399999999997e-26,-7.9896799999999999e-26,-9.4194599999999994e-30,-4.7712999999999997e-30,5.9472799999999999e-30
552.0,2.5608799999999999e-29,-7.9894900000000003e-26,-7.99121e-26,-7.9896799999999999e-26,-7.6659999999999997e-30,-5.4335599999999997e-30,6.4403000000000004e-30
553.0,2.5022700000000001e-29,-7.98945e-26,-7.9910999999999999e-26,-7.9896899999999997e-26,-6.3068200000000001e-30,-6.1837299999999998e-30,7.1669700000000005e-30
554.0,3.6555099999999999e-29,-7.9887299999999996e-26,-7.9915800000000006e-26,-7.9887400000000005e-26,-1.3027300000000001e-29,7.3241800000000002e-31,2.3498400000000002e-30
555.0,3.4975499999999997e-29,-7.9887299999999996e-26,-7.9914399999999999e-26,-7.9887699999999999e-26,-1.2582000000000001e-29,-8.3854099999999996e-31,2.8338300000000001e-30
556.0,3.3760299999999999e-29,-7.9886400000000003e-26,-7.9912799999999997e-26,-7.9887799999999997e-26,-1.19395e-29,-2.4152499999999999e-30,3.2622600000000002e-30
557.0,3.2492800000000002e-29,-7.9885599999999996e-26,-7.9911199999999995e-26,-7.9887500000000003e-26,-1.09298e-29,-3.83666e-30,3.7116000000000002e-30
558.0,3.1693300000000001e-29,-7.9884399999999997e-26,-7.9909600000000005e-26,-7.9887000000000002e-26,-9.9033799999999993e-30,-5.1587500000000003e-30,4.2719099999999999e-30
559.0,3.06487e-29,-7.9883500000000004e-26,-7.9907699999999997e-26,-7.9886300000000005e-26,-8.5686900000000004e-30,-6.4213199999999998e-30,4.8222899999999998e-30
560.0,2.9440900000000001e-29,-7.9884899999999999e-26,-7.9907199999999996e-26,-7.9887600000000001e-26,-6.7951199999999999e-30,-7.4715699999999995e-30,6.3135000000000002e-30
561.0,3.6440499999999998e-29,-7.9886400000000003e-26,-7.9916500000000003e-26,-7.9887199999999998e-26,-1.21009e-29,3.20323e-31,1.42981e-30
562.0,3.51803e-29,-7.9885800000000003e-26,-7.9915099999999997e-26,-7.9887299999999996e-26,-1.17468e-29,-8.6225600000000007e-31,1.6554700000000001e-30
563.0,3.39701e-29,-7.9885300000000002e-26,-7.9913700000000002e-26,-7.9887199999999998e-26,-1.11418e-29,-2.15173e-30,1.9380300000000001e-30
564.0,3.2841099999999998e-29,-7.9884399999999997e-26,-7.99121e-26,-7.9887000000000002e-26,-1.04355e-29,-3.4172099999999999e-30,2.32002e-30
565.0,3.1505499999999998e-29,-7.9883799999999998e-26,-7.9910200000000004e-26,-7.9886500000000001e-26,-9.4624499999999999e-30,-4.6354700000000001e-30,2.7059700000000002e-30
566.0,3.0418700000000002e-29,-7.9883500000000004e-26,-7.9909000000000005e-26,-7.9886699999999997e-26,-8.3165299999999996e-30,-5.7735900000000001e-30,3.4268199999999997e-30
567.0,2.8464400000000002e-29,-7.9883299999999996e-26,-7.9906599999999996e-26,-7.9886400000000003e-26,-7.0582599999999997e-30,-6.4844500000000003e-30,4.2247000000000002e-30
568.0,4.2132299999999999e-29,-7.9875600000000003e-26,-7.9913299999999999e-26,-7.9877200000000005e-26,-1.14179e-29,1.63158e-30,-1.8534199999999999e-30
569.0,4.0558900000000003e-29,-7.9875000000000003e-26,-7.9911599999999999e-26,-7.9877599999999997e-26,-1.13814e-29,-1.4574300000000001e-31,-1.39106e-30
570.0,3.9425500000000002e-29,-7.9874099999999999e-26,-7.9909899999999998e-26,-7.9877499999999999e-26,-1.10966e-29,-1.9140699999999999e-30,-1.0363e-30
571.0,3.85336e-29,-7.9872800000000002e-26,-7.9908000000000002e-26,-7.9877200000000005e-26,-1.0606399999999999e-29,-3.6406899999999999e-30,-5.8697700000000003e-31
572.0,3.7628900000000002e-29,-7.9871500000000005e-26,-7.9905800000000001e-26,-7.98763e-26,-9.9712000000000006e-30,-5.2461199999999998e-30,1.32091e-33
573.0,3.6578300000000003e-29,-7.98712e-26,-7.9904100000000001e-26,-7.9876100000000004e-26,-9.0418799999999996e-30,-6.8967299999999995e-30,9.6920099999999998e-31
574.0,3.42567e-29,-7.9872399999999999e-26,-7.9902300000000003e-26,-7.9876899999999999e-26,-7.7965399999999997e-30,-8.0498000000000001e-30,2.4491399999999999e-30
575.0,4.2910900000000001e-29,-7.9874900000000005e-26,-7.9914399999999999e-26,-7.9877400000000001e-26,-1.0821900000000001e-29,9.6496800000000004e-31,-2.4713099999999999e-30
576.0,4.18219e-29,-7.9874500000000002e-26,-7.9913200000000001e-26,-7.9877599999999997e-26,-1.07832e-29,-4.0833300000000002e-31,-2.3371599999999999e-30
577.0,4.0766499999999999e-29,-7.9873499999999999e-26,-7.9911400000000003e-26,-7.9877400000000001e-26,-1.05844e-29,-1.8591099999999999e-30,-2.0861299999999999e-30
578.0,3.9838500000000001e-29,-7.9872599999999995e-26,-7.9909600000000005e-26,-7.9876899999999999e-26,-1.02907e-29,-3.3313900000000002e-30,-1.7714000000000001e-30
579.0,3.88162e-29,-7.9871899999999997e-26,-7.9907799999999995e-26,-7.9876499999999996e-26,-9.7940600000000004e-30,-4.8459e-30,-1.3175799999999999e-30
580.0,3.72652e-29,-7.9871500000000005e-26,-7.9905700000000003e-26,-7.98763e-26,-9.0581800000000002e-30,-6.2090799999999997e-30,-5.4526099999999999e-31
581.0,3.5351900000000001e-29,-7.9872499999999997e-26,-7.9904299999999997e-26,-7.9876700000000004e-26,-7.9138699999999995e-30,-7.3058799999999999e-30,9.17964e-31
582.0,5.1243599999999996e-29,-7.9862799999999997e-26,-7.9911400000000003e-26,-7.9867100000000002e-26,-9.7485999999999997e-30,2.3976399999999999e-30,-6.9813700000000006e-30
583.0,4.9531599999999998e-29,-7.9862000000000002e-26,-7.9909299999999999e-26,-7.9867399999999996e-26,-1.01422e-29,4.2779800000000002e-31,-6.6361799999999994e-30
584.0,4.8603499999999999e-29,-7.9860800000000003e-26,-7.9907400000000003e-26,-7.9867299999999998e-26,-1.0353100000000001e-29,-1.61362e-30,-6.3222299999999995e-30
585.0,4.78212e-29,-7.9859399999999997e-26,-7.99053e-26,-7.9867100000000002e-26,-1.04428e-29,-3.70209e-30,-5.9304300000000002e-30
586.0,4.6783499999999999e-29,-7.9858500000000004e-26,-7.9903e-26,-7.9866600000000001e-26,-1.03566e-29,-5.6642699999999997e-30,-5.2194199999999999e-30
587.0,4.5052899999999997e-29,-7.9858199999999999e-26,-7.9900399999999995e-26,-7.9866199999999998e-26,-9.98125e-30,-7.5767700000000002e-30,-4.0515200000000003e-30
588.0,4.2136299999999999e-29,-7.9860700000000005e-26,-7.9899400000000004e-26,-7.9867499999999994e-26,-8.91896e-30,-9.1054499999999997e-30,-1.6728799999999999e-30
589.0,5.2673200000000001e-29,-7.9862899999999995e-26,-7.9913399999999997e-26,-7.9867499999999994e-26,-9.5771100000000004e-30,1.4311699999999999e-30,-7.1746799999999998e-30
590.0,5.1641300000000001e-29,-7.9862199999999998e-26,-7.9911699999999997e-26,-7.9867499999999994e-26,-9.9425300000000005e-30,-8.3397500000000005e-32,-7.1546599999999994e-30
591.0,5.0773800000000004e-29,-7.9860999999999999e-26,-7.9909700000000003e-26,-7.9867299999999998e-26,-1.0203400000000001e-29,-1.8025200000000001e-30,-7.0725200000000004e-30
592.0,4.9915500000000002e-29,-7.9859899999999999e-26,-7.9907599999999999e-26,-7.9866799999999997e-26,-1.0392000000000001e-29,-3.5152199999999998e-30,-6.7478100000000006e-30
593.0,4.8851500000000001e-29,-7.9859000000000005e-26,-7.9905200000000002e-26,-7.98661e-26,-1.04566e-29,-5.3037099999999997e-30,-6.2280499999999997e-30
594.0,4.7188300000000001e-29,-7.9859200000000001e-26,-7.9903300000000006e-26,-7.9866199999999998e-26,-1.01895e-29,-6.97362e-30,-5.23417e-30
595.0,4.4246000000000002e-29,-7.9859700000000003e-26,-7.9900299999999997e-26,-7.98661e-26,-9.6426699999999999e-30,-8.3051800000000001e-30,-3.7788399999999997e-30
596.0,6.3643599999999997e-29,-7.98496e-26,-7.9910599999999996e-26,-7.9857199999999996e-26,-8.1246999999999998e-30,2.99519e-30,-1.30503e-29
597.0,6.2053e-29,-7.9848200000000005e-26,-7.9908000000000002e-26,-7.9857500000000001e-26,-9.0005799999999997e-30,8.7313399999999995e-31,-1.2957500000000001e-29
598.0,6.1266199999999995e-29,-7.9846600000000003e-26,-7.9905600000000005e-26,-7.9857300000000005e-26,-9.8472199999999998e-30,-1.5012700000000001e-30,-1.2815499999999999e-29
599.0,6.0606700000000004e-29,-7.9845199999999997e-26,-7.9903300000000006e-26,-7.9857099999999998e-26,-1.0651699999999999e-29,-4.0282100000000002e-30,-1.2483000000000001e-29
600.0,5.9361400000000001e-29,-7.9844400000000002e-26,-7.9900500000000005e-26,-7.9856800000000004e-26,-1.1245700000000001e-29,-6.4064299999999996e-30,-1.1751e-29
601.0,5.70497e-29,-7.9844900000000003e-26,-7.9897999999999998e-26,-7.9856800000000004e-26,-1.1407800000000001e-29,-8.6684599999999993e-30,-1.0179199999999999e-29
602.0,5.3028500000000005e-29,-7.9847100000000005e-26,-7.9895299999999995e-26,-7.9857400000000003e-26,-1.11244e-29,-1.0408100000000001e-29,-7.89529e-30
603.0,6.5106400000000004e-29,-7.9850199999999999e-26,-7.9913000000000005e-26,-7.9857500000000001e-26,-8.4820700000000006e-30,1.8286300000000001e-30,-1.26009e-29
604.0,6.4437299999999997e-29,-7.9849400000000004e-26,-7.9911300000000005e-26,-7.9857599999999999e-26,-9.3148499999999997e-30,6.0178699999999995e-32,-1.2840799999999999e-29
605.0,6.3934399999999999e-29,-7.98479e-26,-7.9909100000000003e-26,-7.9857300000000005e-26,-1.01545e-29,-1.93661e-30,-1.30195e-29
606.0,6.3152800000000001e-29,-7.9846600000000003e-26,-7.9906499999999998e-26,-7.9856699999999994e-26,-1.09213e-29,-4.0046e-30,-1.28563e-29
607.0,6.1972200000000001e-29,-7.9845899999999995e-26,-7.9903900000000005e-26,-7.9856200000000004e-26,-1.15847e-29,-6.1282900000000001e-30,-1.2272600000000001e-29
608.0,5.9849700000000001e-29,-7.9846000000000004e-26,-7.9900999999999995e-26,-7.9855899999999999e-26,-1.19775e-29,-8.1023899999999998e-30,-1.11059e-29
609.0,5.6255000000000002e-29,-7.9847700000000004e-26,-7.9898599999999997e-26,-7.9856300000000002e-26,-1.16667e-29,-9.7159200000000002e-30,-9.0066500000000003e-30
610.0,7.8347000000000001e-29,-7.9836300000000005e-26,-7.9910700000000005e-26,-7.9848099999999996e-26,-6.6559199999999997e-30,3.4752899999999998e-30,-1.9779499999999999e-29
611.0,7.77384e-29,-7.9834499999999995e-26,-7.9908199999999998e-26,-7.9848200000000005e-26,-8.0766499999999994e-30,1.2132200000000001e-30,-2.0228799999999999e-29
612.0,7.7572e-29,-7.9832300000000005e-26,-7.9905499999999996e-26,-7.9847999999999998e-26,-9.7098499999999996e-30,-1.54222e-30,-2.0592500000000001e-29
613.0,7.7051900000000001e-29,-7.9830399999999998e-26,-7.9902400000000001e-26,-7.9847499999999997e-26,-1.12962e-29,-4.5206600000000003e-30,-2.04015e-29
614.0,7.5889000000000002e-29,-7.9829799999999998e-26,-7.9899500000000002e-26,-7.9847200000000003e-26,-1.2809499999999999e-29,-7.4994299999999995e-30,-1.95813e-29
615.0,7.2836000000000001e-29,-7.9830800000000001e-26,-7.9896100000000002e-26,-7.9847300000000001e-26,-1.3838400000000001e-29,-1.02483e-29,-1.78363e-29
616.0,6.7793999999999997e-29,-7.9834100000000003e-26,-7.9893800000000002e-26,-7.9847800000000002e-26,-1.37797e-29,-1.2308799999999999e-29,-1.4596800000000001e-29
617.0,7.9368200000000002e-29,-7.9837899999999995e-26,-7.9913700000000002e-26,-7.9848200000000005e-26,-7.6881799999999996e-30,2.0143299999999999e-30,-1.8636700000000001e-29
618.0,7.9122099999999997e-29,-7.9836500000000001e-26,-7.9911699999999997e-26,-7.9847999999999998e-26,-8.9667599999999994e-30,1.28297e-31,-1.9126199999999999e-29
619.0,7.9256999999999996e-29,-7.9834499999999995e-26,-7.9909200000000001e-26,-7.9847399999999999e-26,-1.03663e-29,-2.1213699999999999e-30,-1.97064e-29
620.0,7.9001200000000002e-29,-7.9832900000000005e-26,-7.9906300000000002e-26,-7.9846899999999997e-26,-1.19116e-29,-4.6831599999999999e-30,-1.99266e-29
621.0,7.7544399999999998e-29,-7.9832099999999998e-26,-7.9902900000000002e-26,-7.9846299999999998e-26,-1.3271200000000001e-29,-7.2553300000000001e-30,-1.93665e-29
622.0,7.4925000000000003e-29,-7.9832799999999995e-26,-7.9899799999999996e-26,-7.9846299999999998e-26,-1.4266199999999999e-29,-9.6284300000000005e-30,-1.7899700000000001e-29
623.0,7.0674900000000003e-29,-7.9834399999999997e-26,-7.9895799999999996e-26,-7.9846299999999998e-26,-1.47862e-29,-1.16599e-29,-1.57355e-29
624.0,9.3567299999999994e-29,-7.98246e-26,-7.99121e-26,-7.9840099999999997e-26,-5.3877699999999997e-30,3.8464900000000003e-30,-2.6419400000000002e-29
625.0,9.6014700000000001e-29,-7.9821000000000004e-26,-7.9910200000000004e-26,-7.9839200000000004e-26,-7.4021099999999995e-30,1.38178e-30,-2.8128100000000001e-29
626.0,9.7347199999999999e-29,-7.9817499999999994e-26,-7.9907e-26,-7.9838600000000004e-26,-9.9086199999999999e-30,-1.7007500000000002e-30,-2.9430600000000001e-29
627.0,9.7556299999999999e-29,-7.9814999999999999e-26,-7.9903300000000006e-26,-7.9837899999999995e-26,-1.2569499999999999e-29,-5.2723900000000001e-30,-2.9761399999999998e-29
628.0,9.5992100000000003e-29,-7.9814300000000002e-26,-7.9899199999999997e-26,-7.9837500000000004e-26,-1.5217100000000001e-29,-8.9796899999999994e-30,-2.8851100000000001e-29
629.0,9.2431999999999997e-29,-7.9815900000000004e-26,-7.9895400000000004e-26,-7.9837299999999996e-26,-1.7083199999999999e-29,-1.2317900000000001e-29,-2.6677199999999999e-29
630.0,8.6393300000000003e-29,-7.9819699999999996e-26,-7.9891500000000003e-26,-7.9838000000000005e-26,-1.8079100000000001e-29,-1.49682e-29,-2.3313399999999999e-29
631.0,9.2834899999999998e-29,-7.9827300000000003e-26,-7.9914800000000003e-26,-7.9840300000000004e-26,-7.3936800000000004e-30,2.12505e-30,-2.40918e-29
632.0,9.3611500000000003e-29,-7.9825100000000002e-26,-7.9912799999999997e-26,-7.9839700000000005e-26,-8.6927000000000004e-30,3.36913e-31,-2.5238999999999999e-29
633.0,9.5327500000000001e-29,-7.9822200000000003e-26,-7.9910499999999998e-26,-7.9838600000000004e-26,-1.08374e-29,-2.3660500000000001e-30,-2.6459300000000003e-29
634.0,9.56659e-29,-7.9820299999999995e-26,-7.9907300000000005e-26,-7.9838000000000005e-26,-1.3278099999999999e-29,-5.40078e-30,-2.7067100000000001e-29
635.0,9.4489299999999995e-29,-7.9819800000000005e-26,-7.9903599999999999e-26,-7.9837600000000002e-26,-1.5422299999999999e-29,-8.5978300000000007e-30,-2.6760399999999999e-29
636.0,9.14323e-29,-7.9820699999999999e-26,-7.98996e-26,-7.9837500000000004e-26,-1.7176099999999999e-29,-1.14961e-29,-2.51474e-29
637.0,8.6130699999999998e-29,-7.9823099999999996e-26,-7.98956e-26,-7.9837500000000004e-26,-1.8009999999999999e-29,-1.3682399999999999e-29,-2.21383e-29
638.0,2.4801300000000001e-29,-7.9953199999999996e-26,-7.99303e-26,-7.9947599999999994e-26,7.6173900000000002e-30,2.1771999999999998e-31,-1.99862e-30
639.0,2.3714799999999999e-29,-7.9946600000000003e-26,-7.9926899999999999e-26,-7.9941000000000001e-26,8.9020600000000005e-30,3.0649399999999998e-31,-2.19299e-30
640.0,2.1178099999999999e-29,-7.9938899999999998e-26,-7.9924099999999999e-26,-7.9933899999999996e-26,9.3115099999999997e-30,6.2476499999999998e-31,-2.4163599999999998e-30
641.0,2.0772600000000001e-29,-7.9930399999999997e-26,-7.9920000000000001e-26,-7.9925600000000003e-26,1.0466500000000001e-29,7.66432e-31,-2.6359099999999999e-30
642.0,1.96423e-29,-7.9922200000000002e-26,-7.9917299999999998e-26,-7.9917999999999996e-26,1.0601699999999999e-29,1.0133299999999999e-30,-2.84762e-30
643.0,2.08004e-29,-7.9912699999999999e-26,-7.9912299999999996e-26,-7.9908500000000004e-26,1.1331599999999999e-29,1.16751e-30,-2.9935000000000001e-30
644.0,2.11397e-29,-7.9904899999999996e-26,-7.9909299999999999e-26,-7.9900500000000005e-26,1.09223e-29,1.2535300000000001e-30,-2.96389e-30
645.0,2.5399599999999998e-29,-7.9953300000000005e-26,-7.9930399999999997e-26,-7.9946899999999997e-26,7.6722499999999995e-30,2.0081600000000002e-31,-4.0710400000000001e-30
646.0,2.3702799999999999e-29,-7.9946500000000005e-26,-7.9927300000000003e-26,-7.9940199999999995e-26,8.5649099999999994e-30,4.0392299999999996e-31,-4.2762100000000002e-30
647.0,2.2413900000000001e-29,-7.9938899999999998e-26,-7.9924000000000001e-26,-7.9933000000000002e-26,9.4945999999999995e-30,5.8453199999999999e-31,-4.5294100000000002e-30
648.0,2.1257200000000001e-29,-7.9930800000000001e-26,-7.9920799999999996e-26,-7.9925299999999997e-26,1.00803e-29,8.5840100000000006e-31,-4.8018600000000003e-30
649.0,2.13634e-29,-7.9922100000000004e-26,-7.9916799999999997e-26,-7.9916799999999997e-26,1.07993e-29,1.0722699999999999e-30,-5.0241499999999998e-30
650.0,2.16129e-29,-7.9913700000000002e-26,-7.9913299999999999e-26,-7.9908600000000002e-26,1.0912500000000001e-29,1.3904799999999999e-30,-5.1799300000000002e-30
651.0,2.2801900000000001e-29,-7.9904500000000004e-26,-7.9908600000000002e-26,-7.9899299999999995e-26,1.09471e-29,1.6018899999999999e-30,-5.3956399999999997e-30
652.0,2.5857699999999998e-29,-7.9952699999999995e-26,-7.9930399999999997e-26,-7.9945699999999998e-26,7.4656500000000004e-30,1.8479900000000001e-31,-6.1441099999999999e-30
653.0,2.45773e-29,-7.9946100000000002e-26,-7.9927400000000001e-26,-7.9939300000000001e-26,8.4447299999999996e-30,3.6649899999999998e-31,-6.3556899999999999e-30
654.0,2.3364099999999999e-29,-7.9938600000000004e-26,-7.9924199999999996e-26,-7.9932099999999998e-26,9.2440699999999996e-30,5.6078800000000003e-31,-6.6500800000000002e-30
655.0,2.28696e-29,-7.9930600000000005e-26,-7.9920699999999998e-26,-7.9924400000000004e-26,1.0021499999999999e-29,8.1629999999999996e-31,-6.9604299999999998e-30
656.0,2.2787400000000001e-29,-7.99223e-26,-7.9917299999999998e-26,-7.9916400000000005e-26,1.04642e-29,1.15792e-30,-7.2145000000000003e-30
657.0,2.3526199999999999e-29,-7.9913600000000004e-26,-7.9913100000000003e-26,-7.9907799999999995e-26,1.0840000000000001e-29,1.48169e-30,-7.3799200000000004e-30
658.0,2.4030999999999999e-29,-7.99053e-26,-7.9909299999999999e-26,-7.9899400000000004e-26,1.05609e-29,1.89476e-30,-7.2403899999999994e-30
659.0,2.6641099999999997e-29,-7.9951700000000003e-26,-7.9930399999999997e-26,-7.9944599999999998e-26,7.2245800000000003e-30,1.58704e-31,-8.1430800000000001e-30
660.0,2.5598800000000002e-29,-7.9945299999999995e-26,-7.9927400000000001e-26,-7.9938100000000003e-26,8.2047600000000004e-30,2.7744200000000001e-31,-8.3884000000000001e-30
661.0,2.4785400000000001e-29,-7.9938000000000005e-26,-7.9924299999999994e-26,-7.9931200000000004e-26,9.0272699999999997e-30,5.1035999999999996e-31,-8.7135299999999996e-30
662.0,2.4518100000000001e-29,-7.99303e-26,-7.9920899999999994e-26,-7.9923699999999995e-26,9.7404499999999994e-30,7.7258900000000003e-31,-9.0470600000000004e-30
663.0,2.4742099999999999e-29,-7.9922100000000004e-26,-7.9917299999999998e-26,-7.9915800000000006e-26,1.02579e-29,1.1424499999999999e-30,-9.3056100000000005e-30
664.0,2.5260300000000001e-29,-7.99138e-26,-7.9913499999999995e-26,-7.9907500000000001e-26,1.04347e-29,1.6304199999999999e-30,-9.4199299999999995e-30
665.0,2.6232500000000002e-29,-7.9905399999999998e-26,-7.9909399999999997e-26,-7.9899099999999999e-26,1.02909e-29,2.15114e-30,-9.5801300000000004e-30
666.0,2.7654000000000001e-29,-7.9950399999999995e-26,-7.9930200000000002e-26,-7.9943200000000003e-26,6.9874700000000004e-30,8.2536700000000001e-32,-1.00456e-29
667.0,2.6809899999999999e-29,-7.9944099999999996e-26,-7.9927400000000001e-26,-7.99371e-26,7.8955500000000003e-30,2.4527800000000001e-31,-1.03086e-29
668.0,2.6355000000000002e-29,-7.9937299999999996e-26,-7.9924400000000004e-26,-7.99303e-26,8.7289099999999998e-30,4.3147400000000003e-31,-1.06488e-29
669.0,2.6254799999999998e-29,-7.99297e-26,-7.9921100000000002e-26,-7.9923099999999996e-26,9.3917299999999996e-30,7.6564100000000003e-31,-1.0977199999999999e-29
670.0,2.6589000000000001e-29,-7.9921899999999997e-26,-7.9917500000000006e-26,-7.9915400000000002e-26,9.8607599999999993e-30,1.1883900000000001e-30,-1.12216e-29
671.0,2.7194800000000002e-29,-7.99138e-26,-7.9913700000000002e-26,-7.9907400000000003e-26,1.0059100000000001e-29,1.75231e-30,-1.13411e-29
672.0,2.7628199999999999e-29,-7.9905800000000001e-26,-7.99098e-26,-7.9898900000000003e-26,9.8051899999999995e-30,2.3655300000000002e-30,-1.10647e-29
673.0,2.8682600000000002e-29,-7.9949e-26,-7.9930000000000006e-26,-7.9942000000000004e-26,6.6943600000000003e-30,7.2097600000000004e-32,-1.17214e-29
674.0,2.81559e-29,-7.9943200000000003e-26,-7.9927400000000001e-26,-7.9936300000000005e-26,7.5699700000000006e-30,1.99368e-31,-1.20092e-29
675.0,2.78283e-29,-7.9936599999999998e-26,-7.99246e-26,-7.9929899999999996e-26,8.2963699999999997e-30,4.5651300000000001e-31,-1.2354e-29
676.0,2.7931000000000002e-29,-7.9929399999999995e-26,-7.9921299999999998e-26,-7.9922800000000002e-26,8.9501299999999995e-30,7.9184900000000009e-31,-1.2682699999999999e-29
677.0,2.82243e-29,-7.9921799999999999e-26,-7.9917899999999998e-26,-7.9915400000000002e-26,9.3585699999999993e-30,1.3069199999999999e-30,-1.28811e-29
678.0,2.8723000000000002e-29,-7.9913899999999998e-26,-7.9914100000000005e-26,-7.9907400000000003e-26,9.4905900000000001e-30,1.9045300000000002e-30,-1.2904899999999999e-29
679.0,2.9585700000000002e-29,-7.9905800000000001e-26,-7.9910499999999998e-26,-7.9899500000000002e-26,9.2351999999999995e-30,2.68605e-30,-1.30005e-29
680.0,2.9556700000000003e-29,-7.99479e-26,-7.9930000000000006e-26,-7.9941199999999997e-26,6.4051499999999993e-30,8.6619599999999996e-32,-1.2996399999999999e-29
681.0,2.9307600000000002e-29,-7.9942799999999999e-26,-7.9927699999999995e-26,-7.9936199999999995e-26,7.0626100000000005e-30,2.7185e-31,-1.3394600000000001e-29
682.0,2.9161499999999999e-29,-7.9936400000000003e-26,-7.9924799999999996e-26,-7.9930000000000006e-26,7.7495300000000005e-30,5.2213999999999999e-31,-1.37611e-29
683.0,2.9171900000000001e-29,-7.9929399999999995e-26,-7.9921700000000001e-26,-7.9923200000000005e-26,8.2917299999999995e-30,9.25463e-31,-1.40549e-29
684.0,2.9506099999999998e-29,-7.9921899999999997e-26,-7.9918300000000001e-26,-7.9915599999999998e-26,8.6878500000000003e-30,1.43275e-30,-1.4236499999999999e-29
685.0,2.99695e-29,-7.9914100000000005e-26,-7.9914800000000003e-26,-7.9908000000000002e-26,8.80386e-30,2.1420400000000001e-30,-1.4258199999999999e-29
686.0,3.0439900000000003e-29,-7.9906300000000002e-26,-7.9910999999999999e-26,-7.9899400000000004e-26,8.6487899999999995e-30,2.96709e-30,-1.3828599999999999e-29
687.0,2.3403300000000001e-29,-7.9950500000000005e-26,-7.9929100000000001e-26,-7.9945299999999995e-26,7.3727799999999994e-30,-7.8463000000000003e-33,-1.8963100000000002e-30
688.0,2.1206599999999999e-29,-7.9944800000000005e-26,-7.9926499999999996e-26,-7.9939700000000005e-26,7.5025500000000005e-30,2.3270499999999999e-31,-2.0147599999999998e-30
689.0,1.9693999999999999e-29,-7.9937000000000002e-26,-7.99229e-26,-7.9932400000000003e-26,8.5270700000000005e-30,2.89909e-31,-2.2209499999999999e-30
690.0,1.7631900000000001e-29,-7.9929600000000002e-26,-7.9920199999999997e-26,-7.9925299999999997e-26,8.6681100000000001e-30,5.3492500000000002e-31,-2.36725e-30
691.0,1.73662e-29,-7.9920699999999998e-26,-7.9915599999999998e-26,-7.9916400000000005e-26,9.2713300000000007e-30,6.47634e-31,-2.59301e-30
692.0,1.68238e-29,-7.9912899999999995e-26,-7.9913100000000003e-26,-7.9908799999999998e-26,8.9838199999999997e-30,8.0392300000000008e-31,-2.67161e-30
693.0,1.8043800000000001e-29,-7.9903500000000002e-26,-7.9907599999999999e-26,-7.9898800000000005e-26,8.8583599999999995e-30,9.4898900000000006e-31,-3.0853e-30
694.0,2.3084200000000001e-29,-7.9950000000000003e-26,-7.9929000000000003e-26,-7.9944200000000006e-26,6.7694800000000005e-30,1.52325e-31,-3.79454e-30
695.0,2.14947e-29,-7.99439e-26,-7.99263e-26,-7.9938499999999995e-26,7.5834999999999995e-30,2.3793400000000001e-31,-3.9128100000000001e-30
696.0,1.9819300000000001e-29,-7.9937000000000002e-26,-7.9923200000000005e-26,-7.9931700000000006e-26,8.0883499999999996e-30,4.3746699999999998e-31,-4.1371000000000003e-30
697.0,1.86956e-29,-7.9929000000000003e-26,-7.9919699999999996e-26,-7.9924000000000001e-26,8.7053800000000007e-30,5.8750599999999997e-31,-4.34238e-30
698.0,1.7977700000000001e-29,-7.9921100000000002e-26,-7.9916400000000005e-26,-7.9916199999999997e-26,8.8638099999999998e-30,8.5860099999999992e-31,-4.5511599999999997e-30
699.0,1.8351800000000001e-29,-7.9912400000000005e-26,-7.9912199999999998e-26,-7.9907400000000003e-26,8.99631e-30,1.02724e-30,-4.72844e-30
700.0,1.90776e-29,-7.9904500000000004e-26,-7.9909000000000005e-26,-7.9899199999999997e-26,8.6054499999999997e-30,1.2981999999999999e-30,-4.6126500000000001e-30
701.0,2.3427800000000001e-29,-7.9949e-26,-7.9928900000000005e-26,-7.9942899999999997e-26,6.62749e-30,1.89687e-31,-5.6799600000000001e-30
702.0,2.19708e-29,-7.9943300000000001e-26,-7.99263e-26,-7.9937299999999996e-26,7.2753999999999996e-30,3.00124e-31,-5.8204799999999997e-30
703.0,2.0698500000000001e-29,-7.9936199999999995e-26,-7.9923099999999996e-26,-7.9930499999999995e-26,7.9503800000000005e-30,4.7341000000000002e-31,-6.0317399999999997e-30
704.0,1.9791700000000001e-29,-7.9928799999999995e-26,-7.9920000000000001e-26,-7.9923300000000003e-26,8.3885100000000003e-30,7.1608799999999998e-31,-6.3020600000000003e-30
705.0,1.95634e-29,-7.99206e-26,-7.9916199999999997e-26,-7.9915199999999995e-26,8.7445100000000005e-30,9.5334800000000004e-31,-6.4814700000000001e-30
706.0,1.98639e-29,-7.9912799999999997e-26,-7.9912899999999995e-26,-7.9907300000000005e-26,8.6719000000000004e-30,1.3217000000000001e-30,-6.64259e-30
707.0,2.1145500000000001e-29,-7.9904199999999999e-26,-7.99087e-26,-7.9898599999999997e-26,8.5311599999999995e-30,1.6545500000000001e-30,-6.9034800000000001e-30
708.0,2.4043800000000001e-29,-7.99479e-26,-7.9928699999999997e-26,-7.9941600000000001e-26,6.39559e-30,1.94467e-31,-7.5082e-30
709.0,2.28169e-29,-7.99422e-26,-7.9926200000000002e-26,-7.9936099999999997e-26,7.0229700000000007e-30,3.45083e-31,-7.6554000000000005e-30
710.0,2.1883e-29,-7.9935499999999998e-26,-7.9923099999999996e-26,-7.9929500000000004e-26,7.6570899999999998e-30,5.3073800000000001e-31,-7.9144800000000004e-30
711.0,2.1261700000000001e-29,-7.9928099999999998e-26,-7.9919900000000003e-26,-7.99223e-26,8.1283700000000006e-30,7.9078600000000004e-31,-8.1417000000000003e-30
712.0,2.1288599999999999e-29,-7.9920500000000002e-26,-7.9916500000000003e-26,-7.9914700000000005e-26,8.3912399999999994e-30,1.1482000000000001e-30,-8.3934999999999998e-30
713.0,2.17964e-29,-7.9912500000000003e-26,-7.9913000000000005e-26,-7.9906700000000006e-26,8.4600399999999994e-30,1.49487e-30,-8.5154699999999999e-30
714.0,2.2730199999999999e-29,-7.9904899999999996e-26,-7.9909399999999997e-26,-7.9898499999999999e-26,8.2212099999999997e-30,2.0339900000000001e-30,-8.3854100000000007e-30
715.0,2.4866899999999999e-29,-7.9946500000000005e-26,-7.9928500000000001e-26,-7.9940199999999995e-26,6.1000199999999997e-30,2.5036099999999999e-31,-9.2205099999999999e-30
716.0,2.3956399999999999e-29,-7.9941199999999997e-26,-7.9926100000000004e-26,-7.9934999999999996e-26,6.7692799999999999e-30,3.7054799999999998e-31,-9.3843899999999994e-30
717.0,2.3210799999999999e-29,-7.9934700000000002e-26,-7.9923200000000005e-26,-7.9928599999999999e-26,7.3125900000000006e-30,6.1408900000000004e-31,-9.6304399999999998e-30
718.0,2.2942100000000001e-29,-7.9927599999999997e-26,-7.9920099999999999e-26,-7.9921700000000001e-26,7.7808800000000006e-30,8.9895900000000001e-31,-9.9100399999999995e-30
719.0,2.3046300000000001e-29,-7.9920199999999997e-26,-7.9916799999999997e-26,-7.9914300000000001e-26,8.0556700000000001e-30,1.25853e-30,-1.00945e-29
720.0,2.3702700000000001e-29,-7.9912699999999999e-26,-7.9913399999999997e-26,-7.9906499999999998e-26,8.08204e-30,1.7825700000000001e-30,-1.0227e-29
721.0,2.4949299999999999e-29,-7.9904799999999998e-26,-7.9909700000000003e-26,-7.9898699999999995e-26,7.9362699999999998e-30,2.2950800000000001e-30,-1.04254e-29
722.0,2.5891999999999999e-29,-7.9945299999999995e-26,-7.9928400000000003e-26,-7.9939100000000005e-26,5.9050700000000003e-30,2.8780600000000001e-31,-1.07126e-29
723.0,2.51511e-29,-7.9940300000000004e-26,-7.9926100000000004e-26,-7.9934200000000001e-26,6.4122599999999998e-30,4.7782499999999998e-31,-1.08965e-29
724.0,2.46975e-29,-7.9934100000000003e-26,-7.9923400000000001e-26,-7.9928099999999998e-26,6.9801199999999995e-30,6.7512499999999997e-31,-1.11802e-29
725.0,2.4530100000000001e-29,-7.9927300000000003e-26,-7.9920400000000004e-26,-7.9921399999999996e-26,7.3899299999999999e-30,1.0064200000000001e-30,-1.14395e-29
726.0,2.4850099999999999e-29,-7.9920099999999999e-26,-7.9917100000000002e-26,-7.9914100000000005e-26,7.6577899999999996e-30,1.4497e-30,-1.1665e-29
727.0,2.5462000000000001e-29,-7.9912699999999999e-26,-7.9913899999999998e-26,-7.9906700000000006e-26,7.7285499999999998e-30,1.9405799999999999e-30,-1.17451e-29
728.0,2.64169e-29,-7.99053e-26,-7.9910300000000002e-26,-7.9898599999999997e-26,7.5898199999999997e-30,2.7431299999999998e-30,-1.1530899999999999e-29
729.0,2.67308e-29,-7.99445e-26,-7.9928199999999996e-26,-7.9938399999999997e-26,5.5753299999999998e-30,4.0075500000000003e-31,-1.1811099999999999e-29
730.0,2.6245799999999999e-29,-7.9939800000000003e-26,-7.9926200000000002e-26,-7.9933899999999996e-26,6.1025399999999997e-30,4.9004500000000001e-31,-1.2069199999999999e-29
731.0,2.5940800000000003e-29,-7.9934000000000005e-26,-7.9923699999999995e-26,-7.9928099999999998e-26,6.5887999999999997e-30,7.5457199999999996e-31,-1.2401399999999999e-29
732.0,2.5976100000000002e-29,-7.9927300000000003e-26,-7.9920699999999998e-26,-7.9921399999999996e-26,7.0361999999999994e-30,1.0978999999999999e-30,-1.26953e-29
733.0,2.6225199999999998e-29,-7.9920199999999997e-26,-7.9917600000000004e-26,-7.9914399999999999e-26,7.2843299999999995e-30,1.5621400000000001e-30,-1.2860799999999999e-29
734.0,2.6903600000000001e-29,-7.9912899999999995e-26,-7.9914200000000003e-26,-7.9906800000000004e-26,7.3404700000000005e-30,2.20508e-30,-1.2914899999999999e-29
735.0,2.7985000000000001e-29,-7.99053e-26,-7.9910800000000003e-26,-7.9899299999999995e-26,7.1106999999999994e-30,2.7831e-30,-1.3014800000000001e-29
736.0,3.0957899999999998e-29,-7.9906200000000004e-26,-7.9911699999999997e-26,-7.9900399999999995e-26,7.3608200000000003e-30,3.1319200000000001e-30,-1.4958e-29
737.0,3.0936600000000001e-29,-7.9906900000000002e-26,-7.9912600000000001e-26,-7.9900799999999999e-26,6.3720900000000001e-30,3.5500899999999999e-30,-1.51933e-29
738.0,3.0178399999999997e-29,-7.9906599999999996e-26,-7.9913299999999999e-26,-7.9901800000000001e-26,4.4509399999999999e-30,3.3951300000000003e-30,-1.5447000000000001e-29
739.0,2.9985000000000001e-29,-7.9907300000000005e-26,-7.9914700000000005e-26,-7.9902800000000004e-26,3.0836800000000001e-30,3.7608599999999998e-30,-1.54947e-29
740.0,2.9235399999999998e-29,-7.9907e-26,-7.9915599999999998e-26,-7.9903799999999995e-26,1.0141800000000001e-30,3.4646100000000002e-30,-1.53284e-29
741.0,2.9329200000000001e-29,-7.9907599999999999e-26,-7.99172e-26,-7.99053e-26,-4.8608000000000001e-31,3.7085099999999998e-30,-1.5251599999999999e-29
742.0,2.8818800000000002e-29,-7.9907e-26,-7.9918499999999997e-26,-7.9905999999999997e-26,-2.4990799999999998e-30,3.2588499999999997e-30,-1.45634e-29
743.0,3.05496e-29,-7.9914599999999995e-26,-7.9915400000000002e-26,-7.9908500000000004e-26,7.8286499999999994e-30,2.3372399999999999e-30,-1.5168e-29
744.0,3.0428699999999999e-29,-7.9914999999999999e-26,-7.9916299999999995e-26,-7.9909700000000003e-26,6.5092999999999995e-30,2.4915400000000002e-30,-1.57375e-29
745.0,3.0215499999999998e-29,-7.9916000000000001e-26,-7.9917399999999996e-26,-7.9910999999999999e-26,5.1157499999999998e-30,2.63839e-30,-1.6117699999999999e-29
746.0,2.9774499999999998e-29,-7.9916699999999999e-26,-7.9918499999999997e-26,-7.9912500000000003e-26,3.4631899999999999e-30,2.6866000000000001e-30,-1.63326e-29
747.0,2.95166e-29,-7.99178e-26,-7.9919800000000005e-26,-7.9914200000000003e-26,1.8444800000000001e-30,2.7084900000000002e-30,-1.64762e-29
748.0,2.91621e-29,-7.9918599999999995e-26,-7.9921500000000005e-26,-7.9916099999999999e-26,5.6921999999999995e-32,2.7811600000000001e-30,-1.63785e-29
749.0,2.9412099999999998e-29,-7.99172e-26,-7.9921899999999997e-26,-7.9915699999999996e-26,-2.01363e-30,2.8289499999999999e-30,-1.6311999999999999e-29
750.0,3.01348e-29,-7.9922399999999998e-26,-7.9919099999999996e-26,-7.9916600000000001e-26,7.7326899999999994e-30,1.62755e-30,-1.5230299999999999e-29
751.0,3.0331199999999998e-29,-7.9923499999999999e-26,-7.9920099999999999e-26,-7.9917999999999996e-26,6.5327700000000003e-30,1.7705600000000001e-30,-1.59096e-29
752.0,3.02527e-29,-7.99246e-26,-7.99212e-26,-7.9919699999999996e-26,5.1356500000000001e-30,1.8602899999999999e-30,-1.6403e-29
753.0,3.0160500000000001e-29,-7.9925999999999995e-26,-7.9922499999999996e-26,-7.9921600000000003e-26,3.6050700000000001e-30,2.0224000000000002e-30,-1.6754900000000001e-29
754.0,2.9984199999999998e-29,-7.9927400000000001e-26,-7.9924000000000001e-26,-7.9923599999999997e-26,1.9525300000000001e-30,2.0557799999999999e-30,-1.69511e-29
755.0,3.0031300000000002e-29,-7.9928199999999996e-26,-7.9925199999999999e-26,-7.9925299999999997e-26,1.9428900000000001e-31,2.2485699999999999e-30,-1.7106500000000001e-29
756.0,2.9534099999999999e-29,-7.9927900000000002e-26,-7.9926600000000005e-26,-7.9925600000000003e-26,-1.6249200000000001e-30,2.24057e-30,-1.67859e-29
757.0,2.9971400000000001e-29,-7.9930100000000004e-26,-7.9922499999999996e-26,-7.9924199999999996e-26,7.4002599999999995e-30,1.05808e-30,-1.5086699999999999e-29
758.0,3.0323100000000003e-29,-7.9931300000000002e-26,-7.9923499999999999e-26,-7.9925799999999999e-26,6.2375200000000001e-30,1.19419e-30,-1.58241e-29
759.0,3.0512499999999999e-29,-7.9932799999999995e-26,-7.9924799999999996e-26,-7.9927800000000004e-26,4.8885599999999998e-30,1.3017999999999999e-30,-1.6374999999999999e-29
760.0,3.0648099999999999e-29,-7.9934499999999995e-26,-7.9926100000000004e-26,-7.9930000000000006e-26,3.4013199999999997e-30,1.4507999999999999e-30,-1.6793e-29
761.0,3.0791599999999998e-29,-7.9935999999999999e-26,-7.9927499999999999e-26,-7.9932e-26,1.8243099999999999e-30,1.5881499999999999e-30,-1.7087199999999999e-29
762.0,3.07188e-29,-7.9937199999999998e-26,-7.9929100000000001e-26,-7.9933799999999998e-26,1.3719699999999999e-31,1.7955399999999999e-30,-1.7164399999999999e-29
763.0,3.1197199999999997e-29,-7.9936500000000001e-26,-7.9929399999999995e-26,-7.9934000000000005e-26,-1.8334700000000002e-30,1.9644199999999999e-30,-1.7443099999999999e-29
764.0,2.9977999999999999e-29,-7.99371e-26,-7.9925600000000003e-26,-7.9931099999999995e-26,6.8912600000000006e-30,6.5764699999999998e-31,-1.4781299999999999e-29
765.0,3.0476599999999999e-29,-7.9938700000000002e-26,-7.9926800000000001e-26,-7.9933000000000002e-26,5.7678800000000001e-30,7.6506800000000004e-31,-1.5502000000000001e-29
766.0,3.0901800000000001e-29,-7.9940400000000002e-26,-7.9928e-26,-7.9935200000000004e-26,4.4585199999999998e-30,8.8697499999999999e-31,-1.6087499999999999e-29
767.0,3.1273699999999999e-29,-7.99422e-26,-7.9929299999999997e-26,-7.9937400000000005e-26,3.04453e-30,1.0333900000000001e-30,-1.65195e-29
768.0,3.15638e-29,-7.9944099999999996e-26,-7.9930899999999999e-26,-7.9939700000000005e-26,1.5309999999999999e-30,1.19029e-30,-1.68278e-29
769.0,3.1930900000000001e-29,-7.9945199999999997e-26,-7.9932e-26,-7.9941500000000003e-26,-1.2058000000000001e-31,1.43619e-30,-1.7070999999999999e-29
770.0,3.1503700000000003e-29,-7.99456e-26,-7.9933500000000004e-26,-7.99422e-26,-1.6835399999999999e-30,1.6141700000000002e-30,-1.6923000000000001e-29
771.0,3.0127699999999998e-29,-7.9943499999999997e-26,-7.9928400000000003e-26,-7.9937299999999996e-26,6.3087900000000003e-30,3.5370900000000001e-31,-1.43306e-29
772.0,3.0724800000000003e-29,-7.9945199999999997e-26,-7.9929600000000002e-26,-7.9939300000000001e-26,5.2211399999999997e-30,4.5854800000000001e-31,-1.4998500000000001e-29
773.0,3.1313400000000003e-29,-7.9947200000000002e-26,-7.9930800000000001e-26,-7.9941600000000001e-26,3.9938000000000003e-30,5.6590500000000002e-31,-1.5521999999999999e-29
774.0,3.1864999999999997e-29,-7.9949299999999994e-26,-7.9932199999999996e-26,-7.9944099999999996e-26,2.6143299999999999e-30,7.1532199999999999e-31,-1.5957200000000001e-29
775.0,3.2425600000000002e-29,-7.9951200000000002e-26,-7.9933500000000004e-26,-7.9946399999999996e-26,1.1483999999999999e-30,8.7715899999999996e-31,-1.6285100000000001e-29
776.0,3.2663800000000003e-29,-7.9952699999999995e-26,-7.9935099999999994e-26,-7.9948300000000003e-26,-3.3920999999999998e-31,1.10832e-30,-1.64586e-29
777.0,3.3443800000000002e-29,-7.9953e-26,-7.9935599999999996e-26,-7.9949400000000004e-26,-2.0947699999999999e-30,1.33502e-30,-1.6817600000000001e-29
778.0,3.0251300000000003e-29,-7.9948400000000001e-26,-7.9930499999999995e-26,-7.9942000000000004e-26,5.7631400000000003e-30,1.9016500000000001e-31,-1.37956e-29
779.0,3.0877599999999998e-29,-7.9950500000000005e-26,-7.9931700000000006e-26,-7.9944400000000002e-26,4.7597800000000002e-30,2.6070600000000002e-31,-1.4249800000000001e-29
780.0,3.1666000000000002e-29,-7.9952900000000002e-26,-7.99331e-26,-7.9947100000000004e-26,3.5498900000000001e-30,3.1142599999999999e-31,-1.4739300000000001e-29
781.0,3.2389799999999998e-29,-7.9955299999999999e-26,-7.9934499999999995e-26,-7.9949799999999996e-26,2.2251000000000001e-30,4.7431099999999997e-31,-1.5104299999999999e-29
782.0,3.3054600000000002e-29,-7.9957599999999999e-26,-7.9936099999999997e-26,-7.9952300000000003e-26,7.9320900000000001e-31,6.1478100000000002e-31,-1.54329e-29
783.0,3.3732000000000001e-29,-7.9959200000000001e-26,-7.9937199999999998e-26,-7.9954399999999995e-26,-6.6782600000000001e-31,8.2935800000000002e-31,-1.56375e-29
784.0,3.35524e-29,-7.9960099999999994e-26,-7.99388e-26,-7.9955299999999999e-26,-2.00473e-30,1.1718600000000001e-30,-1.5647000000000001e-29
785.0,2.82818e-29,-7.9905600000000005e-26,-7.9911400000000003e-26,-7.9899400000000004e-26,6.5213399999999997e-30,3.2255899999999999e-30,-1.3333399999999999e-29
786.0,2.78123e-29,-7.99053e-26,-7.9912000000000002e-26,-7.9899799999999996e-26,4.9227899999999998e-30,3.2204499999999997e-30,-1.36401e-29
787.0,2.7333900000000002e-29,-7.9905700000000003e-26,-7.9913000000000005e-26,-7.9900399999999995e-26,3.7077800000000001e-30,3.4945599999999999e-30,-1.35289e-29
788.0,2.6680800000000001e-29,-7.9905200000000002e-26,-7.99138e-26,-7.9900999999999995e-26,1.7547599999999999e-30,3.3919600000000002e-30,-1.34176e-29
789.0,2.6455800000000002e-29,-7.9905499999999996e-26,-7.9915199999999995e-26,-7.9901899999999999e-26,3.5387299999999999e-31,3.5684600000000003e-30,-1.31463e-29
790.0,2.6334400000000001e-29,-7.99047e-26,-7.9916400000000005e-26,-7.9902499999999999e-26,-1.6237899999999999e-30,3.3602600000000002e-30,-1.2709100000000001e-29
791.0,2.6636900000000001e-29,-7.9904500000000004e-26,-7.9917500000000006e-26,-7.9903199999999996e-26,-3.0320399999999999e-30,3.3519599999999998e-30,-1.23965e-29
792.0,2.7306000000000002e-29,-7.9912899999999995e-26,-7.9914700000000005e-26,-7.9907300000000005e-26,6.5271800000000005e-30,2.3468099999999999e-30,-1.36116e-29
793.0,2.6924800000000002e-29,-7.9913299999999999e-26,-7.99155e-26,-7.9907900000000004e-26,5.3776100000000001e-30,2.4705399999999999e-30,-1.38218e-29
794.0,2.6350099999999999e-29,-7.9913600000000004e-26,-7.9916299999999995e-26,-7.9908799999999998e-26,3.9518900000000001e-30,2.5926099999999999e-30,-1.3949000000000001e-29
795.0,2.5944600000000001e-29,-7.9914300000000001e-26,-7.9917500000000006e-26,-7.9909899999999998e-26,2.4512900000000001e-30,2.6347e-30,-1.4032200000000001e-29
796.0,2.5448900000000001e-29,-7.9914700000000005e-26,-7.9918800000000002e-26,-7.9911400000000003e-26,8.6385799999999994e-31,2.6622600000000002e-30,-1.39349e-29
797.0,2.5375699999999998e-29,-7.9914900000000001e-26,-7.9919699999999996e-26,-7.99121e-26,-7.96643e-31,2.7704699999999999e-30,-1.38446e-29
798.0,2.5442e-29,-7.9915099999999997e-26,-7.9921799999999999e-26,-7.9913299999999999e-26,-2.4010099999999998e-30,2.5812899999999999e-30,-1.35369e-29
799.0,2.6748399999999999e-29,-7.9920400000000004e-26,-7.9918100000000005e-26,-7.9914800000000003e-26,6.5183700000000002e-30,1.71807e-30,-1.3599100000000001e-29
800.0,2.6420099999999998e-29,-7.9920799999999996e-26,-7.9918700000000004e-26,-7.9915599999999998e-26,5.3992100000000002e-30,1.8362e-30,-1.3902899999999999e-29
801.0,2.6115799999999998e-29,-7.9921799999999999e-26,-7.9919800000000005e-26,-7.9917000000000004e-26,4.0828599999999997e-30,1.9382800000000001e-30,-1.4181200000000001e-29
802.0,2.5795699999999999e-29,-7.9922700000000004e-26,-7.9920899999999994e-26,-7.9918499999999997e-26,2.6547100000000002e-30,1.9917699999999999e-30,-1.43628e-29
803.0,2.56363e-29,-7.9923699999999995e-26,-7.9922200000000002e-26,-7.9920199999999997e-26,1.1275200000000001e-30,2.0765100000000002e-30,-1.4506000000000001e-29
804.0,2.5527000000000001e-29,-7.9924500000000002e-26,-7.9923599999999997e-26,-7.9921600000000003e-26,-4.62913e-31,2.2085800000000001e-30,-1.4486099999999999e-29
805.0,2.60625e-29,-7.9924400000000004e-26,-7.9924299999999994e-26,-7.99223e-26,-2.2143299999999999e-30,2.2192799999999999e-30,-1.4670699999999999e-29
806.0,2.6473199999999999e-29,-7.9927499999999999e-26,-7.9921100000000002e-26,-7.9921899999999997e-26,6.2935400000000002e-30,1.2427500000000001e-30,-1.34349e-29
807.0,2.6344399999999999e-29,-7.9928300000000005e-26,-7.9921999999999995e-26,-7.9923099999999996e-26,5.22578e-30,1.31609e-30,-1.3815699999999999e-29
808.0,2.6269599999999997e-29,-7.9929500000000004e-26,-7.9923099999999996e-26,-7.9924699999999998e-26,3.97492e-30,1.4239099999999999e-30,-1.41771e-29
809.0,2.6269000000000003e-29,-7.9930899999999999e-26,-7.9924299999999994e-26,-7.9926499999999996e-26,2.6066099999999999e-30,1.4879199999999999e-30,-1.44828e-29
810.0,2.62767e-29,-7.9932300000000005e-26,-7.9925700000000001e-26,-7.9928599999999999e-26,1.1601899999999999e-30,1.6256000000000001e-30,-1.4674999999999999e-29
811.0,2.6560799999999998e-29,-7.9933199999999998e-26,-7.9926700000000003e-26,-7.9930000000000006e-26,-4.1169700000000004e-31,1.76983e-30,-1.4882399999999999e-29
812.0,2.6657699999999998e-29,-7.9934200000000001e-26,-7.9928699999999997e-26,-7.9931499999999998e-26,-1.88108e-30,1.8166699999999999e-30,-1.4911900000000001e-29
813.0,2.6542900000000001e-29,-7.9934299999999999e-26,-7.9924199999999996e-26,-7.9928599999999999e-26,5.9056100000000002e-30,8.2824399999999997e-31,-1.31728e-29
814.0,2.6590300000000002e-29,-7.9935300000000002e-26,-7.9925000000000003e-26,-7.9930000000000006e-26,4.9024300000000001e-30,9.3644699999999999e-31,-1.3572600000000001e-29
815.0,2.67616e-29,-7.9936799999999994e-26,-7.9926100000000004e-26,-7.9931800000000004e-26,3.7153799999999998e-30,1.0225700000000001e-30,-1.3971899999999999e-29
816.0,2.7061799999999999e-29,-7.9938499999999995e-26,-7.9927499999999999e-26,-7.9934000000000005e-26,2.41381e-30,1.10174e-30,-1.4354e-29
817.0,2.7363099999999998e-29,-7.9940099999999997e-26,-7.9928699999999997e-26,-7.9936099999999997e-26,1.0182100000000001e-30,1.2390099999999999e-30,-1.46232e-29
818.0,2.7695600000000001e-29,-7.9941699999999999e-26,-7.99303e-26,-7.9938000000000005e-26,-4.6506200000000001e-31,1.42218e-30,-1.48238e-29
819.0,2.8558300000000001e-29,-7.9942299999999998e-26,-7.9931099999999995e-26,-7.9939200000000003e-26,-2.0908399999999999e-30,1.5022699999999999e-30,-1.52369e-29
820.0,2.6824199999999999e-29,-7.9940199999999995e-26,-7.9926700000000003e-26,-7.9934399999999997e-26,5.4536999999999997e-30,5.7684400000000002e-31,-1.2803e-29
821.0,2.7129200000000001e-29,-7.9941600000000001e-26,-7.9927599999999997e-26,-7.9936099999999997e-26,4.55664e-30,6.5175300000000002e-31,-1.3217499999999999e-29
822.0,2.7533499999999998e-29,-7.9943399999999999e-26,-7.9928900000000005e-26,-7.9938200000000001e-26,3.4134600000000001e-30,7.34674e-31,-1.3645699999999999e-29
823.0,2.8030399999999999e-29,-7.9945400000000004e-26,-7.9930200000000002e-26,-7.99405e-26,2.1541400000000001e-30,8.0877899999999998e-31,-1.4011499999999999e-29
824.0,2.8541999999999998e-29,-7.9947399999999998e-26,-7.9931800000000004e-26,-7.9942999999999995e-26,8.0538200000000008e-31,9.3147199999999992e-31,-1.4326800000000001e-29
825.0,2.9201000000000001e-29,-7.9948800000000005e-26,-7.9932900000000004e-26,-7.9944800000000005e-26,-6.4998099999999999e-31,1.1325099999999999e-30,-1.46247e-29
826.0,2.9553499999999999e-29,-7.9950500000000005e-26,-7.9934700000000002e-26,-7.9946700000000001e-26,-1.9632299999999999e-30,1.3411600000000001e-30,-1.4764400000000001e-29
827.0,2.7250000000000001e-29,-7.9944900000000003e-26,-7.9928699999999997e-26,-7.9938899999999998e-26,5.1059600000000001e-30,4.0975099999999999e-31,-1.2411200000000001e-29
828.0,2.7705499999999998e-29,-7.9946500000000005e-26,-7.99297e-26,-7.9940800000000005e-26,4.2562100000000003e-30,4.3859599999999996e-31,-1.2823900000000001e-29
829.0,2.8247800000000002e-29,-7.9948699999999995e-26,-7.9930999999999997e-26,-7.9943200000000003e-26,3.15056e-30,5.37703e-31,-1.3174300000000001e-29
830.0,2.8963699999999998e-29,-7.9950999999999994e-26,-7.9932500000000001e-26,-7.9945799999999996e-26,1.9081199999999999e-30,5.63875e-31,-1.35814e-29
831.0,2.9598700000000001e-29,-7.9953e-26,-7.9933899999999996e-26,-7.9948300000000003e-26,5.6314600000000001e-31,7.3406299999999998e-31,-1.38486e-29
832.0,3.0316899999999998e-29,-7.9955000000000006e-26,-7.99354e-26,-7.9950399999999995e-26,-8.1859000000000004e-31,9.2797800000000001e-31,-1.41355e-29
833.0,3.1460400000000003e-29,-7.9956499999999998e-26,-7.9936599999999998e-26,-7.9952300000000003e-26,-2.28334e-30,9.6066899999999998e-31,-1.4617600000000001e-29
834.0,3.4875000000000001e-29,-7.9966199999999997e-26,-7.9940400000000002e-26,-7.9961300000000004e-26,-2.4271799999999999e-30,6.7639099999999998e-31,-1.4552100000000001e-29
835.0,3.47199e-29,-7.9971000000000004e-26,-7.9942299999999998e-26,-7.9964900000000001e-26,-2.6327500000000001e-30,7.0178700000000002e-31,-1.2884099999999999e-29
836.0,3.52117e-29,-7.9975399999999995e-26,-7.9943499999999997e-26,-7.9968999999999998e-26,-2.8539299999999999e-30,4.28928e-32,-1.0955100000000001e-29
837.0,3.5265300000000001e-29,-7.9978699999999997e-26,-7.9944400000000002e-26,-7.9971600000000003e-26,-3.2403999999999997e-30,-4.1603799999999998e-32,-8.7436400000000007e-30
838.0,3.5456800000000001e-29,-7.9980999999999997e-26,-7.9945000000000001e-26,-7.9973800000000004e-26,-3.4704199999999998e-30,-6.6123600000000003e-31,-6.5149599999999997e-30
839.0,3.55416e-29,-7.9982900000000004e-26,-7.9945699999999998e-26,-7.9975600000000003e-26,-3.9476099999999998e-30,-8.1311599999999998e-31,-3.9194800000000003e-30
840.0,3.5526400000000002e-29,-7.9982799999999995e-26,-7.9945199999999997e-26,-7.9975799999999998e-26,-4.0033600000000003e-30,-1.42638e-30,-1.477e-30
841.0,3.4019200000000001e-29,-7.9964800000000003e-26,-7.9939399999999999e-26,-7.9959299999999999e-26,-9.5670499999999993e-31,6.0623299999999996e-31,-1.43643e-29
842.0,3.4345200000000002e-29,-7.9969699999999995e-26,-7.9941099999999999e-26,-7.9963700000000002e-26,-1.2322599999999999e-30,3.0932399999999998e-31,-1.2786900000000001e-29
843.0,3.4285099999999999e-29,-7.9973400000000001e-26,-7.99422e-26,-7.9966799999999997e-26,-1.56337e-30,5.6812100000000002e-32,-1.0894700000000001e-29
844.0,3.4356199999999998e-29,-7.9976600000000005e-26,-7.9943100000000005e-26,-7.9969699999999995e-26,-1.8272499999999999e-30,-2.4313299999999999e-31,-8.8168899999999996e-30
845.0,3.42026e-29,-7.9978799999999995e-26,-7.9943800000000002e-26,-7.9971700000000001e-26,-2.1861399999999999e-30,-5.1511999999999996e-31,-6.4772499999999996e-30
846.0,3.4044300000000001e-29,-7.9980000000000005e-26,-7.9944099999999996e-26,-7.9972999999999998e-26,-2.3162800000000002e-30,-8.2888599999999999e-31,-4.1631500000000001e-30
847.0,3.4186399999999998e-29,-7.9981300000000002e-26,-7.9944800000000005e-26,-7.99746e-26,-2.8237499999999998e-30,-1.08941e-30,-1.5632999999999999e-30
848.0,3.34293e-29,-7.9963100000000003e-26,-7.9938100000000003e-26,-7.9957300000000005e-26,4.4767500000000002e-31,4.0676799999999999e-31,-1.4164100000000001e-29
849.0,3.3429400000000001e-29,-7.9967299999999998e-26,-7.9939499999999997e-26,-7.9960999999999999e-26,1.72528e-31,1.4961600000000001e-31,-1.2651399999999999e-29
850.0,3.33108e-29,-7.9971000000000004e-26,-7.9940699999999996e-26,-7.9964399999999999e-26,-5.9537900000000002e-32,-5.2828799999999997e-32,-1.0799400000000001e-29
851.0,3.2964500000000001e-29,-7.9973800000000004e-26,-7.9941699999999999e-26,-7.9966899999999995e-26,-3.09655e-31,-2.6477399999999999e-31,-8.7221100000000002e-30
852.0,3.2687799999999998e-29,-7.9975799999999998e-26,-7.9942299999999998e-26,-7.99689e-26,-4.9235699999999997e-31,-4.5324e-31,-6.5288499999999999e-30
853.0,3.2379599999999998e-29,-7.9977200000000005e-26,-7.9942899999999997e-26,-7.9970500000000002e-26,-7.9979600000000008e-31,-6.5833000000000004e-31,-4.1084899999999999e-30
854.0,3.2116800000000003e-29,-7.9977599999999997e-26,-7.9942999999999995e-26,-7.9971399999999996e-26,-7.0809100000000003e-31,-9.3068499999999998e-31,-1.7446799999999999e-30
855.0,3.24937e-29,-7.99604e-26,-7.9936500000000001e-26,-7.9954399999999995e-26,1.8856700000000001e-30,2.2989499999999998e-31,-1.39042e-29
856.0,3.2369399999999999e-29,-7.9964700000000005e-26,-7.9938000000000005e-26,-7.9958199999999998e-26,1.6120599999999999e-30,6.5452399999999996e-32,-1.2375199999999999e-29
857.0,3.2025299999999999e-29,-7.9967799999999999e-26,-7.9938999999999996e-26,-7.9960999999999999e-26,1.47948e-30,-1.03471e-31,-1.06102e-29
858.0,3.1565100000000001e-29,-7.9970500000000002e-26,-7.9939900000000001e-26,-7.9963600000000004e-26,1.3537900000000001e-30,-2.1692e-31,-8.5695499999999997e-30
859.0,3.10111e-29,-7.9972200000000002e-26,-7.9940599999999998e-26,-7.9965400000000002e-26,1.24062e-30,-3.6066900000000002e-31,-6.4103800000000006e-30
860.0,3.0572799999999998e-29,-7.9973400000000001e-26,-7.9941000000000001e-26,-7.9966899999999995e-26,1.24213e-30,-4.9029899999999997e-31,-4.1295300000000003e-30
861.0,3.0444099999999999e-29,-7.9974199999999996e-26,-7.9941299999999995e-26,-7.9968100000000005e-26,9.3760700000000005e-31,-6.5009300000000003e-31,-1.6977500000000001e-30
862.0,3.1625600000000002e-29,-7.9957699999999997e-26,-7.9934899999999998e-26,-7.9951399999999998e-26,3.2239599999999997e-30,1.3983099999999999e-31,-1.3555099999999999e-29
863.0,3.1266199999999998e-29,-7.9961400000000002e-26,-7.9936199999999995e-26,-7.99547e-26,3.1040399999999999e-30,-2.72011e-32,-1.2087700000000001e-29
864.0,3.0735099999999998e-29,-7.9964399999999999e-26,-7.9937199999999998e-26,-7.9957500000000001e-26,3.0238700000000001e-30,-9.3616800000000005e-32,-1.03214e-29
865.0,3.0110799999999999e-29,-7.9966600000000001e-26,-7.9938000000000005e-26,-7.9959700000000002e-26,3.0336800000000001e-30,-1.6008e-31,-8.3844300000000006e-30
866.0,2.95713e-29,-7.9968200000000003e-26,-7.9938499999999995e-26,-7.99615e-26,3.06952e-30,-2.0957200000000001e-31,-6.2629299999999998e-30
867.0,2.9075200000000002e-29,-7.9969200000000006e-26,-7.9938899999999998e-26,-7.9962799999999997e-26,3.0226900000000001e-30,-3.0205200000000002e-31,-4.0397399999999997e-30
868.0,2.8921200000000001e-29,-7.9969800000000005e-26,-7.9939100000000005e-26,-7.9963899999999998e-26,3.2202699999999997e-30,-5.0240600000000001e-31,-1.8312799999999999e-30
869.0,3.0685699999999999e-29,-7.99547e-26,-7.9933299999999996e-26,-7.9948200000000005e-26,4.4587099999999997e-30,6.9908100000000001e-32,-1.32047e-29
870.0,3.0171900000000001e-29,-7.9957900000000004e-26,-7.9934499999999995e-26,-7.9951100000000004e-26,4.4119200000000003e-30,-3.1457000000000002e-32,-1.1766499999999999e-29
871.0,2.9523299999999999e-29,-7.9960300000000002e-26,-7.9935200000000004e-26,-7.9953300000000005e-26,4.5313399999999998e-30,-7.6375799999999995e-32,-1.00925e-29
872.0,2.8803099999999999e-29,-7.9962299999999996e-26,-7.9935800000000003e-26,-7.9955299999999999e-26,4.6269899999999998e-30,-6.2679699999999998e-32,-8.1522399999999997e-30
873.0,2.8177200000000002e-29,-7.9963600000000004e-26,-7.9936199999999995e-26,-7.9956800000000004e-26,4.7417900000000003e-30,-9.5070600000000003e-32,-6.1391500000000003e-30
874.0,2.7793700000000002e-29,-7.9964599999999995e-26,-7.9936500000000001e-26,-7.9958199999999998e-26,4.89071e-30,-1.30096e-31,-3.9932199999999999e-30
875.0,2.7493900000000001e-29,-7.9964800000000003e-26,-7.9936400000000003e-26,-7.9959000000000005e-26,4.8054500000000001e-30,-2.07931e-31,-1.7592500000000001e-30
876.0,2.99069e-29,-7.9951600000000005e-26,-7.9931800000000004e-26,-7.9945000000000001e-26,5.5043e-30,9.2008399999999994e-33,-1.29139e-29
877.0,2.9291299999999998e-29,-7.9953799999999995e-26,-7.9932400000000003e-26,-7.9946899999999997e-26,5.6543499999999998e-30,-2.7523400000000002e-32,-1.1616200000000001e-29
878.0,2.8491399999999999e-29,-7.9955800000000001e-26,-7.9932799999999995e-26,-7.9948699999999995e-26,5.8127499999999998e-30,1.4727300000000001e-32,-9.9385799999999995e-30
879.0,2.7737900000000002e-29,-7.9957400000000003e-26,-7.9933199999999998e-26,-7.9950299999999997e-26,6.02596e-30,3.8657299999999999e-32,-8.0785499999999999e-30
880.0,2.71246e-29,-7.99587e-26,-7.9933399999999994e-26,-7.9951800000000001e-26,6.2103300000000001e-30,7.8381799999999996e-32,-6.0512200000000003e-30
881.0,2.6642600000000001e-29,-7.9959299999999999e-26,-7.9933500000000004e-26,-7.9952800000000004e-26,6.3362400000000005e-30,5.0330899999999996e-32,-3.9825299999999997e-30
882.0,2.67815e-29,-7.9959899999999998e-26,-7.9933500000000004e-26,-7.9953900000000005e-26,6.5982399999999995e-30,-1.01326e-31,-1.9384200000000002e-30
883.0,3.1090799999999999e-29,-7.9961099999999997e-26,-7.9938499999999995e-26,-7.9955999999999997e-26,-2.28227e-30,9.4854299999999996e-31,-1.3257899999999999e-29
884.0,3.1570999999999998e-29,-7.9964200000000003e-26,-7.9939100000000005e-26,-7.9959299999999999e-26,-2.4582999999999999e-30,4.8229499999999997e-31,-1.22073e-29
885.0,3.0446199999999997e-29,-7.9967100000000002e-26,-7.9940199999999995e-26,-7.9961400000000002e-26,-2.6506699999999999e-30,4.8141299999999999e-31,-1.00917e-29
886.0,3.05952e-29,-7.9969599999999997e-26,-7.9940599999999998e-26,-7.9963999999999996e-26,-2.77916e-30,-1.41396e-31,-8.2166e-30
887.0,3.0013799999999998e-29,-7.9971500000000005e-26,-7.9941299999999995e-26,-7.99655e-26,-3.0796899999999999e-30,-1.8282799999999999e-31,-5.9003299999999998e-30
888.0,2.99684e-29,-7.9972200000000002e-26,-7.9941000000000001e-26,-7.9966500000000003e-26,-3.1608399999999998e-30,-8.7325700000000006e-31,-3.6957699999999998e-30
889.0,3.0352100000000002e-29,-7.9973900000000002e-26,-7.9941799999999997e-26,-7.9968200000000003e-26,-3.5153100000000001e-30,-8.40058e-31,-1.28605e-30
890.0,3.0887000000000001e-29,-7.9959299999999999e-26,-7.9936799999999994e-26,-7.9954399999999995e-26,-1.0137e-30,7.0656400000000003e-31,-1.32822e-29
891.0,3.01103e-29,-7.9962000000000002e-26,-7.9937799999999997e-26,-7.9956700000000006e-26,-1.16226e-30,4.7570999999999996e-31,-1.1767499999999999e-29
892.0,2.9958400000000002e-29,-7.9964999999999999e-26,-7.9938499999999995e-26,-7.9959499999999995e-26,-1.26839e-30,2.3203099999999999e-31,-1.01085e-29
893.0,2.9298600000000003e-29,-7.9967299999999998e-26,-7.9939300000000001e-26,-7.99615e-26,-1.46396e-30,-5.5873999999999996e-32,-8.0436499999999999e-30
894.0,2.91912e-29,-7.9969099999999996e-26,-7.9939499999999997e-26,-7.9963299999999998e-26,-1.5467299999999999e-30,-3.3635899999999998e-31,-6.0206299999999998e-30
895.0,2.8944399999999999e-29,-7.99706e-26,-7.9940199999999995e-26,-7.9964900000000001e-26,-1.8123099999999999e-30,-6.28904e-31,-3.6990000000000003e-30
896.0,2.8998999999999998e-29,-7.9970900000000006e-26,-7.9939999999999999e-26,-7.9965599999999998e-26,-1.8140300000000001e-30,-1.0421e-30,-1.47289e-30
897.0,2.9751400000000001e-29,-7.9957e-26,-7.99354e-26,-7.9951800000000001e-26,3.7230499999999999e-31,5.3587900000000003e-31,-1.2928200000000001e-29
898.0,2.93958e-29,-7.9959999999999996e-26,-7.9936300000000005e-26,-7.9954500000000004e-26,2.3655799999999999e-31,3.5327800000000002e-31,-1.15841e-29
899.0,2.8776299999999999e-29,-7.9962500000000003e-26,-7.9937000000000002e-26,-7.9956800000000004e-26,1.1935300000000001e-31,1.0611e-31,-9.8703500000000006e-30
900.0,2.8434100000000002e-29,-7.9964900000000001e-26,-7.9937600000000001e-26,-7.9959000000000005e-26,3.8816499999999999e-32,-6.4238799999999996e-32,-7.9930600000000002e-30
901.0,2.7919000000000001e-29,-7.9966600000000001e-26,-7.9938200000000001e-26,-7.9960800000000003e-26,-9.9694300000000004e-32,-3.4407199999999998e-31,-5.9012600000000001e-30
902.0,2.7822399999999998e-29,-7.9967700000000001e-26,-7.9938299999999999e-26,-7.99621e-26,-8.45242e-32,-5.3777700000000001e-31,-3.8125900000000003e-30
903.0,2.7919500000000001e-29,-7.9969200000000006e-26,-7.9939200000000003e-26,-7.9963899999999998e-26,-4.2184600000000002e-31,-7.3030900000000001e-31,-1.50503e-30
904.0,2.9027200000000001e-29,-7.9954799999999998e-26,-7.9933899999999996e-26,-7.9949299999999994e-26,1.6903199999999999e-30,4.0961600000000003e-31,-1.26463e-29
905.0,2.8439499999999999e-29,-7.9957300000000005e-26,-7.9934600000000004e-26,-7.9951600000000005e-26,1.6034899999999999e-30,2.2352599999999999e-31,-1.1322900000000001e-29
906.0,2.7861599999999997e-29,-7.9959899999999998e-26,-7.99354e-26,-7.9954000000000003e-26,1.5350800000000001e-30,1.0149300000000001e-31,-9.66747e-30
907.0,2.72932e-29,-7.9962000000000002e-26,-7.9935999999999999e-26,-7.9955999999999997e-26,1.51429e-30,-1.0489400000000001e-31,-7.8386400000000004e-30
908.0,2.6919700000000003e-29,-7.9963700000000002e-26,-7.9936500000000001e-26,-7.9957900000000004e-26,1.5147800000000001e-30,-2.14597e-31,-5.8628999999999999e-30
909.0,2.6531100000000003e-29,-7.9964900000000001e-26,-7.9937000000000002e-26,-7.9959299999999999e-26,1.4171700000000001e-30,-4.17659e-31,-3.7421600000000001e-30
910.0,2.69154e-29,-7.9966000000000001e-26,-7.9937199999999998e-26,-7.9960700000000005e-26,1.5843599999999999e-30,-6.8520000000000003e-31,-1.67378e-30
911.0,2.8245799999999999e-29,-7.9952200000000005e-26,-7.9932300000000005e-26,-7.9946399999999996e-26,2.96549e-30,3.3566300000000001e-31,-1.2347699999999999e-29
912.0,2.75445e-29,-7.9954600000000002e-26,-7.99331e-26,-7.9948699999999995e-26,2.8790299999999999e-30,2.1451999999999999e-31,-1.10194e-29
913.0,2.6906500000000002e-29,-7.9956800000000004e-26,-7.99337e-26,-7.9950799999999999e-26,2.9328899999999999e-30,7.72391e-32,-9.45622e-30
914.0,2.6274899999999999e-29,-7.99587e-26,-7.9934299999999999e-26,-7.9952800000000004e-26,2.9691299999999999e-30,-1.04986e-32,-7.6554600000000003e-30
915.0,2.5732100000000001e-29,-7.9960300000000002e-26,-7.99348e-26,-7.9954399999999995e-26,3.0338400000000001e-30,-1.6396800000000001e-31,-5.7469899999999997e-30
916.0,2.56454e-29,-7.99615e-26,-7.9934999999999996e-26,-7.9955899999999999e-26,3.1935499999999999e-30,-2.6099599999999999e-31,-3.7526599999999997e-30
917.0,2.5389399999999999e-29,-7.9962500000000003e-26,-7.9935700000000005e-26,-7.9957400000000003e-26,2.9794800000000001e-30,-4.0168099999999997e-31,-1.61781e-30
918.0,2.7585299999999998e-29,-7.9949699999999998e-26,-7.9930899999999999e-26,-7.9943700000000004e-26,4.0903799999999999e-30,3.2169300000000002e-31,-1.20069e-29
919.0,2.6962400000000002e-29,-7.9951700000000003e-26,-7.9931499999999998e-26,-7.99456e-26,4.1588599999999998e-30,1.98918e-31,-1.08351e-29
920.0,2.6109499999999998e-29,-7.9953699999999997e-26,-7.9932099999999998e-26,-7.9947599999999994e-26,4.2138300000000001e-30,1.19272e-31,-9.2625200000000003e-30
921.0,2.5483200000000002e-29,-7.9955399999999997e-26,-7.9932500000000001e-26,-7.9949199999999996e-26,4.3820299999999997e-30,1.4695400000000001e-32,-7.5591699999999995e-30
922.0,2.5009099999999999e-29,-7.9956900000000002e-26,-7.9932900000000004e-26,-7.9950899999999997e-26,4.5327900000000001e-30,-3.02763e-32,-5.6724699999999998e-30
923.0,2.46217e-29,-7.9957900000000004e-26,-7.9933199999999998e-26,-7.9952200000000005e-26,4.5907099999999999e-30,-1.35771e-31,-3.7246199999999998e-30
924.0,2.5269199999999999e-29,-7.9959100000000003e-26,-7.9933299999999996e-26,-7.9953599999999999e-26,5.0043599999999997e-30,-3.1248599999999999e-31,-1.7944700000000001e-30
925.0,2.7274199999999998e-29,-7.9947599999999994e-26,-7.99297e-26,-7.9941400000000005e-26,5.0129199999999997e-30,3.45201e-31,-1.18338e-29
926.0,2.64345e-29,-7.9949e-26,-7.9930100000000004e-26,-7.9942799999999999e-26,5.0978299999999997e-30,2.43125e-31,-1.06768e-29
927.0,2.5626999999999999e-29,-7.9950600000000003e-26,-7.9930499999999995e-26,-7.9944300000000004e-26,5.3326200000000002e-30,1.4070799999999999e-31,-9.1994200000000004e-30
928.0,2.4845200000000001e-29,-7.9952099999999995e-26,-7.9930800000000001e-26,-7.9945900000000006e-26,5.49407e-30,1.0845e-31,-7.4618600000000001e-30
929.0,2.4296800000000001e-29,-7.9953400000000003e-26,-7.9931099999999995e-26,-7.99473e-26,5.7016999999999997e-30,6.1562500000000001e-32,-5.6380899999999998e-30
930.0,2.42377e-29,-7.9954500000000004e-26,-7.9931300000000002e-26,-7.9948699999999995e-26,5.9865899999999997e-30,7.5151500000000006e-33,-3.7324100000000002e-30
931.0,2.3682599999999999e-29,-7.9955000000000006e-26,-7.9931599999999996e-26,-7.9949900000000005e-26,5.7190999999999999e-30,-8.8380500000000005e-32,-1.7649899999999999e-30
932.0,1.4800099999999999e-29,-7.9903799999999995e-26,-7.9909399999999997e-26,-7.9899299999999995e-26,6.4218899999999995e-30,5.8783799999999997e-31,-2.4107999999999999e-30
933.0,1.2804800000000001e-29,-7.9902400000000001e-26,-7.9907900000000004e-26,-7.9897700000000004e-26,4.38397e-30,4.0839600000000004e-31,-2.9516699999999999e-30
934.0,1.21147e-29,-7.9902499999999999e-26,-7.9910999999999999e-26,-7.9898400000000001e-26,1.9079800000000001e-30,1.6786299999999999e-31,-2.0147900000000001e-30
935.0,1.25958e-29,-7.9900999999999995e-26,-7.99098e-26,-7.9896799999999999e-26,3.5164899999999998e-31,1.1429300000000001e-31,-3.0036300000000002e-30
936.0,1.58232e-29,-7.9900700000000001e-26,-7.9914200000000003e-26,-7.9897800000000002e-26,-2.21675e-30,-1.92815e-31,-1.4995399999999999e-30
937.0,1.67081e-29,-7.9898800000000005e-26,-7.9912000000000002e-26,-7.9896100000000002e-26,-2.8827e-30,7.0368999999999998e-32,-3.44503e-30
938.0,2.43642e-29,-7.9897399999999999e-26,-7.9919300000000004e-26,-7.9896799999999999e-26,-5.6018e-30,-1.21982e-30,-6.0780400000000001e-31
939.0,1.6499e-29,-7.9903300000000006e-26,-7.9908199999999998e-26,-7.9898099999999996e-26,6.4585999999999997e-30,1.08596e-30,-4.70277e-30
940.0,1.4228299999999999e-29,-7.9903300000000006e-26,-7.99098e-26,-7.9898099999999996e-26,4.0993700000000002e-30,9.0840000000000003e-31,-3.9566000000000001e-30
941.0,1.3780900000000001e-29,-7.9901899999999999e-26,-7.9909499999999995e-26,-7.9897200000000003e-26,2.2536099999999998e-30,7.93975e-31,-4.3657699999999997e-30
942.0,1.44244e-29,-7.9901800000000001e-26,-7.99121e-26,-7.9897399999999999e-26,-2.0733199999999999e-31,6.0421700000000003e-31,-3.4538800000000002e-30
943.0,1.5858499999999999e-29,-7.9900199999999999e-26,-7.9911900000000004e-26,-7.9896600000000003e-26,-1.43349e-30,7.1489200000000004e-31,-4.1844100000000003e-30
944.0,1.98095e-29,-7.9899699999999998e-26,-7.9915800000000006e-26,-7.9896500000000005e-26,-3.9125499999999998e-30,-1.2861399999999999e-31,-2.8941500000000001e-30
945.0,2.0091100000000001e-29,-7.9899799999999996e-26,-7.9914800000000003e-26,-7.9896399999999996e-26,-4.6316200000000001e-30,1.14789e-30,-4.0112800000000002e-30
946.0,1.80756e-29,-7.9904100000000001e-26,-7.9909299999999999e-26,-7.9898200000000005e-26,6.2294600000000001e-30,1.5377599999999999e-30,-6.0401600000000003e-30
947.0,1.65426e-29,-7.9902800000000004e-26,-7.9909200000000001e-26,-7.9897499999999996e-26,4.2695999999999998e-30,1.42188e-30,-6.08652e-30
948.0,1.55118e-29,-7.9902900000000002e-26,-7.9910900000000001e-26,-7.9897499999999996e-26,1.9336400000000002e-30,1.3275700000000001e-30,-5.3783e-30
949.0,1.60511e-29,-7.9901399999999998e-26,-7.9911099999999997e-26,-7.9896899999999997e-26,3.4414899999999999e-31,1.36219e-30,-5.56672e-30
950.0,1.7658100000000001e-29,-7.9901200000000002e-26,-7.99138e-26,-7.9896999999999995e-26,-2.0105499999999999e-30,9.3948799999999994e-31,-4.7251699999999997e-30
951.0,1.9226499999999999e-29,-7.9900299999999997e-26,-7.9914100000000005e-26,-7.9896500000000005e-26,-3.09134e-30,1.5935899999999999e-30,-5.0755099999999997e-30
952.0,2.2864600000000001e-29,-7.9899099999999999e-26,-7.9917899999999998e-26,-7.9896999999999995e-26,-5.0597399999999997e-30,7.9783399999999997e-31,-3.92508e-30
953.0,2.0400299999999999e-29,-7.9903699999999997e-26,-7.9909200000000001e-26,-7.9898099999999996e-26,6.1974799999999998e-30,1.9243099999999999e-30,-8.0890299999999995e-30
954.0,1.8479799999999999e-29,-7.9903599999999999e-26,-7.9910200000000004e-26,-7.9897599999999994e-26,4.0550099999999997e-30,1.9280400000000001e-30,-7.3549999999999994e-30
955.0,1.7806299999999999e-29,-7.9902499999999999e-26,-7.9910599999999996e-26,-7.9897399999999999e-26,2.2559800000000001e-30,1.9075700000000001e-30,-7.2771899999999999e-30
956.0,1.7825699999999999e-29,-7.9902300000000003e-26,-7.9912400000000005e-26,-7.9897399999999999e-26,6.9163100000000003e-32,1.7611e-30,-6.6421100000000006e-30
957.0,1.8800200000000001e-29,-7.9901399999999998e-26,-7.9913100000000003e-26,-7.9897100000000005e-26,-1.3611700000000001e-30,2.04854e-30,-6.5838399999999994e-30
958.0,2.0672399999999999e-29,-7.9900500000000005e-26,-7.9915599999999998e-26,-7.9897399999999999e-26,-3.4226600000000002e-30,1.5643200000000001e-30,-5.7615000000000001e-30
959.0,2.1982899999999999e-29,-7.9900199999999999e-26,-7.9916099999999999e-26,-7.9897399999999999e-26,-4.4698999999999999e-30,2.0308499999999999e-30,-5.9128100000000002e-30
960.0,2.2334700000000001e-29,-7.9904399999999995e-26,-7.9909999999999996e-26,-7.98979e-26,5.9717000000000003e-30,2.4063200000000001e-30,-9.4036500000000003e-30
961.0,2.0831300000000001e-29,-7.9903400000000004e-26,-7.9910200000000004e-26,-7.98979e-26,4.1604300000000002e-30,2.32429e-30,-9.1527400000000005e-30
962.0,1.9918200000000001e-29,-7.9903199999999996e-26,-7.9911500000000001e-26,-7.9897700000000004e-26,2.13981e-30,2.3769199999999999e-30,-8.6064000000000006e-30
963.0,1.98161e-29,-7.9902499999999999e-26,-7.9912199999999998e-26,-7.9897700000000004e-26,5.41421e-31,2.4763500000000002e-30,-8.3643199999999998e-30
964.0,2.03258e-29,-7.9901800000000001e-26,-7.9914100000000005e-26,-7.9897999999999998e-26,-1.4930100000000001e-30,2.2764400000000001e-30,-7.7457400000000002e-30
965.0,2.13463e-29,-7.9901399999999998e-26,-7.9914999999999999e-26,-7.9897999999999998e-26,-2.7274199999999999e-30,2.5233899999999999e-30,-7.5404000000000001e-30
966.0,2.33528e-29,-7.9900399999999995e-26,-7.9917700000000002e-26,-7.9898499999999999e-26,-4.4611899999999999e-30,2.0999099999999999e-30,-6.7375199999999994e-30
967.0,2.4379e-29,-7.9904299999999997e-26,-7.9910300000000002e-26,-7.9898499999999999e-26,5.86136e-30,2.61055e-30,-1.10572e-29
968.0,2.3078299999999999e-29,-7.9904100000000001e-26,-7.9911099999999997e-26,-7.9898200000000005e-26,4.1158300000000001e-30,2.79217e-30,-1.0531899999999999e-29
969.0,2.2160099999999999e-29,-7.9903599999999999e-26,-7.9911699999999997e-26,-7.9898400000000001e-26,2.52598e-30,2.8129199999999999e-30,-1.02204e-29
970.0,2.1841899999999999e-29,-7.9903e-26,-7.9913000000000005e-26,-7.9898599999999997e-26,5.8281300000000002e-31,2.8184699999999998e-30,-9.8134800000000006e-30
971.0,2.20155e-29,-7.9902800000000004e-26,-7.9913999999999996e-26,-7.9898800000000005e-26,-8.2712599999999998e-31,2.9437400000000001e-30,-9.4751300000000002e-30
972.0,2.2735500000000001e-29,-7.9901899999999999e-26,-7.9915900000000004e-26,-7.9899299999999995e-26,-2.7207899999999999e-30,2.7044800000000001e-30,-8.8505000000000001e-30
973.0,2.3522e-29,-7.9901700000000003e-26,-7.9916699999999999e-26,-7.98996e-26,-3.9125199999999999e-30,2.8367299999999999e-30,-8.6111899999999995e-30
974.0,2.6283600000000001e-29,-7.9904899999999996e-26,-7.9911099999999997e-26,-7.9898599999999997e-26,5.7881600000000002e-30,3.03304e-30,-1.22073e-29
975.0,2.5168500000000001e-29,-7.9904600000000002e-26,-7.9911400000000003e-26,-7.9899000000000001e-26,4.4979599999999998e-30,3.0544000000000001e-30,-1.19567e-29
976.0,2.4535899999999999e-29,-7.9904199999999999e-26,-7.9912299999999996e-26,-7.9899099999999999e-26,2.7060700000000001e-30,3.1557300000000002e-30,-1.18083e-29
977.0,2.40403e-29,-7.9904199999999999e-26,-7.9913299999999999e-26,-7.98996e-26,1.29159e-30,3.26482e-30,-1.14835e-29
978.0,2.3908700000000001e-29,-7.9903400000000004e-26,-7.9914499999999997e-26,-7.9900100000000001e-26,-6.6333199999999998e-31,3.1735999999999998e-30,-1.1090000000000001e-29
979.0,2.4165100000000001e-29,-7.9903500000000002e-26,-7.9915800000000006e-26,-7.9900600000000003e-26,-1.9406599999999999e-30,3.2343699999999997e-30,-1.07617e-29
980.0,2.49719e-29,-7.9902699999999995e-26,-7.99178e-26,-7.99013e-26,-3.6360900000000002e-30,2.96374e-30,-1.01058e-29
981.0,1.4095100000000001e-29,-7.9911699999999997e-26,-7.9911599999999999e-26,-7.9907300000000005e-26,7.26809e-30,5.08931e-31,-2.64821e-30
982.0,1.06228e-29,-7.9912199999999998e-26,-7.9913499999999995e-26,-7.9908299999999996e-26,4.9882699999999997e-30,3.2398200000000001e-31,-2.29266e-30
983.0,8.7338799999999994e-30,-7.9911300000000005e-26,-7.9912699999999999e-26,-7.9907400000000003e-26,3.4208999999999999e-30,8.8789200000000002e-32,-2.4717899999999999e-30
984.0,7.0283700000000005e-30,-7.9912000000000002e-26,-7.9915400000000002e-26,-7.9908600000000002e-26,1.011e-30,2.4350400000000001e-32,-2.00919e-30
985.0,7.5173799999999995e-30,-7.9910900000000001e-26,-7.9915099999999997e-26,-7.9907900000000004e-26,-9.0435300000000002e-32,-8.9417399999999995e-32,-2.4038000000000001e-30
986.0,9.6559100000000006e-30,-7.9911500000000001e-26,-7.9917600000000004e-26,-7.9908600000000002e-26,-2.5335900000000001e-30,-3.32376e-31,-1.7936200000000002e-30
987.0,1.2782300000000001e-29,-7.9912199999999998e-26,-7.9920000000000001e-26,-7.9909200000000001e-26,-4.3164099999999998e-30,9.7875899999999994e-31,-1.9401000000000002e-30
988.0,1.5121900000000001e-29,-7.9912299999999996e-26,-7.9912799999999997e-26,-7.9907500000000001e-26,6.9090699999999998e-30,8.7405999999999997e-31,-4.3549899999999998e-30
989.0,1.2593699999999999e-29,-7.9911400000000003e-26,-7.9912600000000001e-26,-7.9906900000000002e-26,5.0805800000000002e-30,6.6436499999999997e-31,-4.2032500000000001e-30
990.0,1.03972e-29,-7.9911900000000004e-26,-7.9914100000000005e-26,-7.9907500000000001e-26,2.95542e-30,5.77286e-31,-3.9700100000000001e-30
991.0,9.5463400000000007e-30,-7.9911099999999997e-26,-7.9914499999999997e-26,-7.9907400000000003e-26,1.3850400000000001e-30,5.1752100000000004e-31,-3.9527500000000001e-30
992.0,9.7418599999999998e-30,-7.9911599999999999e-26,-7.9916400000000005e-26,-7.9908000000000002e-26,-6.7070899999999999e-31,2.2935800000000001e-31,-3.6127099999999998e-30
993.0,1.13157e-29,-7.9911199999999995e-26,-7.9917299999999998e-26,-7.99081e-26,-2.1671300000000001e-30,8.1355099999999992e-31,-3.9058199999999998e-30
994.0,1.27674e-29,-7.9910300000000002e-26,-7.9919800000000005e-26,-7.9909000000000005e-26,-3.6555199999999997e-30,2.29028e-32,-2.53957e-30
995.0,1.7017300000000001e-29,-7.9911599999999999e-26,-7.9912500000000003e-26,-7.9906499999999998e-26,6.8273900000000004e-30,1.1479399999999999e-30,-6.1780700000000003e-30
996.0,1.45982e-29,-7.9911900000000004e-26,-7.9913399999999997e-26,-7.9906800000000004e-26,4.7883300000000001e-30,1.0755799999999999e-30,-5.9057500000000003e-30
997.0,1.2902000000000001e-29,-7.9911099999999997e-26,-7.99138e-26,-7.9906700000000006e-26,3.0419700000000002e-30,1.02301e-30,-5.6853000000000002e-30
998.0,1.2006399999999999e-29,-7.9911699999999997e-26,-7.9915300000000004e-26,-7.9907400000000003e-26,1.10837e-30,8.5500299999999995e-31,-5.4911400000000003e-30
999.0,1.2302100000000001e-29,-7.9911099999999997e-26,-7.9916199999999997e-26,-7.9907400000000003e-26,-4.8167800000000002e-31,1.07906e-30,-5.4497200000000002e-30
1000.0,1.2839399999999999e-29,-7.9911199999999995e-26,-7.9918200000000003e-26,-7.9908299999999996e-26,-2.20718e-30,6.8753900000000003e-31,-4.8394199999999997e-30
1001.0,1.4805700000000001e-29,-7.9911300000000005e-26,-7.99189e-26,-7.9908600000000002e-26,-3.7051199999999999e-30,1.1774800000000001e-30,-5.3921900000000001e-30
1002.0,1.9081799999999999e-29,-7.9912000000000002e-26,-7.9913000000000005e-26,-7.9906300000000002e-26,6.5349200000000005e-30,1.49532e-30,-7.9467600000000002e-30
1003.0,1.68454e-29,-7.9911199999999995e-26,-7.9913299999999999e-26,-7.9906099999999995e-26,4.6955500000000001e-30,1.44587e-30,-7.5322899999999996e-30
1004.0,1.5479499999999999e-29,-7.9911500000000001e-26,-7.9914399999999999e-26,-7.9906599999999996e-26,2.87305e-30,1.37658e-30,-7.3530699999999997e-30
1005.0,1.4728799999999999e-29,-7.9911099999999997e-26,-7.9915300000000004e-26,-7.9906900000000002e-26,1.1703500000000001e-30,1.4762599999999999e-30,-7.1372100000000001e-30
1006.0,1.4488000000000001e-29,-7.9911400000000003e-26,-7.9916899999999995e-26,-7.9907599999999999e-26,-5.3395299999999999e-31,1.28912e-30,-6.8179700000000005e-30
1007.0,1.53757e-29,-7.9911199999999995e-26,-7.9917899999999998e-26,-7.9908000000000002e-26,-2.0441400000000001e-30,1.55275e-30,-6.8359600000000003e-30
1008.0,1.6127399999999999e-29,-7.9911199999999995e-26,-7.9920299999999995e-26,-7.9909000000000005e-26,-3.4462e-30,1.2319999999999999e-30,-6.0887799999999997e-30
1009.0,2.10696e-29,-7.9911599999999999e-26,-7.9913299999999999e-26,-7.9905999999999997e-26,6.3006499999999999e-30,1.75229e-30,-9.5228699999999999e-30
1010.0,1.93352e-29,-7.9911500000000001e-26,-7.99138e-26,-7.9905999999999997e-26,4.5462699999999998e-30,1.7841299999999999e-30,-9.2037299999999999e-30
1011.0,1.80155e-29,-7.9911199999999995e-26,-7.9914599999999995e-26,-7.9906300000000002e-26,2.8413599999999999e-30,1.8346999999999999e-30,-8.9081099999999998e-30
1012.0,1.7287700000000001e-29,-7.9911500000000001e-26,-7.9915800000000006e-26,-7.9907099999999998e-26,1.1927799999999999e-30,1.7703599999999999e-30,-8.7115299999999995e-30
1013.0,1.7218500000000001e-29,-7.9911300000000005e-26,-7.9916899999999995e-26,-7.9907599999999999e-26,-3.8757399999999999e-31,1.92e-30,-8.5361100000000006e-30
1014.0,1.73372e-29,-7.9911599999999999e-26,-7.9918700000000004e-26,-7.9908600000000002e-26,-1.9366499999999999e-30,1.7533399999999999e-30,-8.1311399999999996e-30
1015.0,1.8299900000000001e-29,-7.9911500000000001e-26,-7.9919400000000002e-26,-7.9909200000000001e-26,-3.3814200000000001e-30,1.90641e-30,-8.2461999999999997e-30
1016.0,2.3247500000000001e-29,-7.9911900000000004e-26,-7.9913700000000002e-26,-7.9906099999999995e-26,6.10952e-30,2.0689600000000002e-30,-1.10674e-29
1017.0,2.15955e-29,-7.9911400000000003e-26,-7.9914300000000001e-26,-7.9906099999999995e-26,4.4897599999999997e-30,2.0897100000000001e-30,-1.06709e-29
1018.0,2.0612500000000001e-29,-7.9911599999999999e-26,-7.9915099999999997e-26,-7.9906700000000006e-26,2.9648000000000001e-30,2.12982e-30,-1.0515500000000001e-29
1019.0,1.9980000000000001e-29,-7.9911599999999999e-26,-7.9916099999999999e-26,-7.9907300000000005e-26,1.34323e-30,2.24367e-30,-1.03283e-29
1020.0,1.96158e-29,-7.9911900000000004e-26,-7.9917500000000006e-26,-7.9908299999999996e-26,-1.80227e-31,2.1586299999999999e-30,-1.00983e-29
1021.0,1.98275e-29,-7.9911900000000004e-26,-7.9918499999999997e-26,-7.9909000000000005e-26,-1.6696099999999999e-30,2.2612999999999999e-30,-9.9622099999999996e-30
1022.0,2.02956e-29,-7.9912299999999996e-26,-7.9920799999999996e-26,-7.9910099999999994e-26,-3.05157e-30,2.1214800000000002e-30,-9.5457000000000005e-30
1023.0,2.49741e-29,-7.99121e-26,-7.9914399999999999e-26,-7.99064e-26,5.98268e-30,2.20299e-30,-1.22737e-29
1024.0,2.4133200000000001e-29,-7.9912000000000002e-26,-7.9914700000000005e-26,-7.9906700000000006e-26,4.7343599999999998e-30,2.3510400000000001e-30,-1.2227300000000001e-29
1025.0,2.3350699999999999e-29,-7.9912299999999996e-26,-7.9915699999999996e-26,-7.9907300000000005e-26,3.2448000000000003e-30,2.42069e-30,-1.2158e-29
1026.0,2.27146e-29,-7.9912500000000003e-26,-7.9916699999999999e-26,-7.9908399999999994e-26,1.7642600000000002e-30,2.46054e-30,-1.20563e-29
1027.0,2.24608e-29,-7.9912799999999997e-26,-7.99178e-26,-7.9909200000000001e-26,1.9034899999999999e-31,2.5863400000000002e-30,-1.1943400000000001e-29
1028.0,2.23987e-29,-7.9913200000000001e-26,-7.99195e-26,-7.99104e-26,-1.33476e-30,2.4640400000000001e-30,-1.17281e-29
1029.0,2.2805099999999999e-29,-7.9912799999999997e-26,-7.9920000000000001e-26,-7.9910999999999999e-26,-2.87582e-30,2.5141300000000001e-30,-1.1661799999999999e-29
1030.0,1.38537e-29,-7.9921000000000004e-26,-7.9916600000000001e-26,-7.9917000000000004e-26,7.2398199999999997e-30,4.3618500000000001e-31,-2.34861e-30
1031.0,1.1503100000000001e-29,-7.9920299999999995e-26,-7.9916000000000001e-26,-7.9916400000000005e-26,5.7434499999999998e-30,1.52026e-31,-2.3111599999999998e-30
1032.0,8.1834399999999998e-30,-7.9921500000000005e-26,-7.9917700000000002e-26,-7.9917899999999998e-26,3.6294899999999998e-30,9.4630399999999998e-32,-2.0912900000000001e-30
1033.0,6.2019100000000002e-30,-7.99212e-26,-7.9917999999999996e-26,-7.9917899999999998e-26,2.22143e-30,-1.45684e-31,-2.0870000000000002e-30
1034.0,4.6023099999999998e-30,-7.99223e-26,-7.9919400000000002e-26,-7.9918999999999998e-26,1.2289399999999999e-31,-1.79294e-31,-1.9585299999999999e-30
1035.0,4.9421500000000003e-30,-7.99223e-26,-7.9921100000000002e-26,-7.9919599999999998e-26,-1.7743799999999999e-30,6.7396399999999999e-32,-1.7694800000000001e-30
1036.0,6.5448100000000005e-30,-7.9920899999999994e-26,-7.99223e-26,-7.9919200000000006e-26,-2.8236000000000001e-30,-1.0442499999999999e-30,-1.68511e-30
1037.0,1.5152700000000001e-29,-7.9920099999999999e-26,-7.9915900000000004e-26,-7.9915599999999998e-26,7.2162799999999999e-30,5.976e-31,-4.2159500000000003e-30
1038.0,1.23885e-29,-7.9920699999999998e-26,-7.9916799999999997e-26,-7.9916199999999997e-26,5.3299000000000003e-30,5.1191800000000004e-31,-4.0703100000000003e-30
1039.0,1.0020499999999999e-29,-7.9920500000000002e-26,-7.99172e-26,-7.9916500000000003e-26,3.6928999999999998e-30,3.6490099999999998e-31,-3.9141999999999999e-30
1040.0,8.1970699999999996e-30,-7.9921399999999996e-26,-7.9918499999999997e-26,-7.9917600000000004e-26,1.8423700000000001e-30,2.7183099999999998e-31,-3.8483600000000002e-30
1041.0,7.2315800000000005e-30,-7.9921500000000005e-26,-7.9919599999999998e-26,-7.9918200000000003e-26,2.0133299999999999e-31,3.66183e-31,-3.80561e-30
1042.0,6.8795499999999998e-30,-7.9921799999999999e-26,-7.9921000000000004e-26,-7.9918999999999998e-26,-1.5078e-30,1.1522699999999999e-31,-3.3793900000000002e-30
1043.0,8.9948099999999993e-30,-7.9922800000000002e-26,-7.9922999999999998e-26,-7.9919800000000005e-26,-3.3108900000000003e-30,6.6317299999999998e-31,-3.5032100000000002e-30
1044.0,1.66585e-29,-7.9920099999999999e-26,-7.9916400000000005e-26,-7.9914999999999999e-26,6.8979100000000002e-30,8.8047700000000004e-31,-6.0880100000000001e-30
1045.0,1.4126599999999999e-29,-7.9919699999999996e-26,-7.9916500000000003e-26,-7.9915099999999997e-26,5.2067800000000001e-30,7.6681300000000003e-31,-5.7717400000000001e-30
1046.0,1.2282000000000001e-29,-7.9920500000000002e-26,-7.9917600000000004e-26,-7.9916000000000001e-26,3.4429199999999997e-30,6.9715599999999997e-31,-5.7228099999999998e-30
1047.0,1.07951e-29,-7.99206e-26,-7.9918499999999997e-26,-7.9916600000000001e-26,1.8036699999999999e-30,7.06844e-31,-5.5889299999999997e-30
1048.0,9.9664399999999994e-30,-7.9921399999999996e-26,-7.9919900000000003e-26,-7.99178e-26,1.3426000000000001e-31,6.1149100000000001e-31,-5.4249899999999998e-30
1049.0,1.0318200000000001e-29,-7.9921600000000003e-26,-7.99212e-26,-7.9918499999999997e-26,-1.45841e-30,8.1329500000000008e-31,-5.4614900000000001e-30
1050.0,1.00096e-29,-7.9921899999999997e-26,-7.9922800000000002e-26,-7.9919900000000003e-26,-2.7366900000000001e-30,4.92849e-31,-4.8409900000000002e-30
1051.0,1.83842e-29,-7.9919400000000002e-26,-7.9916400000000005e-26,-7.9914200000000003e-26,6.6649900000000003e-30,1.06723e-30,-7.7574600000000003e-30
1052.0,1.63736e-29,-7.99195e-26,-7.9916899999999995e-26,-7.9914499999999997e-26,4.9593599999999999e-30,1.0591100000000001e-30,-7.5637100000000001e-30
1053.0,1.4606899999999999e-29,-7.9919699999999996e-26,-7.9917700000000002e-26,-7.9915199999999995e-26,3.2965899999999998e-30,1.03982e-30,-7.3526399999999994e-30
1054.0,1.3612899999999999e-29,-7.9920500000000002e-26,-7.9918800000000002e-26,-7.9916199999999997e-26,1.7006000000000001e-30,1.02011e-30,-7.3031400000000001e-30
1055.0,1.3101100000000001e-29,-7.9920799999999996e-26,-7.9920000000000001e-26,-7.99172e-26,1.27926e-31,1.0924499999999999e-30,-7.2309099999999997e-30
1056.0,1.2766900000000001e-29,-7.9921500000000005e-26,-7.9921500000000005e-26,-7.9918499999999997e-26,-1.35209e-30,9.9246000000000004e-31,-6.9595000000000001e-30
1057.0,1.4033099999999999e-29,-7.9922200000000002e-26,-7.9922800000000002e-26,-7.99195e-26,-2.9279499999999998e-30,1.17858e-30,-7.2525999999999996e-30
1058.0,2.0497400000000001e-29,-7.9919200000000006e-26,-7.9916600000000001e-26,-7.9913700000000002e-26,6.3690399999999995e-30,1.3273e-30,-9.4843200000000004e-30
1059.0,1.84828e-29,-7.9918999999999998e-26,-7.9917100000000002e-26,-7.9913899999999998e-26,4.7464499999999998e-30,1.31534e-30,-9.1161699999999998e-30
1060.0,1.72962e-29,-7.99195e-26,-7.9917899999999998e-26,-7.9914700000000005e-26,3.1906000000000003e-30,1.3547399999999999e-30,-9.0474800000000001e-30
1061.0,1.6395e-29,-7.9919900000000003e-26,-7.9918999999999998e-26,-7.9915699999999996e-26,1.6431699999999999e-30,1.37621e-30,-8.9493699999999999e-30
1062.0,1.59033e-29,-7.9920699999999998e-26,-7.9920400000000004e-26,-7.9917100000000002e-26,1.65939e-31,1.38606e-30,-8.8484499999999995e-30
1063.0,1.6093400000000001e-29,-7.9921299999999998e-26,-7.9921600000000003e-26,-7.9918100000000005e-26,-1.3114600000000001e-30,1.46563e-30,-8.8748199999999994e-30
1064.0,1.60608e-29,-7.9922100000000004e-26,-7.9923499999999999e-26,-7.9919699999999996e-26,-2.6272900000000001e-30,1.38556e-30,-8.5625000000000004e-30
1065.0,2.23716e-29,-7.9919099999999996e-26,-7.9917100000000002e-26,-7.9913600000000004e-26,6.1219200000000001e-30,1.4857799999999999e-30,-1.09297e-29
1066.0,2.0995900000000001e-29,-7.9918999999999998e-26,-7.9917399999999996e-26,-7.99138e-26,4.68064e-30,1.5825e-30,-1.07429e-29
1067.0,1.98973e-29,-7.9919400000000002e-26,-7.9918300000000001e-26,-7.9914700000000005e-26,3.1904300000000003e-30,1.6016700000000002e-30,-1.0638599999999999e-29
1068.0,1.92779e-29,-7.9920099999999999e-26,-7.9919400000000002e-26,-7.9915900000000004e-26,1.7641599999999999e-30,1.68922e-30,-1.0622200000000001e-29
1069.0,1.8991100000000001e-29,-7.9920799999999996e-26,-7.99206e-26,-7.9917100000000002e-26,2.7567699999999998e-31,1.71153e-30,-1.06226e-29
1070.0,1.88272e-29,-7.9921600000000003e-26,-7.9922200000000002e-26,-7.9918599999999995e-26,-1.1411899999999999e-30,1.7296699999999999e-30,-1.04973e-29
1071.0,1.95474e-29,-7.9921999999999995e-26,-7.9922999999999998e-26,-7.9919699999999996e-26,-2.6460900000000001e-30,1.7990900000000001e-30,-1.06852e-29
1072.0,2.4341599999999999e-29,-7.9919200000000006e-26,-7.9917299999999998e-26,-7.9913700000000002e-26,6.0345999999999997e-30,1.6935600000000001e-30,-1.22564e-29
1073.0,2.3398500000000001e-29,-7.9919400000000002e-26,-7.9917999999999996e-26,-7.9914300000000001e-26,4.7812500000000002e-30,1.7252600000000001e-30,-1.22301e-29
1074.0,2.27856e-29,-7.9920000000000001e-26,-7.9918800000000002e-26,-7.9915300000000004e-26,3.4618799999999997e-30,1.8395200000000001e-30,-1.23134e-29
1075.0,2.2324e-29,-7.9920799999999996e-26,-7.9920000000000001e-26,-7.9916600000000001e-26,2.0197699999999999e-30,1.8830399999999999e-30,-1.23932e-29
1076.0,2.2039599999999999e-29,-7.9921700000000001e-26,-7.9921299999999998e-26,-7.9918100000000005e-26,5.8315600000000001e-31,2.0054e-30,-1.2396100000000001e-29
1077.0,2.2116700000000001e-29,-7.9922399999999998e-26,-7.9922399999999998e-26,-7.9919300000000004e-26,-9.0013000000000006e-31,1.9836400000000002e-30,-1.2456500000000001e-29
1078.0,2.21787e-29,-7.9923099999999996e-26,-7.9924400000000004e-26,-7.9920799999999996e-26,-2.2748500000000001e-30,1.9774099999999999e-30,-1.23093e-29
1079.0,1.5641000000000001e-29,-7.9928599999999999e-26,-7.9919300000000004e-26,-7.9924500000000002e-26,7.4171299999999999e-30,2.3385100000000001e-31,-2.2480800000000001e-30
1080.0,1.3150499999999999e-29,-7.9929799999999998e-26,-7.9920400000000004e-26,-7.9925799999999999e-26,5.57612e-30,1.36421e-31,-2.0672599999999999e-30
1081.0,1.11713e-29,-7.9929899999999996e-26,-7.9920899999999994e-26,-7.99263e-26,4.1133899999999998e-30,-1.26677e-31,-1.9793600000000002e-30
1082.0,9.8305899999999999e-30,-7.9931499999999998e-26,-7.9921999999999995e-26,-7.9927900000000002e-26,2.27992e-30,-1.6263899999999999e-31,-1.9335299999999999e-30
1083.0,8.0232400000000003e-30,-7.9931900000000002e-26,-7.9923400000000001e-26,-7.9928900000000005e-26,4.7747700000000001e-31,-2.2146499999999998e-31,-1.70591e-30
1084.0,7.7786400000000002e-30,-7.9932099999999998e-26,-7.9924199999999996e-26,-7.9929299999999997e-26,-8.8718999999999997e-31,-5.8216999999999997e-31,-1.79508e-30
1085.0,8.86075e-30,-7.9933799999999998e-26,-7.9926100000000004e-26,-7.9930800000000001e-26,-2.9572899999999999e-30,2.5498699999999998e-31,-1.5442199999999999e-30
1086.0,1.6058e-29,-7.9928699999999997e-26,-7.9919800000000005e-26,-7.9924000000000001e-26,7.0210100000000004e-30,4.6125199999999998e-31,-4.0698000000000003e-30
1087.0,1.3754499999999999e-29,-7.9928599999999999e-26,-7.9920099999999999e-26,-7.9924400000000004e-26,5.4722200000000002e-30,2.88335e-31,-3.8699700000000003e-30
1088.0,1.2085599999999999e-29,-7.9929899999999996e-26,-7.9921000000000004e-26,-7.9925600000000003e-26,3.7932199999999999e-30,2.1017599999999999e-31,-3.8396500000000001e-30
1089.0,1.0419e-29,-7.9930399999999997e-26,-7.9922100000000004e-26,-7.9926700000000003e-26,2.1871000000000001e-30,1.4206400000000001e-31,-3.7460699999999999e-30
1090.0,9.6154899999999999e-30,-7.99314e-26,-7.9923200000000005e-26,-7.9928e-26,5.10296e-31,7.8532699999999995e-32,-3.6445000000000001e-30
1091.0,9.1241599999999994e-30,-7.9932300000000005e-26,-7.9925000000000003e-26,-7.9929100000000001e-26,-1.1990400000000001e-30,1.11756e-31,-3.5784799999999998e-30
1092.0,9.2616100000000006e-30,-7.9932300000000005e-26,-7.9925799999999999e-26,-7.9929899999999996e-26,-2.3846800000000001e-30,-2.91873e-31,-3.4659600000000002e-30
1093.0,1.7114899999999999e-29,-7.9927699999999995e-26,-7.9919599999999998e-26,-7.9922700000000004e-26,6.8309200000000004e-30,6.05712e-31,-5.8273599999999997e-30
1094.0,1.5102000000000001e-29,-7.9928199999999996e-26,-7.9920199999999997e-26,-7.9923499999999999e-26,5.2068000000000001e-30,5.2006199999999998e-31,-5.70564e-30
1095.0,1.3370900000000001e-29,-7.9928699999999997e-26,-7.9921000000000004e-26,-7.9924400000000004e-26,3.6290200000000003e-30,4.7351000000000004e-31,-5.5799200000000002e-30
1096.0,1.2376899999999999e-29,-7.9930000000000006e-26,-7.9922200000000002e-26,-7.9925899999999997e-26,2.0493999999999999e-30,4.3625400000000004e-31,-5.5838100000000001e-30
1097.0,1.1534000000000001e-29,-7.9930700000000003e-26,-7.9923400000000001e-26,-7.9927099999999995e-26,4.6317099999999999e-31,4.3420100000000001e-31,-5.5384500000000003e-30
1098.0,1.1326600000000001e-29,-7.9931800000000004e-26,-7.9924699999999998e-26,-7.9928500000000001e-26,-1.02414e-30,4.0349600000000001e-31,-5.3691299999999997e-30
1099.0,1.2030300000000001e-29,-7.9933000000000002e-26,-7.9926499999999996e-26,-7.9929799999999998e-26,-2.7241599999999999e-30,6.2258400000000003e-31,-5.4722000000000002e-30
1100.0,1.8689499999999999e-29,-7.9927200000000005e-26,-7.9919699999999996e-26,-7.9921799999999999e-26,6.5355699999999998e-30,7.7398899999999996e-31,-7.6407799999999999e-30
1101.0,1.66332e-29,-7.9927200000000005e-26,-7.9920199999999997e-26,-7.99223e-26,4.9526599999999998e-30,7.5039000000000001e-31,-7.3608000000000004e-30
1102.0,1.54352e-29,-7.9928099999999998e-26,-7.9921100000000002e-26,-7.9923499999999999e-26,3.4401899999999999e-30,7.31475e-31,-7.3609999999999995e-30
1103.0,1.44671e-29,-7.9929000000000003e-26,-7.9922200000000002e-26,-7.9924900000000005e-26,1.9263999999999999e-30,7.3451800000000001e-31,-7.3252000000000005e-30
1104.0,1.4043300000000001e-29,-7.99303e-26,-7.9923499999999999e-26,-7.9926499999999996e-26,4.4028100000000002e-31,7.4849200000000004e-31,-7.3105700000000006e-30
1105.0,1.4063500000000001e-29,-7.9931200000000004e-26,-7.9924900000000005e-26,-7.9927800000000004e-26,-1.04737e-30,8.0267400000000008e-31,-7.3695899999999994e-30
1106.0,1.4137999999999999e-29,-7.9932300000000005e-26,-7.99263e-26,-7.99297e-26,-2.3367700000000001e-30,7.36408e-31,-7.1964099999999995e-30
1107.0,2.0305e-29,-7.9926499999999996e-26,-7.9919800000000005e-26,-7.9921000000000004e-26,6.2157799999999998e-30,9.4560799999999996e-31,-9.2422100000000004e-30
1108.0,1.8693100000000001e-29,-7.9926600000000005e-26,-7.9920299999999995e-26,-7.9921600000000003e-26,4.7390799999999998e-30,9.5830599999999994e-31,-9.0560800000000006e-30
1109.0,1.7555299999999999e-29,-7.9927300000000003e-26,-7.9921100000000002e-26,-7.9922700000000004e-26,3.2683100000000002e-30,9.8861600000000001e-31,-8.9860000000000004e-30
1110.0,1.7003999999999999e-29,-7.9928500000000001e-26,-7.9922399999999998e-26,-7.9924299999999994e-26,1.85465e-30,1.00912e-30,-9.05505e-30
1111.0,1.6702200000000001e-29,-7.9929500000000004e-26,-7.9923599999999997e-26,-7.9925700000000001e-26,4.2154200000000001e-31,1.0541600000000001e-30,-9.0969100000000003e-30
1112.0,1.6723900000000001e-29,-7.9930899999999999e-26,-7.9925100000000001e-26,-7.9927599999999997e-26,-9.8389799999999999e-31,1.08467e-30,-9.0899699999999999e-30
1113.0,1.7498200000000001e-29,-7.9931900000000002e-26,-7.9926399999999998e-26,-7.9929000000000003e-26,-2.45484e-30,1.1545800000000001e-30,-9.3248399999999993e-30
1114.0,2.22306e-29,-7.9926200000000002e-26,-7.9920099999999999e-26,-7.9920699999999998e-26,5.9841500000000001e-30,1.1042000000000001e-30,-1.07906e-29
1115.0,2.0831099999999999e-29,-7.99263e-26,-7.99206e-26,-7.99212e-26,4.5937699999999998e-30,1.14687e-30,-1.05983e-29
1116.0,2.0091799999999999e-29,-7.9927099999999995e-26,-7.9921500000000005e-26,-7.9922499999999996e-26,3.2667900000000002e-30,1.19163e-30,-1.06468e-29
1117.0,1.96352e-29,-7.9928199999999996e-26,-7.9922599999999994e-26,-7.9923900000000003e-26,1.86632e-30,1.26656e-30,-1.07223e-29
1118.0,1.9523099999999999e-29,-7.9929600000000002e-26,-7.9924000000000001e-26,-7.9925799999999999e-26,4.9415300000000004e-31,1.30208e-30,-1.08189e-29
1119.0,1.9717699999999999e-29,-7.9930600000000005e-26,-7.9925199999999999e-26,-7.9927300000000003e-26,-8.9658200000000005e-31,1.37112e-30,-1.0938000000000001e-29
1120.0,1.9988000000000001e-29,-7.9931900000000002e-26,-7.9927099999999995e-26,-7.9929199999999999e-26,-2.2134799999999999e-30,1.4364999999999999e-30,-1.0970900000000001e-29
1121.0,2.3976299999999999e-29,-7.99263e-26,-7.9920500000000002e-26,-7.9920799999999996e-26,5.8069200000000003e-30,1.1957199999999999e-30,-1.2075899999999999e-29
1122.0,2.3297999999999999e-29,-7.9926600000000005e-26,-7.9921000000000004e-26,-7.9921600000000003e-26,4.7095099999999999e-30,1.29054e-30,-1.21455e-29
1123.0,2.28588e-29,-7.9927599999999997e-26,-7.9921999999999995e-26,-7.99229e-26,3.42187e-30,1.3588200000000001e-30,-1.23109e-29
1124.0,2.26651e-29,-7.9928799999999995e-26,-7.9923300000000003e-26,-7.9924699999999998e-26,2.0976700000000001e-30,1.4426599999999999e-30,-1.25025e-29
1125.0,2.2696599999999999e-29,-7.9930100000000004e-26,-7.9924400000000004e-26,-7.99263e-26,6.9429499999999997e-31,1.5501299999999999e-30,-1.2670699999999999e-29
1126.0,2.28562e-29,-7.9931499999999998e-26,-7.9926100000000004e-26,-7.9928300000000005e-26,-7.1163099999999996e-31,1.57789e-30,-1.2790000000000001e-29
1127.0,2.3498599999999999e-29,-7.9932e-26,-7.9926899999999999e-26,-7.9929399999999995e-26,-2.2245100000000001e-30,1.6444299999999999e-30,-1.30327e-29
1128.0,1.7550999999999999e-29,-7.9937299999999996e-26,-7.9923300000000003e-26,-7.9932799999999995e-26,6.8765899999999995e-30,2.0205e-31,-2.0449000000000001e-30
1129.0,1.5848e-29,-7.9937299999999996e-26,-7.9923699999999995e-26,-7.9933399999999994e-26,5.56118e-30,-9.0030899999999998e-32,-1.91255e-30
1130.0,1.5224299999999999e-29,-7.9939399999999999e-26,-7.99246e-26,-7.9935200000000004e-26,3.9667900000000003e-30,-1.41872e-31,-1.87159e-30
1131.0,1.3659299999999999e-29,-7.9940300000000004e-26,-7.9926100000000004e-26,-7.9936799999999994e-26,2.2455399999999999e-30,-3.1261900000000002e-31,-1.6669400000000002e-30
1132.0,1.3757899999999999e-29,-7.9941500000000003e-26,-7.9926800000000001e-26,-7.9938000000000005e-26,7.8178299999999996e-31,-4.6910799999999996e-31,-1.7461e-30
1133.0,1.34412e-29,-7.9942899999999997e-26,-7.9928599999999999e-26,-7.9939700000000005e-26,-1.1830099999999999e-30,-2.7794899999999998e-31,-1.4580999999999999e-30
1134.0,1.3149600000000001e-29,-7.9942399999999996e-26,-7.9929199999999999e-26,-7.9939700000000005e-26,-2.3823900000000002e-30,-1.0003000000000001e-30,-1.50212e-30
1135.0,1.7678000000000001e-29,-7.9936099999999997e-26,-7.9923099999999996e-26,-7.99314e-26,6.7800399999999998e-30,2.4306600000000002e-31,-3.8397199999999998e-30
1136.0,1.6313900000000001e-29,-7.99371e-26,-7.9923599999999997e-26,-7.9932500000000001e-26,5.2560800000000003e-30,1.6047699999999999e-31,-3.7566000000000001e-30
1137.0,1.49366e-29,-7.9938000000000005e-26,-7.9924699999999998e-26,-7.9933899999999996e-26,3.7628399999999999e-30,2.7966699999999998e-32,-3.6699600000000003e-30
1138.0,1.4456799999999999e-29,-7.9939599999999995e-26,-7.9925700000000001e-26,-7.9935599999999996e-26,2.1780999999999998e-30,-1.1490399999999999e-32,-3.6479900000000003e-30
1139.0,1.3699e-29,-7.9940900000000003e-26,-7.9927300000000003e-26,-7.9937199999999998e-26,5.3998000000000002e-31,-1.1636799999999999e-31,-3.5792200000000002e-30
1140.0,1.39497e-29,-7.9941699999999999e-26,-7.9928e-26,-7.9938299999999999e-26,-8.6687399999999999e-31,-1.86514e-31,-3.5828599999999997e-30
1141.0,1.43737e-29,-7.9943800000000002e-26,-7.9930100000000004e-26,-7.9940199999999995e-26,-2.6548100000000001e-30,1.64211e-31,-3.4443500000000001e-30
1142.0,1.84531e-29,-7.9935499999999998e-26,-7.9923099999999996e-26,-7.99303e-26,6.4969600000000006e-30,4.0214800000000001e-31,-5.6741599999999998e-30
1143.0,1.68235e-29,-7.9935800000000003e-26,-7.9923499999999999e-26,-7.9930999999999997e-26,5.0337500000000003e-30,3.2465399999999999e-31,-5.4960600000000001e-30
1144.0,1.5961899999999999e-29,-7.9937299999999996e-26,-7.9924500000000002e-26,-7.9932699999999997e-26,3.5760000000000003e-30,2.69002e-31,-5.5039100000000002e-30
1145.0,1.51588e-29,-7.9938499999999995e-26,-7.9925799999999999e-26,-7.9934399999999997e-26,2.04987e-30,1.9954300000000002e-31,-5.4836100000000002e-30
1146.0,1.5125900000000001e-29,-7.9940099999999997e-26,-7.9926899999999999e-26,-7.9936199999999995e-26,5.4503599999999997e-31,2.2959699999999999e-31,-5.49138e-30
1147.0,1.4980099999999999e-29,-7.9941400000000005e-26,-7.9928599999999999e-26,-7.9937699999999999e-26,-1.00569e-30,1.9215899999999999e-31,-5.5114800000000002e-30
1148.0,1.5642e-29,-7.9942600000000004e-26,-7.9929600000000002e-26,-7.9939499999999997e-26,-2.24308e-30,7.51828e-32,-5.5235800000000001e-30
1149.0,1.94702e-29,-7.9934399999999997e-26,-7.99229e-26,-7.9929100000000001e-26,6.2174599999999998e-30,5.2703500000000004e-31,-7.3792499999999997e-30
1150.0,1.8072999999999999e-29,-7.9934899999999998e-26,-7.9923400000000001e-26,-7.9929899999999996e-26,4.7890799999999998e-30,5.0882e-31,-7.2515999999999995e-30
1151.0,1.7182300000000001e-29,-7.9935999999999999e-26,-7.9924400000000004e-26,-7.99314e-26,3.3820299999999997e-30,4.7053899999999998e-31,-7.2370499999999993e-30
1152.0,1.6805499999999999e-29,-7.9937600000000001e-26,-7.9925600000000003e-26,-7.9933299999999996e-26,1.9341700000000001e-30,4.89897e-31,-7.30937e-30
1153.0,1.6664100000000001e-29,-7.9939100000000005e-26,-7.9926999999999997e-26,-7.9934999999999996e-26,4.8968599999999997e-31,4.6192199999999998e-31,-7.3853299999999995e-30
1154.0,1.6992899999999999e-29,-7.9940599999999998e-26,-7.9928300000000005e-26,-7.9936900000000004e-26,-9.1534900000000006e-31,5.4255599999999999e-31,-7.4182400000000001e-30
1155.0,1.7523600000000001e-29,-7.9942399999999996e-26,-7.9930200000000002e-26,-7.9938700000000002e-26,-2.4272599999999999e-30,6.4413500000000002e-31,-7.5347599999999998e-30
1156.0,2.09027e-29,-7.9933500000000004e-26,-7.99229e-26,-7.9928e-26,5.9349500000000003e-30,6.5780899999999999e-31,-9.0543399999999994e-30
1157.0,1.9575499999999999e-29,-7.9933899999999996e-26,-7.9923300000000003e-26,-7.9928799999999995e-26,4.5469199999999999e-30,6.8408799999999996e-31,-8.8759600000000002e-30
1158.0,1.8938199999999999e-29,-7.9935099999999994e-26,-7.9924400000000004e-26,-7.99303e-26,3.2172399999999997e-30,7.0122000000000004e-31,-8.9388599999999996e-30
1159.0,1.86679e-29,-7.9936500000000001e-26,-7.9925600000000003e-26,-7.9932099999999998e-26,1.8477199999999999e-30,7.0167600000000001e-31,-9.0444400000000001e-30
1160.0,1.8797199999999999e-29,-7.9938200000000001e-26,-7.9926899999999999e-26,-7.9934200000000001e-26,4.6462300000000004e-31,7.7235400000000004e-31,-9.1793000000000003e-30
1161.0,1.9080600000000001e-29,-7.9939700000000005e-26,-7.9928400000000003e-26,-7.9935999999999999e-26,-8.9427499999999998e-31,7.9735199999999998e-31,-9.3243000000000002e-30
1162.0,1.9774900000000001e-29,-7.9941299999999995e-26,-7.9929899999999996e-26,-7.9938299999999999e-26,-2.1858199999999998e-30,8.6751600000000001e-31,-9.4640500000000003e-30
1163.0,2.2514799999999999e-29,-7.9933000000000002e-26,-7.9923099999999996e-26,-7.9927499999999999e-26,5.6612199999999999e-30,7.8787000000000001e-31,-1.0557800000000001e-29
1164.0,2.14844e-29,-7.9933399999999994e-26,-7.9923599999999997e-26,-7.9928300000000005e-26,4.4285900000000001e-30,8.2983700000000008e-31,-1.04559e-29
1165.0,2.10132e-29,-7.9934499999999995e-26,-7.9924500000000002e-26,-7.9929799999999998e-26,3.15728e-30,8.6996199999999999e-31,-1.0543999999999999e-29
1166.0,2.09636e-29,-7.9936099999999997e-26,-7.9925799999999999e-26,-7.9931700000000006e-26,1.8484300000000001e-30,9.3823899999999993e-31,-1.07355e-29
1167.0,2.1140700000000001e-29,-7.9937600000000001e-26,-7.9927099999999995e-26,-7.9933600000000002e-26,5.2319199999999996e-31,9.8087500000000007e-31,-1.0917500000000001e-29
1168.0,2.1598599999999999e-29,-7.9939399999999999e-26,-7.9928599999999999e-26,-7.9935900000000001e-26,-8.3768200000000008e-31,1.07976e-30,-1.10951e-29
1169.0,2.2299900000000001e-29,-7.9940699999999996e-26,-7.9929899999999996e-26,-7.9937400000000005e-26,-2.25164e-30,1.12317e-30,-1.13453e-29
1170.0,2.4121599999999999e-29,-7.9932900000000004e-26,-7.9923300000000003e-26,-7.9927400000000001e-26,5.5219100000000001e-30,8.80101e-31,-1.1814799999999999e-29
1171.0,2.3679700000000001e-29,-7.9933600000000002e-26,-7.9924000000000001e-26,-7.9928400000000003e-26,4.47055e-30,9.2549499999999994e-31,-1.19533e-29
1172.0,2.353e-29,-7.9934899999999998e-26,-7.9925100000000001e-26,-7.9930100000000004e-26,3.2756900000000002e-30,9.9917899999999997e-31,-1.21953e-29
1173.0,2.3618100000000001e-29,-7.9936400000000003e-26,-7.99263e-26,-7.9932e-26,1.9999699999999999e-30,1.08467e-30,-1.2437299999999999e-29
1174.0,2.3942399999999999e-29,-7.9938200000000001e-26,-7.9927800000000004e-26,-7.9934200000000001e-26,6.4038600000000004e-31,1.19843e-30,-1.26982e-29
1175.0,2.4415399999999999e-29,-7.9939700000000005e-26,-7.9929000000000003e-26,-7.9935999999999999e-26,-7.0636699999999999e-31,1.2424e-30,-1.29358e-29
1176.0,2.4884899999999999e-29,-7.9941199999999997e-26,-7.9930800000000001e-26,-7.9938100000000003e-26,-2.0080399999999999e-30,1.4078499999999999e-30,-1.3115499999999999e-29
1177.0,1.9708500000000001e-29,-7.99439e-26,-7.9926499999999996e-26,-7.9939399999999999e-26,6.6340000000000001e-30,-6.6822600000000005e-32,-1.88057e-30
1178.0,1.9494500000000001e-29,-7.9945799999999996e-26,-7.9926999999999997e-26,-7.9941000000000001e-26,5.2623999999999998e-30,-8.65192e-32,-1.8436400000000001e-30
1179.0,1.8139800000000001e-29,-7.9946999999999995e-26,-7.9928699999999997e-26,-7.9943100000000005e-26,3.6312500000000001e-30,-3.18464e-31,-1.64172e-30
1180.0,1.8812500000000001e-29,-7.9949299999999994e-26,-7.9929399999999995e-26,-7.9945099999999999e-26,2.2026200000000001e-30,-4.5153200000000002e-31,-1.7016700000000002e-30
1181.0,1.84035e-29,-7.9951100000000004e-26,-7.9931300000000002e-26,-7.99473e-26,3.3185599999999998e-31,-4.5340999999999999e-31,-1.46089e-30
1182.0,1.8711099999999999e-29,-7.9951800000000001e-26,-7.9931800000000004e-26,-7.9948099999999996e-26,-9.71841e-31,-7.9407499999999994e-31,-1.52083e-30
1183.0,1.9610200000000001e-29,-7.9954100000000001e-26,-7.9933600000000002e-26,-7.9950299999999997e-26,-2.7956e-30,-2.7240899999999999e-31,-1.30983e-30
1184.0,1.9975100000000001e-29,-7.9943599999999995e-26,-7.9926200000000002e-26,-7.9938399999999997e-26,6.3117499999999998e-30,1.4730200000000001e-31,-3.7232499999999999e-30
1185.0,1.88266e-29,-7.9944400000000002e-26,-7.9927099999999995e-26,-7.9939599999999995e-26,5.0020199999999997e-30,-7.3071700000000001e-33,-3.6281e-30
1186.0,1.8635800000000001e-29,-7.9946299999999998e-26,-7.9928e-26,-7.9941699999999999e-26,3.5581000000000001e-30,-8.1831000000000002e-32,-3.5906300000000002e-30
1187.0,1.8183400000000001e-29,-7.9948200000000005e-26,-7.99297e-26,-7.99439e-26,1.9657399999999999e-30,-2.1828499999999999e-31,-3.5480400000000001e-30
1188.0,1.8682099999999999e-29,-7.9949799999999996e-26,-7.9930499999999995e-26,-7.9945699999999998e-26,5.0361200000000001e-31,-2.3029799999999998e-31,-3.57961e-30
1189.0,1.8791700000000001e-29,-7.9951800000000001e-26,-7.9932400000000003e-26,-7.9947700000000004e-26,-1.1614600000000001e-30,-2.9426099999999998e-31,-3.47036e-30
1190.0,1.94129e-29,-7.9952599999999997e-26,-7.9933199999999998e-26,-7.9949e-26,-2.4472099999999999e-30,-5.6499199999999996e-31,-3.5113399999999999e-30
1191.0,2.0194200000000001e-29,-7.9942299999999998e-26,-7.9925999999999995e-26,-7.9936900000000004e-26,6.0853000000000002e-30,2.5389700000000002e-31,-5.4981099999999999e-30
1192.0,1.9384800000000001e-29,-7.9943399999999999e-26,-7.9926800000000001e-26,-7.9938299999999999e-26,4.81101e-30,1.5394099999999999e-31,-5.4227400000000001e-30
1193.0,1.88124e-29,-7.9945000000000001e-26,-7.9927900000000002e-26,-7.9940199999999995e-26,3.3766800000000003e-30,6.25734e-32,-5.4094700000000001e-30
1194.0,1.8944999999999999e-29,-7.9947100000000004e-26,-7.9929199999999999e-26,-7.9942500000000006e-26,1.90741e-30,7.1734399999999998e-32,-5.4564300000000002e-30
1195.0,1.8980600000000001e-29,-7.9948900000000002e-26,-7.9930800000000001e-26,-7.9944599999999998e-26,4.0238100000000002e-31,-4.6925599999999999e-32,-5.4985400000000002e-30
1196.0,1.97434e-29,-7.9950600000000003e-26,-7.9931800000000004e-26,-7.9946500000000005e-26,-9.7501700000000008e-31,3.6496700000000002e-32,-5.5823599999999999e-30
1197.0,2.0148699999999999e-29,-7.9952800000000004e-26,-7.9933899999999996e-26,-7.9948499999999999e-26,-2.56809e-30,2.01511e-31,-5.5257999999999999e-30
1198.0,2.0964900000000001e-29,-7.9941199999999997e-26,-7.9925899999999997e-26,-7.9935700000000005e-26,5.8369399999999997e-30,3.3346900000000001e-31,-7.2389600000000005e-30
1199.0,2.0116700000000001e-29,-7.9942000000000004e-26,-7.9926499999999996e-26,-7.9936799999999994e-26,4.5788700000000003e-30,3.0873900000000002e-31,-7.1540899999999996e-30
1200.0,1.9695100000000001e-29,-7.9943700000000004e-26,-7.9927699999999995e-26,-7.99388e-26,3.2095099999999998e-30,2.8544399999999999e-31,-7.1723199999999999e-30
1201.0,1.97659e-29,-7.9945699999999998e-26,-7.9929100000000001e-26,-7.9941099999999999e-26,1.8034999999999999e-30,2.3231499999999999e-31,-7.2851300000000003e-30
1202.0,2.01973e-29,-7.9947700000000004e-26,-7.9930399999999997e-26,-7.9943300000000001e-26,3.9428799999999999e-31,3.0983799999999999e-31,-7.4005900000000003e-30
1203.0,2.05426e-29,-7.99496e-26,-7.9932099999999998e-26,-7.9945299999999995e-26,-1.01436e-30,2.6942699999999998e-31,-7.5109399999999998e-30
1204.0,2.1654399999999999e-29,-7.9951399999999998e-26,-7.9933199999999998e-26,-7.9947700000000004e-26,-2.2888199999999999e-30,2.5738200000000001e-31,-7.6785400000000006e-30
1205.0,2.2048300000000001e-29,-7.9940099999999997e-26,-7.9925700000000001e-26,-7.9934399999999997e-26,5.5434e-30,4.8045299999999997e-31,-8.8799800000000003e-30
1206.0,2.122e-29,-7.9940800000000005e-26,-7.9926399999999998e-26,-7.9935599999999996e-26,4.37023e-30,4.5685700000000003e-31,-8.8018999999999998e-30
1207.0,2.10035e-29,-7.9942399999999996e-26,-7.9927499999999999e-26,-7.9937500000000003e-26,3.0746000000000002e-30,4.53118e-31,-8.8961200000000001e-30
1208.0,2.1173499999999999e-29,-7.99445e-26,-7.9928900000000005e-26,-7.9939800000000003e-26,1.7254400000000001e-30,4.8640199999999997e-31,-9.0675800000000002e-30
1209.0,2.15491e-29,-7.9946299999999998e-26,-7.99303e-26,-7.9941899999999995e-26,3.98611e-31,4.7550299999999997e-31,-9.2473699999999998e-30
1210.0,2.2348300000000001e-29,-7.9948400000000001e-26,-7.9931700000000006e-26,-7.9944300000000004e-26,-9.5396399999999996e-31,6.0291599999999999e-31,-9.4498299999999994e-30
1211.0,2.28334e-29,-7.9950399999999995e-26,-7.9933500000000004e-26,-7.9946100000000002e-26,-2.3419299999999999e-30,6.9103399999999998e-31,-9.5490499999999999e-30
1212.0,2.3342e-29,-7.9939200000000003e-26,-7.9925799999999999e-26,-7.9933600000000002e-26,5.3329100000000003e-30,5.4961900000000003e-31,-1.03653e-29
1213.0,2.2799300000000001e-29,-7.9939999999999999e-26,-7.99263e-26,-7.9934700000000002e-26,4.2217499999999999e-30,6.0490100000000003e-31,-1.0352100000000001e-29
1214.0,2.2664600000000001e-29,-7.9941600000000001e-26,-7.9927499999999999e-26,-7.9936599999999998e-26,3.0178300000000001e-30,6.14258e-31,-1.0510099999999999e-29
1215.0,2.29454e-29,-7.9943399999999999e-26,-7.9928699999999997e-26,-7.99388e-26,1.7491299999999999e-30,6.6204099999999999e-31,-1.07358e-29
1216.0,2.3517099999999999e-29,-7.99456e-26,-7.9930200000000002e-26,-7.9941199999999997e-26,4.3134600000000002e-31,7.3497999999999999e-31,-1.10015e-29
1217.0,2.4009300000000001e-29,-7.99473e-26,-7.9931700000000006e-26,-7.9943200000000003e-26,-8.6218299999999992e-31,7.9027799999999996e-31,-1.1201e-29
1218.0,2.5052399999999999e-29,-7.9949199999999996e-26,-7.9933199999999998e-26,-7.9945699999999998e-26,-2.1576099999999999e-30,9.46881e-31,-1.15241e-29
1219.0,2.4818100000000001e-29,-7.9938899999999998e-26,-7.9925899999999997e-26,-7.9933299999999996e-26,5.1746e-30,6.4574899999999999e-31,-1.16235e-29
1220.0,2.45189e-29,-7.9939900000000001e-26,-7.9926700000000003e-26,-7.9934600000000004e-26,4.2123999999999997e-30,6.6693200000000001e-31,-1.17451e-29
1221.0,2.471e-29,-7.9941600000000001e-26,-7.9927699999999995e-26,-7.9936599999999998e-26,3.09108e-30,7.3894499999999998e-31,-1.202e-29
1222.0,2.5090899999999999e-29,-7.9943599999999995e-26,-7.9929199999999999e-26,-7.9938899999999998e-26,1.8388299999999999e-30,7.9849899999999999e-31,-1.2335000000000001e-29
1223.0,2.5604500000000002e-29,-7.9945400000000004e-26,-7.9930499999999995e-26,-7.9941099999999999e-26,5.4871600000000001e-31,9.3172000000000004e-31,-1.25916e-29
1224.0,2.6370599999999999e-29,-7.9947499999999996e-26,-7.9932099999999998e-26,-7.9943499999999997e-26,-7.9990599999999997e-31,1.0242399999999999e-30,-1.2905199999999999e-29
1225.0,2.7040599999999998e-29,-7.9948800000000005e-26,-7.9933399999999994e-26,-7.9945099999999999e-26,-2.20541e-30,1.0534900000000001e-30,-1.31623e-29
1226.0,2.26155e-29,-7.9950700000000001e-26,-7.9929000000000003e-26,-7.9945400000000004e-26,6.1756499999999999e-30,8.5536000000000005e-33,-1.8737999999999999e-30
1227.0,2.1457200000000001e-29,-7.9952099999999995e-26,-7.9930600000000005e-26,-7.9947599999999994e-26,4.74758e-30,-2.5016799999999999e-31,-1.6482099999999999e-30
1228.0,2.2618700000000001e-29,-7.9955299999999999e-26,-7.9931700000000006e-26,-7.9950399999999995e-26,3.5078099999999999e-30,-3.9795499999999999e-31,-1.7115599999999999e-30
1229.0,2.2428799999999999e-29,-7.9957799999999995e-26,-7.9933799999999998e-26,-7.9953300000000005e-26,1.6205600000000001e-30,-4.8502299999999998e-31,-1.50213e-30
1230.0,2.34816e-29,-7.9959899999999998e-26,-7.9934600000000004e-26,-7.9955299999999999e-26,2.5488300000000001e-31,-7.3507500000000003e-31,-1.55511e-30
1231.0,2.41781e-29,-7.9962299999999996e-26,-7.9936500000000001e-26,-7.9957799999999995e-26,-1.5354899999999999e-30,-6.4430599999999996e-31,-1.35875e-30
1232.0,2.4445299999999999e-29,-7.9962600000000001e-26,-7.9937000000000002e-26,-7.9958299999999996e-26,-2.85292e-30,-1.17405e-30,-1.29385e-30
1233.0,2.1815999999999999e-29,-7.9949299999999994e-26,-7.9929100000000001e-26,-7.9943999999999998e-26,5.9108400000000001e-30,3.4652e-32,-3.6461500000000003e-30
1234.0,2.19548e-29,-7.9951499999999996e-26,-7.9930000000000006e-26,-7.99462e-26,4.7562900000000001e-30,-7.2762100000000003e-32,-3.6033600000000003e-30
1235.0,2.18138e-29,-7.9953900000000005e-26,-7.9931800000000004e-26,-7.9949e-26,3.2218600000000001e-30,-2.2538899999999998e-31,-3.57189e-30
1236.0,2.26562e-29,-7.9956499999999998e-26,-7.9933000000000002e-26,-7.9951600000000005e-26,1.7715e-30,-2.86364e-31,-3.6173999999999998e-30
1237.0,2.30799e-29,-7.9959100000000003e-26,-7.99348e-26,-7.9954299999999997e-26,1.2162800000000001e-31,-4.2640299999999997e-31,-3.5621100000000002e-30
1238.0,2.39744e-29,-7.9960700000000005e-26,-7.9935700000000005e-26,-7.9955999999999997e-26,-1.25888e-30,-5.17812e-31,-3.6331999999999997e-30
1239.0,2.4767199999999999e-29,-7.9963299999999998e-26,-7.9937699999999999e-26,-7.9958400000000006e-26,-2.8509e-30,-2.9340900000000001e-31,-3.4838699999999997e-30
1240.0,2.2202200000000001e-29,-7.9948400000000001e-26,-7.9928699999999997e-26,-7.9942700000000001e-26,5.7130599999999999e-30,1.3471400000000001e-31,-5.4362199999999998e-30
1241.0,2.1926700000000001e-29,-7.9950100000000001e-26,-7.9929799999999998e-26,-7.9944699999999996e-26,4.5295800000000002e-30,3.0093000000000002e-32,-5.4230300000000003e-30
1242.0,2.22625e-29,-7.9952800000000004e-26,-7.9931300000000002e-26,-7.9947499999999996e-26,3.14276e-30,-1.88863e-32,-5.4463299999999997e-30
1243.0,2.26693e-29,-7.9955299999999999e-26,-7.9932900000000004e-26,-7.9950199999999999e-26,1.6562000000000002e-30,-1.4010400000000001e-31,-5.5150899999999998e-30
1244.0,2.3605300000000001e-29,-7.9957799999999995e-26,-7.9934200000000001e-26,-7.9952800000000004e-26,2.20339e-31,-1.1578399999999999e-31,-5.63082e-30
1245.0,2.4122799999999999e-29,-7.9959999999999996e-26,-7.9935999999999999e-26,-7.9955000000000006e-26,-1.29243e-30,-1.87704e-31,-5.6281599999999999e-30
1246.0,2.5260400000000002e-29,-7.9961799999999994e-26,-7.9937000000000002e-26,-7.9957199999999995e-26,-2.5671999999999999e-30,-3.19101e-31,-5.7288499999999998e-30
1247.0,2.2753500000000001e-29,-7.9946999999999995e-26,-7.9928400000000003e-26,-7.9941199999999997e-26,5.4858999999999998e-30,2.2188200000000002e-31,-7.2273999999999997e-30
1248.0,2.2482599999999999e-29,-7.9948800000000005e-26,-7.9929500000000004e-26,-7.9943300000000001e-26,4.3367099999999998e-30,1.6569500000000001e-31,-7.1683700000000003e-30
1249.0,2.2770000000000001e-29,-7.99513e-26,-7.9930999999999997e-26,-7.9945900000000006e-26,3.0194699999999999e-30,1.0091899999999999e-31,-7.2662200000000001e-30
1250.0,2.33596e-29,-7.9953900000000005e-26,-7.9932500000000001e-26,-7.9948699999999995e-26,1.6012e-30,1.1962999999999999e-31,-7.3893699999999995e-30
1251.0,2.40311e-29,-7.9956300000000002e-26,-7.9934100000000003e-26,-7.9951200000000002e-26,1.9898999999999999e-31,5.1135499999999999e-32,-7.54142e-30
1252.0,2.5062399999999999e-29,-7.9958500000000004e-26,-7.9935300000000002e-26,-7.9953599999999999e-26,-1.1506400000000001e-30,1.48946e-31,-7.7215099999999998e-30
1253.0,2.5526500000000002e-29,-7.9960700000000005e-26,-7.9937400000000005e-26,-7.9955700000000003e-26,-2.5661099999999999e-30,2.9720100000000001e-31,-7.7007800000000002e-30
1254.0,2.3492200000000001e-29,-7.99456e-26,-7.9928199999999996e-26,-7.9939800000000003e-26,5.2635100000000001e-30,3.0748599999999998e-31,-8.8388700000000003e-30
1255.0,2.3390899999999999e-29,-7.99473e-26,-7.9929100000000001e-26,-7.9941699999999999e-26,4.1872099999999998e-30,2.8952600000000001e-31,-8.8476100000000002e-30
1256.0,2.3561400000000001e-29,-7.9949699999999998e-26,-7.9930600000000005e-26,-7.9944300000000004e-26,2.89511e-30,2.9248500000000001e-31,-8.9449399999999995e-30
1257.0,2.4164300000000001e-29,-7.9952099999999995e-26,-7.9932e-26,-7.9946899999999997e-26,1.5818000000000001e-30,2.6300800000000002e-31,-9.1487800000000003e-30
1258.0,2.50098e-29,-7.9954600000000002e-26,-7.9933600000000002e-26,-7.99496e-26,2.1642500000000001e-31,3.5299400000000002e-31,-9.3777500000000005e-30
1259.0,2.5612000000000002e-29,-7.9956599999999996e-26,-7.9935200000000004e-26,-7.9951800000000001e-26,-1.11097e-30,3.61317e-31,-9.5364299999999993e-30
1260.0,2.6961899999999997e-29,-7.9958799999999998e-26,-7.9936500000000001e-26,-7.9954399999999995e-26,-2.37177e-30,3.8245499999999999e-31,-9.87017e-30
1261.0,2.4630900000000001e-29,-7.99445e-26,-7.9928e-26,-7.9938600000000004e-26,5.0640100000000001e-30,4.2071199999999997e-31,-1.03133e-29
1262.0,2.4380299999999999e-29,-7.9946000000000004e-26,-7.9929000000000003e-26,-7.9940400000000002e-26,4.0477999999999997e-30,4.0764300000000001e-31,-1.03287e-29
1263.0,2.4772099999999999e-29,-7.9948099999999996e-26,-7.9930200000000002e-26,-7.9942799999999999e-26,2.87875e-30,4.1758000000000002e-31,-1.05412e-29
1264.0,2.5330400000000001e-29,-7.9950500000000005e-26,-7.9931700000000006e-26,-7.9945400000000004e-26,1.5881000000000001e-30,4.6184799999999998e-31,-1.07969e-29
1265.0,2.6013199999999997e-29,-7.9952699999999995e-26,-7.99331e-26,-7.9947800000000002e-26,2.8570000000000001e-31,5.1236099999999996e-31,-1.10425e-29
1266.0,2.7103199999999997e-29,-7.9955000000000006e-26,-7.9934700000000002e-26,-7.9950399999999995e-26,-1.03551e-30,6.51264e-31,-1.13661e-29
1267.0,2.7462600000000002e-29,-7.9956800000000004e-26,-7.9936400000000003e-26,-7.9952200000000005e-26,-2.3395899999999999e-30,7.8238499999999997e-31,-1.14365e-29
1268.0,2.5393600000000001e-29,-7.9943499999999997e-26,-7.9928e-26,-7.9937799999999997e-26,4.8964799999999997e-30,4.65655e-31,-1.13634e-29
1269.0,2.5709499999999998e-29,-7.9945099999999999e-26,-7.9928799999999995e-26,-7.9939599999999995e-26,4.0398200000000001e-30,5.38563e-31,-1.15951e-29
1270.0,2.6016799999999999e-29,-7.9947200000000002e-26,-7.9930100000000004e-26,-7.9941899999999995e-26,2.9055e-30,5.2680200000000003e-31,-1.1864799999999999e-29
1271.0,2.6626800000000002e-29,-7.9949299999999994e-26,-7.99314e-26,-7.9944400000000002e-26,1.6937599999999999e-30,6.3154100000000001e-31,-1.21614e-29
1272.0,2.7512200000000002e-29,-7.9951700000000003e-26,-7.9933000000000002e-26,-7.9946999999999995e-26,3.5247000000000001e-31,7.3238499999999996e-31,-1.25438e-29
1273.0,2.8101699999999999e-29,-7.9953500000000001e-26,-7.9934499999999995e-26,-7.9949099999999998e-26,-9.0043899999999996e-31,8.0215200000000008e-31,-1.2752400000000001e-29
1274.0,2.9281599999999998e-29,-7.9955499999999995e-26,-7.9935999999999999e-26,-7.9951600000000005e-26,-2.1939499999999999e-30,1.02376e-30,-1.3172100000000001e-29
1275.0,2.20759e-29,-7.9904500000000004e-26,-7.9912500000000003e-26,-7.9906499999999998e-26,-3.9080900000000002e-30,-6.1010299999999997e-30,9.6201399999999994e-30
1276.0,2.42938e-29,-7.9906700000000006e-26,-7.9913399999999997e-26,-7.9909000000000005e-26,-3.5233700000000001e-30,-6.7759699999999993e-30,1.12612e-29
1277.0,2.1838e-29,-7.9914300000000001e-26,-7.9916899999999995e-26,-7.9916299999999995e-26,-3.53245e-30,-5.3817500000000003e-30,1.0751100000000001e-29
1278.0,2.5603599999999998e-29,-7.9915800000000006e-26,-7.9916400000000005e-26,-7.9918599999999995e-26,-3.3251800000000002e-30,-6.4029199999999996e-30,1.2821e-29
1279.0,2.4019399999999999e-29,-7.9922800000000002e-26,-7.9919200000000006e-26,-7.9925100000000001e-26,-3.5888999999999997e-30,-5.1220000000000003e-30,1.2011e-29
1280.0,2.6827900000000002e-29,-7.9925799999999999e-26,-7.9920899999999994e-26,-7.9928599999999999e-26,-3.15241e-30,-5.7685500000000001e-30,1.3483799999999999e-29
1281.0,2.5773200000000002e-29,-7.9932199999999996e-26,-7.9923800000000005e-26,-7.9934200000000001e-26,-3.39033e-30,-4.74054e-30,1.2534599999999999e-29
1282.0,3.0124399999999999e-29,-7.9933600000000002e-26,-7.9923400000000001e-26,-7.9936900000000004e-26,-3.49102e-30,-5.46622e-30,1.4542499999999999e-29
1283.0,2.8989399999999999e-29,-7.9939700000000005e-26,-7.9926100000000004e-26,-7.9941799999999997e-26,-3.7003600000000002e-30,-4.4523700000000003e-30,1.31831e-29
1284.0,3.1661500000000002e-29,-7.9942500000000006e-26,-7.9927900000000002e-26,-7.9945199999999997e-26,-3.40744e-30,-5.00261e-30,1.4509999999999999e-29
1285.0,3.0850100000000002e-29,-7.9947700000000004e-26,-7.9930100000000004e-26,-7.9949199999999996e-26,-3.6254299999999999e-30,-4.3049000000000002e-30,1.3155099999999999e-29
1286.0,3.4969000000000001e-29,-7.9949500000000002e-26,-7.9930100000000004e-26,-7.9952300000000003e-26,-3.9266800000000003e-30,-4.6502300000000001e-30,1.4957599999999999e-29
1287.0,3.3367500000000003e-29,-7.9953500000000001e-26,-7.9932e-26,-7.9954799999999998e-26,-3.9976700000000003e-30,-3.9299599999999999e-30,1.3276300000000001e-29
1288.0,3.5580600000000003e-29,-7.9956700000000006e-26,-7.9934000000000005e-26,-7.9958000000000002e-26,-3.85309e-30,-4.4119200000000003e-30,1.4317900000000001e-29
1289.0,2.1508299999999999e-29,-7.9903799999999995e-26,-7.9911699999999997e-26,-7.99064e-26,-2.2378e-30,-6.0209899999999997e-30,9.8313800000000001e-30
1290.0,2.4736699999999999e-29,-7.9905999999999997e-26,-7.99121e-26,-7.9908799999999998e-26,-1.29126e-30,-7.2729900000000006e-30,1.18328e-29
1291.0,2.1525899999999999e-29,-7.9913100000000003e-26,-7.9914900000000001e-26,-7.9915400000000002e-26,-1.7206999999999999e-30,-5.51739e-30,1.09365e-29
1292.0,2.5150699999999999e-29,-7.9916099999999999e-26,-7.9916000000000001e-26,-7.9919300000000004e-26,-9.9927900000000008e-31,-6.2906399999999997e-30,1.2911400000000001e-29
1293.0,2.2840199999999999e-29,-7.9922200000000002e-26,-7.9918800000000002e-26,-7.99246e-26,-1.60926e-30,-4.9655699999999999e-30,1.17513e-29
1294.0,2.71508e-29,-7.9924900000000005e-26,-7.9919300000000004e-26,-7.9928300000000005e-26,-1.04506e-30,-5.6713600000000003e-30,1.38534e-29
1295.0,2.51494e-29,-7.9930399999999997e-26,-7.9921700000000001e-26,-7.9932699999999997e-26,-1.6779400000000001e-30,-4.5458700000000001e-30,1.24124e-29
1296.0,2.9134599999999998e-29,-7.9933600000000002e-26,-7.9923200000000005e-26,-7.9936900000000004e-26,-1.2391799999999999e-30,-5.0968800000000001e-30,1.4291499999999999e-29
1297.0,2.7388699999999998e-29,-7.9938700000000002e-26,-7.9925500000000005e-26,-7.9940599999999998e-26,-1.8408700000000001e-30,-4.1832400000000003e-30,1.27116e-29
1298.0,3.17e-29,-7.9941299999999995e-26,-7.9926100000000004e-26,-7.9944400000000002e-26,-1.5874900000000002e-30,-4.6402699999999997e-30,1.46859e-29
1299.0,2.9801000000000001e-29,-7.99456e-26,-7.9928199999999996e-26,-7.99473e-26,-2.0792499999999999e-30,-3.8987000000000001e-30,1.2851800000000001e-29
1300.0,3.3320999999999999e-29,-7.9948800000000005e-26,-7.9929799999999998e-26,-7.9951200000000002e-26,-1.8823499999999999e-30,-4.2359600000000001e-30,1.45215e-29
1301.0,3.1462600000000002e-29,-7.9951800000000001e-26,-7.9931099999999995e-26,-7.9952800000000004e-26,-2.2585900000000001e-30,-3.6908000000000002e-30,1.2701700000000001e-29
1302.0,3.51758e-29,-7.9955299999999999e-26,-7.9932300000000005e-26,-7.9957099999999998e-26,-2.2643399999999999e-30,-3.8883799999999998e-30,1.41742e-29
1303.0,2.1343899999999999e-29,-7.9903500000000002e-26,-7.9910700000000005e-26,-7.9906200000000004e-26,-1.9360799999999999e-31,-6.1174199999999999e-30,1.00704e-29
1304.0,2.4432699999999999e-29,-7.9904399999999995e-26,-7.9910599999999996e-26,-7.99081e-26,3.3540500000000002e-31,-6.8646199999999998e-30,1.19198e-29
1305.0,2.1140900000000001e-29,-7.9912299999999996e-26,-7.9914200000000003e-26,-7.9915099999999997e-26,4.4334799999999998e-32,-5.2424900000000003e-30,1.09311e-29
1306.0,2.5202700000000001e-29,-7.9914399999999999e-26,-7.9914399999999999e-26,-7.9917999999999996e-26,9.1121600000000004e-31,-6.0612e-30,1.3032200000000001e-29
1307.0,2.2407600000000001e-29,-7.9920799999999996e-26,-7.9917299999999998e-26,-7.9923400000000001e-26,1.5578300000000001e-31,-4.6880399999999999e-30,1.1662799999999999e-29
1308.0,2.6710599999999997e-29,-7.9923699999999995e-26,-7.9918300000000001e-26,-7.9927200000000005e-26,8.76218e-31,-5.2977699999999999e-30,1.3741000000000001e-29
1309.0,2.42445e-29,-7.9929199999999999e-26,-7.9920899999999994e-26,-7.9931499999999998e-26,4.7647299999999998e-32,-4.2242899999999998e-30,1.21225e-29
1310.0,2.8774499999999998e-29,-7.9931900000000002e-26,-7.9921600000000003e-26,-7.9935300000000002e-26,6.41188e-31,-4.7100599999999997e-30,1.4229699999999999e-29
1311.0,2.6406e-29,-7.9936699999999996e-26,-7.9923900000000003e-26,-7.9938700000000002e-26,-1.6159300000000001e-31,-3.8335299999999997e-30,1.23878e-29
1312.0,3.0703299999999999e-29,-7.9939900000000001e-26,-7.9925199999999999e-26,-7.9942799999999999e-26,2.7404099999999999e-31,-4.2276900000000003e-30,1.4378600000000001e-29
1313.0,2.8443399999999998e-29,-7.99439e-26,-7.9927200000000005e-26,-7.9945500000000002e-26,-4.3218600000000002e-31,-3.5283299999999997e-30,1.24247e-29
1314.0,3.25399e-29,-7.9946999999999995e-26,-7.9928199999999996e-26,-7.9949299999999994e-26,-1.2482400000000001e-31,-3.8116400000000001e-30,1.4277599999999999e-29
1315.0,3.0127500000000001e-29,-7.9949500000000002e-26,-7.9929600000000002e-26,-7.9950700000000001e-26,-6.6345999999999999e-31,-3.3248200000000003e-30,1.2252800000000001e-29
1316.0,3.3738300000000001e-29,-7.9953400000000003e-26,-7.9931300000000002e-26,-7.9955000000000006e-26,-5.08281e-31,-3.45409e-30,1.3825600000000001e-29
1317.0,2.1075799999999999e-29,-7.9902499999999999e-26,-7.9909600000000005e-26,-7.9905800000000001e-26,1.20291e-30,-5.6073599999999999e-30,1.01415e-29
1318.0,2.4772899999999999e-29,-7.9903599999999999e-26,-7.99098e-26,-7.9907699999999997e-26,2.2932300000000001e-30,-6.7686500000000005e-30,1.1985599999999999e-29
1319.0,2.10277e-29,-7.9911199999999995e-26,-7.9912899999999995e-26,-7.9913999999999996e-26,1.6897299999999999e-30,-4.9631999999999999e-30,1.08573e-29
1320.0,2.50759e-29,-7.9912799999999997e-26,-7.9913399999999997e-26,-7.9917000000000004e-26,2.5126000000000001e-30,-5.6835699999999997e-30,1.2877500000000001e-29
1321.0,2.1942100000000001e-29,-7.99195e-26,-7.9916400000000005e-26,-7.9922200000000002e-26,1.7485800000000001e-30,-4.3447299999999999e-30,1.1404100000000001e-29
1322.0,2.6410399999999998e-29,-7.9921799999999999e-26,-7.9916899999999995e-26,-7.9925500000000005e-26,2.54157e-30,-4.97511e-30,1.3513400000000001e-29
1323.0,2.35451e-29,-7.9927400000000001e-26,-7.9919599999999998e-26,-7.99297e-26,1.6316200000000002e-30,-3.86433e-30,1.17848e-29
1324.0,2.8069599999999998e-29,-7.9930200000000002e-26,-7.9920500000000002e-26,-7.9933500000000004e-26,2.2834200000000001e-30,-4.3706099999999998e-30,1.3867500000000001e-29
1325.0,2.5397000000000001e-29,-7.9934999999999996e-26,-7.99229e-26,-7.9936900000000004e-26,1.3796e-30,-3.4904700000000001e-30,1.19613e-29
1326.0,2.9865900000000001e-29,-7.9937799999999997e-26,-7.9923699999999995e-26,-7.9940699999999996e-26,1.9321199999999999e-30,-3.8795099999999997e-30,1.3993400000000001e-29
1327.0,2.7258899999999999e-29,-7.9941699999999999e-26,-7.9925700000000001e-26,-7.9943200000000003e-26,1.11558e-30,-3.20091e-30,1.19389e-29
1328.0,3.1385100000000002e-29,-7.9945000000000001e-26,-7.9926999999999997e-26,-7.9947200000000002e-26,1.50103e-30,-3.4663000000000002e-30,1.38344e-29
1329.0,2.8759000000000003e-29,-7.99473e-26,-7.9928300000000005e-26,-7.9948300000000003e-26,8.6801600000000002e-31,-2.9637200000000001e-30,1.1775e-29
1330.0,3.2532100000000002e-29,-7.9951200000000002e-26,-7.9929799999999998e-26,-7.9952599999999997e-26,1.1464299999999999e-30,-3.1211499999999999e-30,1.3346199999999999e-29
1331.0,2.1079700000000001e-29,-7.9902099999999995e-26,-7.9908899999999996e-26,-7.9905499999999996e-26,3.0819100000000001e-30,-5.2960200000000002e-30,9.9592099999999995e-30
1332.0,2.4194299999999999e-29,-7.9902400000000001e-26,-7.9908799999999998e-26,-7.9907400000000003e-26,3.5241199999999998e-30,-5.7847599999999997e-30,1.17433e-29
1333.0,2.0846199999999999e-29,-7.9910099999999994e-26,-7.99121e-26,-7.9913299999999999e-26,3.1679299999999997e-30,-4.50143e-30,1.05808e-29
1334.0,2.47918e-29,-7.9911400000000003e-26,-7.9912400000000005e-26,-7.9915900000000004e-26,4.0288600000000003e-30,-5.1393100000000002e-30,1.2521199999999999e-29
1335.0,2.16129e-29,-7.9918100000000005e-26,-7.9915400000000002e-26,-7.9920899999999994e-26,3.2120099999999999e-30,-3.9550800000000001e-30,1.10509e-29
1336.0,2.5814e-29,-7.9920000000000001e-26,-7.9916000000000001e-26,-7.9924099999999999e-26,3.9819400000000001e-30,-4.4555800000000002e-30,1.30381e-29
1337.0,2.2908799999999999e-29,-7.9925799999999999e-26,-7.9918599999999995e-26,-7.9928199999999996e-26,3.0570399999999999e-30,-3.513e-30,1.1325900000000001e-29
1338.0,2.7251300000000002e-29,-7.9928099999999998e-26,-7.9919300000000004e-26,-7.9931599999999996e-26,3.7610099999999999e-30,-3.9189399999999997e-30,1.33298e-29
1339.0,2.4514799999999999e-29,-7.9933000000000002e-26,-7.9921700000000001e-26,-7.9934899999999998e-26,2.81198e-30,-3.1380500000000001e-30,1.1445400000000001e-29
1340.0,2.8822600000000001e-29,-7.9935800000000003e-26,-7.9922599999999994e-26,-7.9938700000000002e-26,3.3814300000000001e-30,-3.4972899999999997e-30,1.3414500000000001e-29
1341.0,2.6174599999999999e-29,-7.9939700000000005e-26,-7.99246e-26,-7.9941099999999999e-26,2.5113400000000001e-30,-2.8683900000000002e-30,1.1413099999999999e-29
1342.0,3.0222999999999999e-29,-7.9942700000000001e-26,-7.9925600000000003e-26,-7.9944800000000005e-26,3.0032699999999999e-30,-3.12145e-30,1.32358e-29
1343.0,2.7503799999999998e-29,-7.9945000000000001e-26,-7.9926899999999999e-26,-7.9945900000000006e-26,2.2896100000000001e-30,-2.6609799999999999e-30,1.11888e-29
1344.0,3.1209700000000003e-29,-7.9948699999999995e-26,-7.9928400000000003e-26,-7.9950000000000003e-26,2.6243500000000001e-30,-2.7786799999999999e-30,1.2777500000000001e-29
1345.0,2.0851200000000001e-29,-7.9901600000000005e-26,-7.9908299999999996e-26,-7.9905200000000002e-26,4.2363000000000001e-30,-4.4073e-30,9.81109e-30
1346.0,2.39172e-29,-7.9901999999999997e-26,-7.9908399999999994e-26,-7.9906700000000006e-26,5.2741399999999998e-30,-5.1983099999999998e-30,1.11696e-29
1347.0,2.0740400000000001e-29,-7.9909399999999997e-26,-7.9911599999999999e-26,-7.9912600000000001e-26,4.5730999999999999e-30,-3.9174900000000002e-30,1.02224e-29
1348.0,2.4181e-29,-7.9910099999999994e-26,-7.9911799999999995e-26,-7.9914999999999999e-26,5.3247200000000002e-30,-4.3646999999999999e-30,1.18936e-29
1349.0,2.1304200000000001e-29,-7.9917000000000004e-26,-7.9914700000000005e-26,-7.9920000000000001e-26,4.52895e-30,-3.4449299999999997e-30,1.05818e-29
1350.0,2.5083600000000001e-29,-7.9918499999999997e-26,-7.9915199999999995e-26,-7.9922700000000004e-26,5.3053899999999997e-30,-3.83833e-30,1.23637e-29
1351.0,2.2406299999999999e-29,-7.9924500000000002e-26,-7.99178e-26,-7.9926899999999999e-26,4.3402800000000003e-30,-3.0496900000000001e-30,1.0820499999999999e-29
1352.0,2.6308999999999998e-29,-7.9926399999999998e-26,-7.9918499999999997e-26,-7.9930000000000006e-26,5.0390499999999999e-30,-3.4024000000000001e-30,1.2615200000000001e-29
1353.0,2.3828400000000001e-29,-7.9931599999999996e-26,-7.9920899999999994e-26,-7.9933500000000004e-26,4.04722e-30,-2.7650400000000001e-30,1.09053e-29
1354.0,2.7726500000000002e-29,-7.9933899999999996e-26,-7.9921600000000003e-26,-7.9936699999999996e-26,4.6856100000000002e-30,-3.0354400000000001e-30,1.2668400000000001e-29
1355.0,2.53149e-29,-7.9937899999999995e-26,-7.9923599999999997e-26,-7.9939200000000003e-26,3.7536299999999999e-30,-2.52051e-30,1.08451e-29
1356.0,2.9052900000000002e-29,-7.9940599999999998e-26,-7.99246e-26,-7.9942700000000001e-26,4.2702799999999997e-30,-2.7460900000000001e-30,1.25305e-29
1357.0,2.6491399999999999e-29,-7.9942899999999997e-26,-7.9925799999999999e-26,-7.9943700000000004e-26,3.4867099999999997e-30,-2.3358300000000002e-30,1.06536e-29
1358.0,2.9905099999999999e-29,-7.9946299999999998e-26,-7.9927099999999995e-26,-7.9947499999999996e-26,3.9442699999999997e-30,-2.4561199999999999e-30,1.20818e-29
1359.0,2.0853599999999999e-29,-7.9901399999999998e-26,-7.9907900000000004e-26,-7.9904799999999998e-26,5.7541200000000001e-30,-3.9867399999999997e-30,9.2334399999999999e-30
1360.0,2.3189199999999999e-29,-7.99013e-26,-7.9908000000000002e-26,-7.99064e-26,6.2549600000000001e-30,-3.9346699999999999e-30,1.0599999999999999e-29
1361.0,2.0671799999999999e-29,-7.9908899999999996e-26,-7.9911099999999997e-26,-7.99121e-26,5.7081500000000001e-30,-3.3233700000000001e-30,9.7995099999999994e-30
1362.0,2.3483900000000001e-29,-7.9909499999999995e-26,-7.9911400000000003e-26,-7.9913899999999998e-26,6.63217e-30,-3.5050600000000002e-30,1.1071200000000001e-29
1363.0,2.11295e-29,-7.9916400000000005e-26,-7.9914300000000001e-26,-7.9919200000000006e-26,5.6426399999999997e-30,-2.9230900000000002e-30,1.01199e-29
1364.0,2.41519e-29,-7.9917299999999998e-26,-7.9914700000000005e-26,-7.9921500000000005e-26,6.4800300000000006e-30,-3.0833400000000001e-30,1.1453e-29
1365.0,2.2052900000000001e-29,-7.9923699999999995e-26,-7.9917299999999998e-26,-7.9925999999999995e-26,5.3899600000000003e-30,-2.6371100000000001e-30,1.02868e-29
1366.0,2.5240699999999999e-29,-7.9925299999999997e-26,-7.9917899999999998e-26,-7.9928599999999999e-26,6.1943500000000003e-30,-2.75963e-30,1.1681e-29
1367.0,2.33346e-29,-7.9930700000000003e-26,-7.9920299999999995e-26,-7.9932400000000003e-26,5.0747799999999999e-30,-2.3806400000000001e-30,1.03585e-29
1368.0,2.6577399999999998e-29,-7.9932599999999999e-26,-7.9921000000000004e-26,-7.9935300000000002e-26,5.7865100000000001e-30,-2.5184499999999999e-30,1.1762500000000001e-29
1369.0,2.4654399999999999e-29,-7.9936699999999996e-26,-7.99229e-26,-7.9937899999999995e-26,4.6831000000000002e-30,-2.2228899999999999e-30,1.02975e-29
1370.0,2.7864300000000001e-29,-7.9939200000000003e-26,-7.9923900000000003e-26,-7.9941099999999999e-26,5.3779400000000001e-30,-2.28747e-30,1.16498e-29
1371.0,2.56813e-29,-7.9941400000000005e-26,-7.9924900000000005e-26,-7.9942000000000004e-26,4.37827e-30,-2.09367e-30,1.01106e-29
1372.0,2.8753700000000001e-29,-7.9944300000000004e-26,-7.9926200000000002e-26,-7.9945500000000002e-26,4.96369e-30,-2.1003999999999999e-30,1.13918e-29
1373.0,2.4738900000000001e-29,-7.9962600000000001e-26,-7.9936900000000004e-26,-7.9958799999999998e-26,-2.9915700000000001e-30,-9.7747500000000008e-31,9.4871500000000002e-31
1374.0,1.9836700000000001e-29,-7.9953799999999995e-26,-7.9933299999999996e-26,-7.9950199999999999e-26,-2.94403e-30,-1.42888e-30,7.1718099999999999e-31
1375.0,1.32891e-29,-7.9942399999999996e-26,-7.9928900000000005e-26,-7.9940199999999995e-26,-2.47371e-30,-5.2589300000000001e-31,5.7026500000000003e-31
1376.0,8.9541800000000001e-30,-7.9933399999999994e-26,-7.9925700000000001e-26,-7.9930700000000003e-26,-3.0759299999999999e-30,-1.3486e-30,2.5750300000000002e-31
1377.0,5.3464599999999998e-30,-7.9921100000000002e-26,-7.9921999999999995e-26,-7.9919900000000003e-26,-2.8841800000000001e-30,-9.2103199999999999e-32,-2.11103e-31
1378.0,1.24542e-29,-7.9911900000000004e-26,-7.99195e-26,-7.9908899999999996e-26,-4.3601100000000002e-30,-1.56479e-30,-3.6951899999999998e-31
1379.0,2.41374e-29,-7.9897999999999998e-26,-7.9919400000000002e-26,-7.9898300000000003e-26,-5.8029200000000002e-30,-5.19813e-32,-3.1667900000000002e-30
1380.0,2.5513599999999999e-29,-7.9962600000000001e-26,-7.9936900000000004e-26,-7.9958799999999998e-26,-3.3292400000000001e-30,-1.8488099999999999e-30,3.0995899999999999e-30
1381.0,2.0179799999999999e-29,-7.9952300000000003e-26,-7.9932400000000003e-26,-7.9949900000000005e-26,-2.8202600000000001e-30,-1.2567499999999999e-30,2.8725200000000001e-30
1382.0,1.48418e-29,-7.9943100000000005e-26,-7.9929100000000001e-26,-7.99405e-26,-3.0171500000000001e-30,-1.6404899999999999e-30,2.52622e-30
1383.0,9.03961e-30,-7.9932099999999998e-26,-7.9924900000000005e-26,-7.9930800000000001e-26,-2.67984e-30,-9.9893100000000003e-31,2.0552900000000002e-30
1384.0,7.6903400000000003e-30,-7.99223e-26,-7.9921799999999999e-26,-7.9920199999999997e-26,-3.5578e-30,-1.6384300000000001e-30,1.7728099999999998e-30
1385.0,1.0949400000000001e-29,-7.9910499999999998e-26,-7.99189e-26,-7.9910300000000002e-26,-3.8451700000000002e-30,-1.00472e-30,-1.2586000000000001e-31
1386.0,1.7095400000000001e-29,-7.9899799999999996e-26,-7.9913299999999999e-26,-7.9897800000000002e-26,-4.6668000000000003e-30,-1.9523299999999999e-30,8.2784400000000007e-31
1387.0,2.6566800000000001e-29,-7.9960999999999999e-26,-7.9935800000000003e-26,-7.9958500000000004e-26,-3.3124400000000002e-30,-1.9091999999999999e-30,5.27342e-30
1388.0,2.1228499999999999e-29,-7.9951700000000003e-26,-7.9932300000000005e-26,-7.9949299999999994e-26,-3.2160399999999998e-30,-2.0814600000000002e-30,4.8506e-30
1389.0,1.6375700000000001e-29,-7.9942000000000004e-26,-7.9928199999999996e-26,-7.9940800000000005e-26,-2.8379299999999998e-30,-1.69618e-30,4.4775900000000001e-30
1390.0,1.18656e-29,-7.9932199999999996e-26,-7.9924699999999998e-26,-7.9930600000000005e-26,-3.2334899999999998e-30,-1.9725900000000001e-30,4.1280400000000003e-30
1391.0,7.9800700000000005e-30,-7.9921700000000001e-26,-7.99212e-26,-7.9921299999999998e-26,-3.1678200000000001e-30,-1.6658299999999999e-30,2.8908000000000001e-30
1392.0,1.13714e-29,-7.9910999999999999e-26,-7.9916799999999997e-26,-7.9910099999999994e-26,-3.9813599999999997e-30,-2.17756e-30,3.0245400000000001e-30
1393.0,1.9070300000000001e-29,-7.9899500000000002e-26,-7.9915900000000004e-26,-7.9899099999999999e-26,-5.0779999999999998e-30,-1.70088e-30,8.7025300000000003e-31
1394.0,2.7148200000000003e-29,-7.9959200000000001e-26,-7.9935300000000002e-26,-7.9956900000000002e-26,-3.5818800000000003e-30,-2.6053200000000001e-30,7.1752800000000001e-30
1395.0,2.3077199999999999e-29,-7.9950399999999995e-26,-7.9931300000000002e-26,-7.9949299999999994e-26,-3.1942599999999997e-30,-2.28083e-30,6.8587000000000007e-30
1396.0,1.8334199999999999e-29,-7.9941099999999999e-26,-7.9927800000000004e-26,-7.9939900000000001e-26,-3.2384100000000003e-30,-2.4029e-30,6.4368300000000002e-30
1397.0,1.39061e-29,-7.9931599999999996e-26,-7.9924199999999996e-26,-7.9931300000000002e-26,-3.0671199999999999e-30,-2.27044e-30,5.67662e-30
1398.0,1.20281e-29,-7.9921500000000005e-26,-7.9920099999999999e-26,-7.9921100000000002e-26,-3.5194700000000003e-30,-2.5222099999999999e-30,5.3805599999999997e-30
1399.0,1.2166900000000001e-29,-7.9911199999999995e-26,-7.9917899999999998e-26,-7.9911099999999997e-26,-3.8402599999999997e-30,-2.3873299999999999e-30,3.7296e-30
1400.0,1.6947500000000001e-29,-7.9900399999999995e-26,-7.9913100000000003e-26,-7.9900000000000003e-26,-4.6502200000000002e-30,-3.10468e-30,3.02262e-30
1401.0,2.8909300000000001e-29,-7.9957099999999998e-26,-7.9934000000000005e-26,-7.99564e-26,-3.6135800000000003e-30,-2.8119199999999999e-30,9.1758399999999994e-30
1402.0,2.4330700000000001e-29,-7.9948699999999995e-26,-7.9930700000000003e-26,-7.9947800000000002e-26,-3.4654600000000002e-30,-2.8797300000000001e-30,8.5869600000000005e-30
1403.0,2.06369e-29,-7.9940199999999995e-26,-7.9927200000000005e-26,-7.9940199999999995e-26,-3.2296900000000003e-30,-2.8236000000000001e-30,8.1887400000000001e-30
1404.0,1.7211e-29,-7.9930800000000001e-26,-7.9923200000000005e-26,-7.9930800000000001e-26,-3.3803499999999997e-30,-2.9332e-30,7.7161200000000006e-30
1405.0,1.38879e-29,-7.9921500000000005e-26,-7.99206e-26,-7.9921899999999997e-26,-3.39755e-30,-2.95794e-30,6.5995399999999997e-30
1406.0,1.4368399999999999e-29,-7.9911199999999995e-26,-7.9916000000000001e-26,-7.9911699999999997e-26,-3.97056e-30,-3.3504799999999997e-30,5.9151099999999998e-30
1407.0,1.78315e-29,-7.9900899999999997e-26,-7.9914300000000001e-26,-7.9901700000000003e-26,-4.6672699999999997e-30,-3.3370299999999998e-30,4.0753299999999997e-30
1408.0,2.9417600000000002e-29,-7.9954600000000002e-26,-7.9933000000000002e-26,-7.9954100000000001e-26,-3.7487899999999998e-30,-3.3514599999999998e-30,1.05283e-29
1409.0,2.6583099999999999e-29,-7.9947399999999998e-26,-7.9929899999999996e-26,-7.99479e-26,-3.5089100000000002e-30,-3.3272200000000001e-30,1.03706e-29
1410.0,2.3047800000000001e-29,-7.9939100000000005e-26,-7.99263e-26,-7.9939499999999997e-26,-3.4835900000000002e-30,-3.3521299999999998e-30,9.8588499999999996e-30
1411.0,1.953e-29,-7.9930800000000001e-26,-7.9923599999999997e-26,-7.9931499999999998e-26,-3.3469099999999999e-30,-3.4979199999999999e-30,9.2025500000000006e-30
1412.0,1.75987e-29,-7.99212e-26,-7.9919099999999996e-26,-7.9922200000000002e-26,-3.6256399999999997e-30,-3.7264999999999997e-30,8.5937000000000004e-30
1413.0,1.6287499999999999e-29,-7.99121e-26,-7.9917100000000002e-26,-7.9913000000000005e-26,-3.7720100000000002e-30,-3.8580600000000003e-30,7.2215200000000004e-30
1414.0,1.80859e-29,-7.9901999999999997e-26,-7.9912500000000003e-26,-7.9903e-26,-4.3841599999999999e-30,-4.4812200000000003e-30,6.0113999999999998e-30
1415.0,3.1253199999999999e-29,-7.9953099999999998e-26,-7.9932199999999996e-26,-7.9953900000000005e-26,-3.7704599999999997e-30,-3.7657099999999999e-30,1.2079300000000001e-29
1416.0,2.84271e-29,-7.9946500000000005e-26,-7.9929199999999999e-26,-7.99473e-26,-3.71099e-30,-3.6912299999999998e-30,1.1732599999999999e-29
1417.0,2.5471e-29,-7.9939300000000001e-26,-7.9926800000000001e-26,-7.99405e-26,-3.44773e-30,-3.9640499999999998e-30,1.1445400000000001e-29
1418.0,2.2999099999999999e-29,-7.9930399999999997e-26,-7.9922499999999996e-26,-7.9932e-26,-3.5570900000000001e-30,-4.1056399999999999e-30,1.0994299999999999e-29
1419.0,2.00568e-29,-7.9922100000000004e-26,-7.9920199999999997e-26,-7.9923599999999997e-26,-3.4444700000000003e-30,-4.3206400000000003e-30,1.00377e-29
1420.0,1.9306899999999999e-29,-7.9912299999999996e-26,-7.9915599999999998e-26,-7.9914100000000005e-26,-3.83598e-30,-4.75462e-30,9.1830299999999995e-30
1421.0,1.9795199999999999e-29,-7.9903e-26,-7.9913399999999997e-26,-7.9904899999999996e-26,-4.2338399999999999e-30,-5.0009799999999998e-30,7.5713900000000003e-30
1422.0,2.4368800000000001e-29,-7.99621e-26,-7.9936199999999995e-26,-7.9957900000000004e-26,-1.6732099999999999e-30,-1.22485e-30,6.9761299999999997e-31
1423.0,1.8889700000000001e-29,-7.9951800000000001e-26,-7.9931700000000006e-26,-7.9948599999999997e-26,-1.06575e-30,-8.53659e-31,6.5462000000000003e-31
1424.0,1.3508000000000001e-29,-7.9942600000000004e-26,-7.9928199999999996e-26,-7.9939700000000005e-26,-1.2691800000000001e-30,-1.0097e-30,3.1710099999999998e-31
1425.0,7.4490600000000003e-30,-7.9932e-26,-7.9924000000000001e-26,-7.9929799999999998e-26,-9.6276299999999996e-31,-6.1276399999999996e-31,2.1832599999999998e-31
1426.0,4.1056899999999997e-30,-7.9921899999999997e-26,-7.9920699999999998e-26,-7.99195e-26,-1.8182699999999999e-30,-8.9916799999999998e-31,-1.4993199999999999e-31
1427.0,8.8086799999999995e-30,-7.9911599999999999e-26,-7.9917399999999996e-26,-7.9909299999999999e-26,-2.6236000000000001e-30,-6.4466999999999998e-31,-9.2077299999999997e-31
1428.0,1.5102899999999999e-29,-7.9898699999999995e-26,-7.9911300000000005e-26,-7.9895899999999994e-26,-2.8612600000000002e-30,-7.1467900000000003e-31,3.9356500000000002e-31
1429.0,2.4539200000000001e-29,-7.9960200000000004e-26,-7.9934999999999996e-26,-7.9956900000000002e-26,-1.6291599999999999e-30,-1.4079400000000001e-30,2.9240699999999999e-30
1430.0,1.9244e-29,-7.9951200000000002e-26,-7.9931499999999998e-26,-7.9948300000000003e-26,-1.47218e-30,-1.3400700000000001e-30,2.5857600000000001e-30
1431.0,1.40842e-29,-7.9941299999999995e-26,-7.9927200000000005e-26,-7.9939200000000003e-26,-1.1358700000000001e-30,-1.2007099999999999e-30,2.3718200000000002e-30
1432.0,8.4823000000000004e-30,-7.9931599999999996e-26,-7.9923800000000005e-26,-7.9929600000000002e-26,-1.43262e-30,-1.26106e-30,2.0484900000000002e-30
1433.0,4.4499399999999999e-30,-7.9921500000000005e-26,-7.9920099999999999e-26,-7.9919900000000003e-26,-1.6855599999999998e-30,-1.1327999999999999e-30,1.3105800000000001e-30
1434.0,8.5156100000000007e-30,-7.9910700000000005e-26,-7.9916099999999999e-26,-7.9908799999999998e-26,-2.3209599999999999e-30,-1.65289e-30,1.38438e-30
1435.0,1.73887e-29,-7.9900000000000003e-26,-7.9914800000000003e-26,-7.9897999999999998e-26,-3.9210300000000001e-30,-9.3478899999999998e-31,-4.3697299999999998e-31
1436.0,2.49226e-29,-7.9958799999999998e-26,-7.9934600000000004e-26,-7.9955999999999997e-26,-1.8955500000000002e-30,-1.8107299999999998e-30,4.89019e-30
1437.0,2.04041e-29,-7.9949799999999996e-26,-7.9930499999999995e-26,-7.9947800000000002e-26,-1.5149399999999999e-30,-1.7479000000000002e-30,4.6105599999999997e-30
1438.0,1.5144400000000001e-29,-7.9940400000000002e-26,-7.9926999999999997e-26,-7.9938600000000004e-26,-1.47058e-30,-1.6760799999999998e-30,4.2794200000000001e-30
1439.0,1.04815e-29,-7.9930999999999997e-26,-7.9923200000000005e-26,-7.9929799999999998e-26,-1.4219100000000001e-30,-1.6790200000000002e-30,3.7408799999999999e-30
1440.0,7.6015e-30,-7.9920799999999996e-26,-7.9919400000000002e-26,-7.9919599999999998e-26,-1.7898299999999999e-30,-1.9135300000000001e-30,3.4347800000000001e-30
1441.0,8.9012599999999997e-30,-7.9910900000000001e-26,-7.9916600000000001e-26,-7.9909999999999996e-26,-2.38461e-30,-1.7239300000000001e-30,2.24652e-30
1442.0,1.4843300000000001e-29,-7.9900000000000003e-26,-7.9911900000000004e-26,-7.9898499999999999e-26,-3.0627800000000001e-30,-2.5005200000000001e-30,1.9447099999999998e-30
1443.0,2.6098500000000001e-29,-7.9956900000000002e-26,-7.9933500000000004e-26,-7.9955100000000003e-26,-1.9868899999999999e-30,-2.2507499999999999e-30,6.8933200000000004e-30
1444.0,2.1295600000000001e-29,-7.9948099999999996e-26,-7.9929899999999996e-26,-7.9946600000000003e-26,-1.7622199999999999e-30,-2.12295e-30,6.4592e-30
1445.0,1.7164300000000001e-29,-7.9939399999999999e-26,-7.9926200000000002e-26,-7.9938499999999995e-26,-1.57683e-30,-2.1735499999999999e-30,6.0770499999999997e-30
1446.0,1.3058799999999999e-29,-7.9929899999999996e-26,-7.9922499999999996e-26,-7.9929199999999999e-26,-1.6265100000000001e-30,-2.2437300000000001e-30,5.68821e-30
1447.0,9.89584e-30,-7.9920699999999998e-26,-7.9919200000000006e-26,-7.9920299999999995e-26,-1.8048000000000001e-30,-2.28504e-30,4.8590900000000003e-30
1448.0,1.0919499999999999e-29,-7.9910499999999998e-26,-7.9915300000000004e-26,-7.9910099999999994e-26,-2.33185e-30,-2.70056e-30,4.3279699999999999e-30
1449.0,1.55534e-29,-7.9900399999999995e-26,-7.9913100000000003e-26,-7.9900199999999999e-26,-3.4216199999999997e-30,-2.6387100000000001e-30,2.8028000000000001e-30
1450.0,2.6750900000000001e-29,-7.9954500000000004e-26,-7.9932500000000001e-26,-7.9953300000000005e-26,-2.1483999999999999e-30,-2.5944000000000001e-30,8.59614e-30
1451.0,2.3129000000000001e-29,-7.9946600000000003e-26,-7.9929100000000001e-26,-7.9946000000000004e-26,-1.9087199999999998e-30,-2.6215900000000001e-30,8.2630500000000001e-30
1452.0,1.9137099999999999e-29,-7.9937899999999995e-26,-7.9925500000000005e-26,-7.9937600000000001e-26,-1.7577799999999999e-30,-2.6283599999999999e-30,7.8516100000000002e-30
1453.0,1.5629000000000001e-29,-7.9929500000000004e-26,-7.9922200000000002e-26,-7.9929500000000004e-26,-1.73301e-30,-2.7547400000000001e-30,7.2927999999999998e-30
1454.0,1.3302399999999999e-29,-7.9920000000000001e-26,-7.9918399999999999e-26,-7.9920199999999997e-26,-1.9289299999999999e-30,-2.98723e-30,6.73587e-30
1455.0,1.27572e-29,-7.9910900000000001e-26,-7.9915699999999996e-26,-7.9911199999999995e-26,-2.3373099999999999e-30,-3.1357000000000001e-30,5.6419399999999998e-30
1456.0,1.5623000000000001e-29,-7.9901100000000004e-26,-7.9911599999999999e-26,-7.9901200000000002e-26,-2.8652799999999998e-30,-3.8298900000000002e-30,4.6670100000000001e-30
1457.0,2.8323199999999998e-29,-7.9952499999999999e-26,-7.99314e-26,-7.9952400000000001e-26,-2.2398299999999999e-30,-3.0447400000000001e-30,1.0275499999999999e-29
1458.0,2.46613e-29,-7.9944800000000005e-26,-7.9928199999999996e-26,-7.9945000000000001e-26,-2.01069e-30,-3.0199900000000002e-30,9.8149700000000007e-30
1459.0,2.1573400000000001e-29,-7.9937400000000005e-26,-7.9925199999999999e-26,-7.9937899999999995e-26,-1.8881900000000001e-30,-3.1727299999999999e-30,9.4657300000000003e-30
1460.0,1.8515900000000001e-29,-7.9928699999999997e-26,-7.9921500000000005e-26,-7.9929399999999995e-26,-1.8339800000000001e-30,-3.3341699999999998e-30,8.9893800000000003e-30
1461.0,1.6088899999999999e-29,-7.9920299999999995e-26,-7.9918700000000004e-26,-7.99212e-26,-1.9332799999999999e-30,-3.5635499999999998e-30,8.2564600000000003e-30
1462.0,1.55098e-29,-7.9910900000000001e-26,-7.9914700000000005e-26,-7.9912000000000002e-26,-2.2442799999999999e-30,-3.9908000000000002e-30,7.4393099999999997e-30
1463.0,1.70645e-29,-7.9901600000000005e-26,-7.99121e-26,-7.9903e-26,-2.9598099999999999e-30,-4.2889400000000003e-30,6.1372399999999998e-30
1464.0,2.92203e-29,-7.9950600000000003e-26,-7.9930499999999995e-26,-7.9951100000000004e-26,-2.2536400000000001e-30,-3.3657800000000002e-30,1.1422e-29
1465.0,2.6981899999999998e-29,-7.9944800000000005e-26,-7.9928199999999996e-26,-7.99456e-26,-2.1054499999999998e-30,-3.5058600000000003e-30,1.13629e-29
1466.0,2.4178500000000001e-29,-7.9937000000000002e-26,-7.9924799999999996e-26,-7.9938200000000001e-26,-1.9358099999999999e-30,-3.6519499999999999e-30,1.1057e-29
1467.0,2.15238e-29,-7.9929399999999995e-26,-7.9921899999999997e-26,-7.9930800000000001e-26,-1.8518999999999999e-30,-3.9090099999999998e-30,1.06365e-29
1468.0,1.94449e-29,-7.9920500000000002e-26,-7.9918100000000005e-26,-7.9922100000000004e-26,-1.87102e-30,-4.2402900000000003e-30,1.00236e-29
1469.0,1.8296200000000001e-29,-7.9911900000000004e-26,-7.9915300000000004e-26,-7.9913600000000004e-26,-2.0898199999999999e-30,-4.6149600000000003e-30,9.1180900000000002e-30
1470.0,1.88808e-29,-7.9902900000000002e-26,-7.9911500000000001e-26,-7.9904500000000004e-26,-2.4047599999999999e-30,-5.3198400000000003e-30,7.9969199999999995e-30
1471.0,2.35972e-29,-7.99598e-26,-7.9934499999999995e-26,-7.9955700000000003e-26,1.71722e-31,-9.1402399999999998e-31,6.29412e-31
1472.0,1.8463299999999999e-29,-7.9950799999999999e-26,-7.9930899999999999e-26,-7.9947399999999998e-26,2.58947e-31,-8.9603000000000001e-31,3.6811500000000001e-31
1473.0,1.36537e-29,-7.9941400000000005e-26,-7.9926600000000005e-26,-7.9938299999999999e-26,7.2242299999999998e-31,-7.2427000000000004e-31,3.2661600000000001e-31
1474.0,7.6590699999999999e-30,-7.9931499999999998e-26,-7.9922999999999998e-26,-7.9928900000000005e-26,4.3319499999999997e-31,-6.8749300000000002e-31,-5.4886499999999998e-33
1475.0,3.1244299999999998e-30,-7.9922100000000004e-26,-7.9919200000000006e-26,-7.9919400000000002e-26,5.86786e-32,-6.8910200000000001e-31,-2.6882999999999999e-31
1476.0,5.9002700000000001e-30,-7.9910700000000005e-26,-7.9914599999999995e-26,-7.9907900000000004e-26,-9.8572599999999999e-32,-5.4356500000000003e-31,-1.6474299999999999e-31
1477.0,1.5418200000000001e-29,-7.9900700000000001e-26,-7.9913999999999996e-26,-7.9898599999999997e-26,-2.1826400000000002e-30,-5.8384100000000004e-31,-1.9748199999999999e-30
1478.0,2.3343299999999999e-29,-7.9958299999999996e-26,-7.9934000000000005e-26,-7.9955000000000006e-26,-1.56471e-31,-1.2334000000000001e-30,2.5988899999999999e-30
1479.0,1.8827300000000001e-29,-7.9949299999999994e-26,-7.9929799999999998e-26,-7.9946500000000005e-26,2.6830100000000001e-31,-1.1860299999999999e-30,2.4191400000000001e-30
1480.0,1.3419e-29,-7.9939999999999999e-26,-7.99263e-26,-7.9937699999999999e-26,3.4331599999999999e-31,-1.08684e-30,2.1563499999999999e-30
1481.0,8.5524200000000004e-30,-7.9930800000000001e-26,-7.99223e-26,-7.9928699999999997e-26,3.4791099999999999e-31,-1.0947099999999999e-30,1.8502e-30
1482.0,4.1033900000000002e-30,-7.9920699999999998e-26,-7.9918399999999999e-26,-7.9918700000000004e-26,4.7961299999999999e-32,-1.2138900000000001e-30,1.6265900000000002e-30
1483.0,6.3139700000000003e-30,-7.9911199999999995e-26,-7.99155e-26,-7.9909000000000005e-26,-7.4356200000000004e-31,-1.04504e-30,8.9189200000000002e-31
1484.0,1.26146e-29,-7.9899799999999996e-26,-7.9910599999999996e-26,-7.9897499999999996e-26,-1.3666999999999999e-30,-1.35573e-30,9.6733899999999998e-31
1485.0,2.3978000000000001e-29,-7.9956599999999996e-26,-7.9932900000000004e-26,-7.9953900000000005e-26,-2.5232000000000001e-31,-1.6258099999999999e-30,4.6118499999999999e-30
1486.0,1.9119900000000001e-29,-7.9947700000000004e-26,-7.9929299999999997e-26,-7.9945500000000002e-26,-1.7209799999999999e-32,-1.48425e-30,4.2816999999999997e-30
1487.0,1.4726599999999999e-29,-7.9938999999999996e-26,-7.9925500000000005e-26,-7.9937199999999998e-26,1.8894800000000001e-31,-1.5357900000000001e-30,4.00462e-30
1488.0,9.9951700000000007e-30,-7.9929500000000004e-26,-7.9921700000000001e-26,-7.9928e-26,1.42881e-31,-1.57231e-30,3.7064799999999999e-30
1489.0,6.4631000000000005e-30,-7.9920500000000002e-26,-7.9918300000000001e-26,-7.9919099999999996e-26,-1.0376000000000001e-31,-1.6069499999999998e-30,3.1767999999999998e-30
1490.0,7.7449300000000001e-30,-7.9910200000000004e-26,-7.9914300000000001e-26,-7.9908799999999998e-26,-6.325e-31,-1.9483400000000001e-30,2.7648599999999998e-30
1491.0,1.3363800000000001e-29,-7.9900899999999997e-26,-7.9912199999999998e-26,-7.9899099999999999e-26,-1.94409e-30,-1.8665999999999999e-30,1.5081500000000001e-30
1492.0,2.4447299999999999e-29,-7.9954399999999995e-26,-7.9932e-26,-7.9952499999999999e-26,-4.6400799999999998e-31,-1.9199900000000001e-30,6.4486499999999999e-30
1493.0,2.03451e-29,-7.99462e-26,-7.9928400000000003e-26,-7.9944699999999996e-26,-2.10118e-31,-1.9633500000000001e-30,6.0983399999999997e-30
1494.0,1.6089e-29,-7.9937400000000005e-26,-7.9924799999999996e-26,-7.9936300000000005e-26,-4.4134300000000002e-32,-1.9364100000000002e-30,5.8051000000000002e-30
1495.0,1.2314e-29,-7.9928900000000005e-26,-7.9921299999999998e-26,-7.9928099999999998e-26,-1.2135200000000001e-32,-2.05305e-30,5.4034100000000002e-30
1496.0,9.5632299999999995e-30,-7.9919400000000002e-26,-7.9917600000000004e-26,-7.99189e-26,-2.42245e-31,-2.25911e-30,4.94473e-30
1497.0,9.4149299999999994e-30,-7.9910499999999998e-26,-7.9914599999999995e-26,-7.9909899999999998e-26,-7.3843600000000004e-31,-2.35785e-30,4.1152399999999998e-30
1498.0,1.3248e-29,-7.9900500000000005e-26,-7.9910499999999998e-26,-7.9899799999999996e-26,-1.31732e-30,-3.0008399999999999e-30,3.4628699999999998e-30
1499.0,2.5492999999999998e-29,-7.9952200000000005e-26,-7.9930999999999997e-26,-7.9951200000000002e-26,-6.2641699999999999e-31,-2.3712199999999999e-30,8.1925799999999994e-30
1500.0,2.1579400000000001e-29,-7.9944099999999996e-26,-7.9927499999999999e-26,-7.9943499999999997e-26,-3.9584500000000004e-31,-2.3177200000000001e-30,7.8047600000000004e-30
1501.0,1.8121600000000001e-29,-7.9936300000000005e-26,-7.9924199999999996e-26,-7.9935999999999999e-26,-2.3486499999999999e-31,-2.4454699999999999e-30,7.4899800000000004e-30
1502.0,1.4815999999999999e-29,-7.9927599999999997e-26,-7.99206e-26,-7.9927599999999997e-26,-1.97909e-31,-2.5895400000000001e-30,7.08236e-30
1503.0,1.2394999999999999e-29,-7.9919300000000004e-26,-7.9917500000000006e-26,-7.9919400000000002e-26,-3.2868800000000001e-31,-2.7842999999999999e-30,6.4993899999999996e-30
1504.0,1.21889e-29,-7.9909999999999996e-26,-7.99138e-26,-7.9910300000000002e-26,-7.0883700000000001e-31,-3.1995300000000001e-30,5.8492000000000003e-30
1505.0,1.44116e-29,-7.9901100000000004e-26,-7.9911099999999997e-26,-7.9901399999999998e-26,-1.53216e-30,-3.4653999999999997e-30,4.7540900000000001e-30
1506.0,2.64778e-29,-7.9949799999999996e-26,-7.9929799999999998e-26,-7.99496e-26,-7.1306600000000001e-31,-2.6994199999999998e-30,9.7017499999999998e-30
1507.0,2.3452000000000001e-29,-7.9942999999999995e-26,-7.9926999999999997e-26,-7.9943100000000005e-26,-5.2918099999999996e-31,-2.78168e-30,9.4199299999999995e-30
1508.0,2.0307300000000001e-29,-7.9935200000000004e-26,-7.9923599999999997e-26,-7.9935700000000005e-26,-3.5658899999999998e-31,-2.90853e-30,9.0660599999999996e-30
1509.0,1.7554699999999999e-29,-7.9927499999999999e-26,-7.99206e-26,-7.9928199999999996e-26,-2.9325499999999999e-31,-3.1162799999999999e-30,8.6834999999999996e-30
1510.0,1.55577e-29,-7.99189e-26,-7.9917000000000004e-26,-7.9919800000000005e-26,-3.7419399999999999e-31,-3.42055e-30,8.1797799999999996e-30
1511.0,1.47437e-29,-7.9910499999999998e-26,-7.9914100000000005e-26,-7.9911500000000001e-26,-6.4198700000000004e-31,-3.7518600000000003e-30,7.3931799999999997e-30
1512.0,1.6103400000000001e-29,-7.9901700000000003e-26,-7.99104e-26,-7.9902599999999997e-26,-1.01692e-30,-4.4594100000000003e-30,6.5192799999999999e-30
1513.0,2.7923500000000001e-29,-7.9948599999999997e-26,-7.9929299999999997e-26,-7.9949099999999998e-26,-7.6339399999999997e-31,-3.0917099999999998e-30,1.10302e-29
1514.0,2.5470899999999999e-29,-7.9942299999999998e-26,-7.9926499999999996e-26,-7.9943200000000003e-26,-5.5397000000000002e-31,-3.2083800000000003e-30,1.0839299999999999e-29
1515.0,2.2996500000000001e-29,-7.99354e-26,-7.9923800000000005e-26,-7.9936599999999998e-26,-4.0277699999999998e-31,-3.4130800000000003e-30,1.06708e-29
1516.0,2.0642499999999999e-29,-7.9927499999999999e-26,-7.9920299999999995e-26,-7.9928900000000005e-26,-2.4891000000000002e-31,-3.7044499999999999e-30,1.03368e-29
1517.0,1.8726700000000001e-29,-7.99195e-26,-7.9917299999999998e-26,-7.99212e-26,-2.5193599999999999e-31,-4.0838599999999998e-30,9.8150100000000005e-30
1518.0,1.7924499999999999e-29,-7.9910900000000001e-26,-7.9913700000000002e-26,-7.9912699999999999e-26,-4.3060200000000001e-31,-4.60344e-30,9.1517899999999996e-30
1519.0,1.83631e-29,-7.9902099999999995e-26,-7.9910499999999998e-26,-7.9904299999999997e-26,-1.0093499999999999e-30,-5.0910599999999999e-30,8.1604600000000004e-30
1520.0,2.2457799999999999e-29,-7.9957500000000001e-26,-7.9933500000000004e-26,-7.9953500000000001e-26,1.56039e-30,-7.9384700000000008e-31,3.6204800000000001e-31
1521.0,1.8722700000000001e-29,-7.9949099999999998e-26,-7.9929199999999999e-26,-7.9945400000000004e-26,2.15927e-30,-6.7707799999999998e-31,3.3763199999999998e-31
1522.0,1.3458799999999999e-29,-7.9939800000000003e-26,-7.9925700000000001e-26,-7.9936799999999994e-26,2.2142599999999998e-30,-5.7660099999999997e-31,6.1101600000000004e-32
1523.0,9.31428e-30,-7.9931200000000004e-26,-7.9921700000000001e-26,-7.9928099999999998e-26,2.2394500000000001e-30,-5.9608500000000002e-31,-5.3878999999999996e-32
1524.0,4.95078e-30,-7.9920699999999998e-26,-7.9917500000000006e-26,-7.9917899999999998e-26,2.1960299999999999e-30,-4.0339899999999999e-31,-2.0760299999999999e-31
1525.0,5.8391500000000003e-30,-7.9911799999999995e-26,-7.9915199999999995e-26,-7.9909100000000003e-26,9.7919199999999999e-31,-5.6707800000000004e-31,-8.7374900000000001e-31
1526.0,1.10043e-29,-7.9900700000000001e-26,-7.9909200000000001e-26,-7.9896899999999997e-26,3.4954700000000002e-31,-5.6286500000000001e-31,-2.60396e-31
1527.0,2.26736e-29,-7.9955700000000003e-26,-7.9932199999999996e-26,-7.9952400000000001e-26,1.57583e-30,-1.0638900000000001e-30,2.3989699999999999e-30
1528.0,1.7969200000000001e-29,-7.9947100000000004e-26,-7.9928699999999997e-26,-7.9944300000000004e-26,1.80079e-30,-9.4508400000000008e-31,2.1476600000000001e-30
1529.0,1.3844e-29,-7.9938700000000002e-26,-7.9924699999999998e-26,-7.9936099999999997e-26,2.0459100000000001e-30,-9.5365299999999999e-31,1.9734100000000001e-30
1530.0,8.9532100000000007e-30,-7.9929299999999997e-26,-7.9921000000000004e-26,-7.9927099999999995e-26,2.0503500000000001e-30,-9.3254300000000004e-31,1.7500900000000001e-30
1531.0,5.0797500000000002e-30,-7.9920699999999998e-26,-7.9917600000000004e-26,-7.9918300000000001e-26,1.7307000000000002e-30,-9.3795800000000002e-31,1.4527000000000001e-30
1532.0,5.7855699999999998e-30,-7.9910200000000004e-26,-7.9913399999999997e-26,-7.99081e-26,1.3247600000000001e-30,-1.0494899999999999e-30,1.13384e-30
1533.0,1.15845e-29,-7.9901499999999996e-26,-7.9911400000000003e-26,-7.9898900000000003e-26,-1.48728e-31,-1.20322e-30,6.5508899999999999e-32
1534.0,2.2638499999999999e-29,-7.9953799999999995e-26,-7.99314e-26,-7.9951200000000002e-26,1.2987100000000001e-30,-1.32674e-30,4.2474e-30
1535.0,1.8613699999999999e-29,-7.9945699999999998e-26,-7.9927800000000004e-26,-7.9943499999999997e-26,1.5893199999999999e-30,-1.3413999999999999e-30,3.9899700000000002e-30
1536.0,1.4217100000000001e-29,-7.9937000000000002e-26,-7.9924099999999999e-26,-7.9935200000000004e-26,1.7663399999999999e-30,-1.30301e-30,3.7546799999999997e-30
1537.0,1.03347e-29,-7.9928699999999997e-26,-7.99206e-26,-7.9926999999999997e-26,1.8073100000000001e-30,-1.3633900000000001e-30,3.5244799999999997e-30
1538.0,6.9601000000000004e-30,-7.9919200000000006e-26,-7.9916799999999997e-26,-7.9917700000000002e-26,1.5905300000000001e-30,-1.4972399999999999e-30,3.14512e-30
1539.0,6.9776000000000002e-30,-7.9910800000000003e-26,-7.99138e-26,-7.9909000000000005e-26,1.00561e-30,-1.5534100000000001e-30,2.6260300000000001e-30
1540.0,1.11391e-29,-7.9900399999999995e-26,-7.9909299999999999e-26,-7.9898699999999995e-26,4.1491899999999997e-31,-1.9239900000000002e-30,2.2642499999999999e-30
1541.0,2.32907e-29,-7.9951899999999999e-26,-7.9930499999999995e-26,-7.9950000000000003e-26,1.085e-30,-1.7272499999999999e-30,6.0536200000000001e-30
1542.0,1.9264399999999999e-29,-7.9943700000000004e-26,-7.9926899999999999e-26,-7.9942299999999998e-26,1.31764e-30,-1.6675300000000002e-30,5.7196900000000002e-30
1543.0,1.56096e-29,-7.9935800000000003e-26,-7.9923499999999999e-26,-7.9934600000000004e-26,1.5133100000000001e-30,-1.74953e-30,5.4971800000000003e-30
1544.0,1.2038299999999999e-29,-7.9927200000000005e-26,-7.9919900000000003e-26,-7.99263e-26,1.5431699999999999e-30,-1.8479699999999999e-30,5.18098e-30
1545.0,9.5321100000000005e-30,-7.99189e-26,-7.9916699999999999e-26,-7.9918100000000005e-26,1.4014699999999999e-30,-1.9903800000000001e-30,4.8009100000000001e-30
1546.0,9.3354799999999998e-30,-7.9909700000000003e-26,-7.9913000000000005e-26,-7.9909000000000005e-26,9.8714200000000007e-31,-2.3251499999999999e-30,4.2535900000000001e-30
1547.0,1.2065200000000001e-29,-7.99013e-26,-7.9910300000000002e-26,-7.9900199999999999e-26,9.7161999999999996e-32,-2.5672100000000002e-30,3.3822300000000002e-30
1548.0,2.4047500000000001e-29,-7.9949500000000002e-26,-7.9929399999999995e-26,-7.9948499999999999e-26,8.9872100000000002e-31,-2.03788e-30,7.7133500000000002e-30
1549.0,2.0538799999999999e-29,-7.9942100000000002e-26,-7.99263e-26,-7.9941400000000005e-26,1.07954e-30,-2.1024999999999999e-30,7.39729e-30
1550.0,1.7254499999999999e-29,-7.9934200000000001e-26,-7.9922800000000002e-26,-7.9933799999999998e-26,1.26823e-30,-2.1766000000000002e-30,7.1181699999999997e-30
1551.0,1.4401e-29,-7.9926499999999996e-26,-7.9919599999999998e-26,-7.99263e-26,1.34454e-30,-2.3462899999999999e-30,6.8226799999999997e-30
1552.0,1.22495e-29,-7.9917999999999996e-26,-7.9916199999999997e-26,-7.9917999999999996e-26,1.21738e-30,-2.59434e-30,6.3771100000000001e-30
1553.0,1.17537e-29,-7.9909899999999998e-26,-7.9913100000000003e-26,-7.9909999999999996e-26,9.2624700000000002e-31,-2.8605599999999999e-30,5.8036899999999998e-30
1554.0,1.35697e-29,-7.9900999999999995e-26,-7.9909299999999999e-26,-7.9901100000000004e-26,4.9519499999999996e-31,-3.4544499999999999e-30,5.1341000000000003e-30
1555.0,2.51602e-29,-7.9947599999999994e-26,-7.9928500000000001e-26,-7.99473e-26,7.6663599999999999e-31,-2.4310500000000002e-30,9.2352100000000002e-30
1556.0,2.21727e-29,-7.9940599999999998e-26,-7.9925399999999995e-26,-7.9940599999999998e-26,9.4559500000000008e-31,-2.4993400000000002e-30,8.9245699999999997e-30
1557.0,1.9419999999999999e-29,-7.9933500000000004e-26,-7.9922499999999996e-26,-7.9933899999999996e-26,1.1163599999999999e-30,-2.66305e-30,8.6804100000000006e-30
1558.0,1.6921099999999999e-29,-7.9925700000000001e-26,-7.9919200000000006e-26,-7.99263e-26,1.20582e-30,-2.88101e-30,8.3685800000000002e-30
1559.0,1.5203100000000001e-29,-7.9917999999999996e-26,-7.9916099999999999e-26,-7.99189e-26,1.2047799999999999e-30,-3.1799000000000001e-30,7.97215e-30
1560.0,1.4627600000000001e-29,-7.9909600000000005e-26,-7.9912699999999999e-26,-7.9910599999999996e-26,9.5383799999999992e-31,-3.6268600000000002e-30,7.4015199999999999e-30
1561.0,1.5601100000000001e-29,-7.9901499999999996e-26,-7.99098e-26,-7.9902599999999997e-26,3.9071999999999999e-31,-4.0884700000000001e-30,6.6527400000000003e-30
1562.0,2.6428500000000002e-29,-7.9946100000000002e-26,-7.9927699999999995e-26,-7.9946600000000003e-26,7.6448900000000004e-31,-2.76516e-30,1.04576e-29
1563.0,2.4284599999999999e-29,-7.9940400000000002e-26,-7.9925399999999995e-26,-7.9941199999999997e-26,9.0590599999999997e-31,-2.8837600000000001e-30,1.0402699999999999e-29
1564.0,2.1973700000000001e-29,-7.9933399999999994e-26,-7.99223e-26,-7.9934499999999995e-26,1.11356e-30,-3.10015e-30,1.0228e-29
1565.0,1.9934499999999999e-29,-7.9925999999999995e-26,-7.9919300000000004e-26,-7.9927599999999997e-26,1.2692e-30,-3.3950799999999998e-30,1.00066e-29
1566.0,1.8341599999999999e-29,-7.9918100000000005e-26,-7.9916000000000001e-26,-7.9919900000000003e-26,1.30263e-30,-3.7703899999999999e-30,9.6167700000000001e-30
1567.0,1.7623900000000001e-29,-7.9910099999999994e-26,-7.9912899999999995e-26,-7.9912199999999998e-26,1.17926e-30,-4.2329899999999999e-30,9.0669000000000002e-30
1568.0,1.8119399999999999e-29,-7.9901999999999997e-26,-7.9909499999999995e-26,-7.9904100000000001e-26,9.4919099999999999e-31,-4.97191e-30,8.3033399999999994e-30
1569.0,2.2537200000000001e-29,-7.9955000000000006e-26,-7.9931499999999998e-26,-7.9950600000000003e-26,3.4772799999999999e-30,-5.7733699999999999e-31,3.3458e-31
1570.0,1.7977400000000001e-29,-7.9946500000000005e-26,-7.9928199999999996e-26,-7.9942999999999995e-26,3.6098699999999997e-30,-4.6559900000000002e-31,7.1101800000000005e-32
1571.0,1.4909199999999999e-29,-7.9938999999999996e-26,-7.9924299999999994e-26,-7.9935300000000002e-26,3.9497200000000001e-30,-4.7426799999999996e-31,4.8331499999999997e-33
1572.0,1.06053e-29,-7.9929299999999997e-26,-7.9920400000000004e-26,-7.99263e-26,4.0837500000000002e-30,-2.8311499999999999e-31,-1.8059499999999999e-31
1573.0,7.2032700000000003e-30,-7.99212e-26,-7.9917399999999996e-26,-7.9918200000000003e-26,3.5882500000000003e-30,-4.0420100000000004e-31,-4.8864799999999999e-31
1574.0,7.3269499999999995e-30,-7.9910900000000001e-26,-7.9912299999999996e-26,-7.9907400000000003e-26,3.3919099999999997e-30,-2.6457099999999999e-31,-4.2500999999999999e-31
1575.0,1.14196e-29,-7.9902300000000003e-26,-7.9910900000000001e-26,-7.9899099999999999e-26,1.9437799999999999e-30,-3.6342200000000002e-31,-1.4974499999999999e-30
1576.0,2.1593e-29,-7.9952800000000004e-26,-7.9930800000000001e-26,-7.9949500000000002e-26,3.0874099999999999e-30,-7.9464399999999998e-31,2.1274600000000001e-30
1577.0,1.81671e-29,-7.9945199999999997e-26,-7.9927099999999995e-26,-7.9942100000000002e-26,3.4531800000000003e-30,-7.8137999999999996e-31,1.9496599999999998e-30
1578.0,1.40301e-29,-7.9936699999999996e-26,-7.9923499999999999e-26,-7.9934100000000003e-26,3.6570800000000002e-30,-7.1586000000000004e-31,1.7663600000000001e-30
1579.0,1.04734e-29,-7.9928699999999997e-26,-7.9920099999999999e-26,-7.9926100000000004e-26,3.6872299999999997e-30,-7.2847800000000001e-31,1.6165999999999998e-30
1580.0,7.3004600000000001e-30,-7.9919300000000004e-26,-7.9916099999999999e-26,-7.9917000000000004e-26,3.5846899999999998e-30,-7.29809e-31,1.3287000000000001e-30
1581.0,6.8328600000000007e-30,-7.9911199999999995e-26,-7.9913299999999999e-26,-7.9908600000000002e-26,2.87673e-30,-8.6375199999999999e-31,9.6702400000000007e-31
1582.0,1.0246299999999999e-29,-7.9901100000000004e-26,-7.9908399999999994e-26,-7.9898099999999996e-26,2.28982e-30,-9.79851e-31,9.4594700000000008e-31
1583.0,2.18998e-29,-7.9951100000000004e-26,-7.9929799999999998e-26,-7.9948499999999999e-26,2.8816399999999998e-30,-1.1337199999999999e-30,3.9411500000000002e-30
1584.0,1.80674e-29,-7.9943200000000003e-26,-7.99263e-26,-7.9941000000000001e-26,3.12011e-30,-1.07032e-30,3.6959700000000003e-30
1585.0,1.46027e-29,-7.9935599999999996e-26,-7.9922999999999998e-26,-7.9933600000000002e-26,3.35274e-30,-1.09398e-30,3.5417199999999998e-30
1586.0,1.09614e-29,-7.9926999999999997e-26,-7.9919300000000004e-26,-7.9925299999999997e-26,3.3988200000000003e-30,-1.13966e-30,3.2840800000000002e-30
1587.0,8.4435999999999994e-30,-7.9919099999999996e-26,-7.9916199999999997e-26,-7.9917399999999996e-26,3.2605399999999997e-30,-1.21038e-30,3.0761300000000001e-30
1588.0,8.0350499999999993e-30,-7.9909700000000003e-26,-7.9912199999999998e-26,-7.9908199999999998e-26,2.9200599999999999e-30,-1.40355e-30,2.63344e-30
1589.0,1.06548e-29,-7.9901899999999999e-26,-7.9909700000000003e-26,-7.9899699999999998e-26,1.98872e-30,-1.6748199999999998e-30,1.9165099999999999e-30
1590.0,2.22368e-29,-7.9949e-26,-7.9928900000000005e-26,-7.9947100000000004e-26,2.5981000000000001e-30,-1.42558e-30,5.6777400000000002e-30
1591.0,1.87306e-29,-7.9941600000000001e-26,-7.9925700000000001e-26,-7.9940199999999995e-26,2.8237299999999999e-30,-1.45288e-30,5.3851899999999999e-30
1592.0,1.5423300000000001e-29,-7.9933799999999998e-26,-7.9922200000000002e-26,-7.9932599999999999e-26,3.0158599999999999e-30,-1.4866199999999999e-30,5.1847900000000002e-30
1593.0,1.25405e-29,-7.9926200000000002e-26,-7.9918999999999998e-26,-7.9925199999999999e-26,3.1161300000000002e-30,-1.58384e-30,5.0025700000000002e-30
1594.0,1.02216e-29,-7.9917700000000002e-26,-7.99155e-26,-7.9917000000000004e-26,3.0078500000000001e-30,-1.75439e-30,4.6266399999999998e-30
1595.0,9.8616399999999999e-30,-7.9909999999999996e-26,-7.9912400000000005e-26,-7.9909000000000005e-26,2.6969799999999999e-30,-1.9513600000000001e-30,4.2668400000000001e-30
1596.0,1.17713e-29,-7.9900899999999997e-26,-7.9908399999999994e-26,-7.9900100000000001e-26,2.2650300000000001e-30,-2.3352400000000002e-30,3.8146999999999999e-30
1597.0,2.2927299999999999e-29,-7.9946999999999995e-26,-7.9928e-26,-7.9945900000000006e-26,2.3320499999999998e-30,-1.81254e-30,7.2748800000000004e-30
1598.0,1.97779e-29,-7.9939800000000003e-26,-7.9924799999999996e-26,-7.9938999999999996e-26,2.5348400000000001e-30,-1.8302200000000001e-30,6.9888799999999994e-30
1599.0,1.6925000000000001e-29,-7.9932699999999997e-26,-7.9921700000000001e-26,-7.9932199999999996e-26,2.7294000000000001e-30,-1.93217e-30,6.7960099999999997e-30
1600.0,1.43492e-29,-7.9924900000000005e-26,-7.9918399999999999e-26,-7.9924699999999998e-26,2.8146899999999998e-30,-2.08628e-30,6.5272099999999997e-30
1601.0,1.2700300000000001e-29,-7.9917399999999996e-26,-7.9915400000000002e-26,-7.9917399999999996e-26,2.8182300000000001e-30,-2.29972e-30,6.2610999999999997e-30
1602.0,1.21898e-29,-7.9909100000000003e-26,-7.9911900000000004e-26,-7.9909299999999999e-26,2.57195e-30,-2.6442300000000001e-30,5.7767600000000001e-30
1603.0,1.3402599999999999e-29,-7.9901600000000005e-26,-7.9909100000000003e-26,-7.9901399999999998e-26,2.0467899999999999e-30,-3.0547400000000001e-30,5.17711e-30
1604.0,2.4032700000000001e-29,-7.9945000000000001e-26,-7.9926999999999997e-26,-7.9944699999999996e-26,2.1865000000000002e-30,-2.1400200000000002e-30,8.7577600000000006e-30
1605.0,2.13049e-29,-7.9938700000000002e-26,-7.9924299999999994e-26,-7.9938700000000002e-26,2.3459900000000001e-30,-2.2192099999999998e-30,8.5002900000000002e-30
1606.0,1.8838700000000001e-29,-7.9931700000000006e-26,-7.99212e-26,-7.9932e-26,2.53193e-30,-2.3608300000000002e-30,8.2898500000000003e-30
1607.0,1.67685e-29,-7.9924500000000002e-26,-7.9918300000000001e-26,-7.9925199999999999e-26,2.6898900000000001e-30,-2.5665199999999999e-30,8.0936699999999998e-30
1608.0,1.5253000000000001e-29,-7.9916799999999997e-26,-7.9915099999999997e-26,-7.9917700000000002e-26,2.68419e-30,-2.8538100000000001e-30,7.77213e-30
1609.0,1.4801799999999999e-29,-7.9909299999999999e-26,-7.9912000000000002e-26,-7.99104e-26,2.59108e-30,-3.2255200000000002e-30,7.3546599999999994e-30
1610.0,1.55554e-29,-7.9901200000000002e-26,-7.9908500000000004e-26,-7.9902499999999999e-26,2.3167799999999998e-30,-3.7880299999999999e-30,6.7592599999999997e-30
1611.0,2.5252900000000001e-29,-7.99439e-26,-7.9926499999999996e-26,-7.9944200000000006e-26,2.1212199999999998e-30,-2.46531e-30,9.9648699999999997e-30
1612.0,2.3307000000000001e-29,-7.9938299999999999e-26,-7.9924000000000001e-26,-7.9938999999999996e-26,2.3009899999999999e-30,-2.5910999999999999e-30,9.8979500000000003e-30
1613.0,2.1247899999999999e-29,-7.9931800000000004e-26,-7.9921299999999998e-26,-7.9932900000000004e-26,2.50585e-30,-2.7831600000000001e-30,9.7998099999999995e-30
1614.0,1.9466000000000001e-29,-7.9924500000000002e-26,-7.9918200000000003e-26,-7.9925999999999995e-26,2.6930299999999999e-30,-3.0481800000000001e-30,9.6303400000000002e-30
1615.0,1.8186099999999999e-29,-7.9917100000000002e-26,-7.9915199999999995e-26,-7.99189e-26,2.7964100000000002e-30,-3.4171700000000001e-30,9.34248e-30
1616.0,1.7659200000000001e-29,-7.9909399999999997e-26,-7.9912000000000002e-26,-7.9911400000000003e-26,2.7056400000000001e-30,-3.8862199999999997e-30,8.9276099999999997e-30
1617.0,1.8056399999999999e-29,-7.9901600000000005e-26,-7.9908799999999998e-26,-7.9903799999999995e-26,2.3024199999999999e-30,-4.4492899999999998e-30,8.3690700000000002e-30
1618.0,2.1331500000000001e-29,-7.9951600000000005e-26,-7.9930200000000002e-26,-7.9947599999999994e-26,4.7382299999999998e-30,-3.2882199999999999e-31,6.8165400000000004e-32
1619.0,1.92628e-29,-7.9945299999999995e-26,-7.9926700000000003e-26,-7.9941199999999997e-26,5.25615e-30,-3.5852300000000001e-31,3.9842100000000001e-32
1620.0,1.54825e-29,-7.9936699999999996e-26,-7.9923200000000005e-26,-7.9933299999999996e-26,5.5450500000000001e-30,-1.4423800000000001e-31,-1.61162e-31
1621.0,1.2595400000000001e-29,-7.9929399999999995e-26,-7.9920099999999999e-26,-7.9925999999999995e-26,5.54827e-30,-2.1431399999999998e-31,-3.5863100000000002e-31
1622.0,1.0646999999999999e-29,-7.9919800000000005e-26,-7.99155e-26,-7.9916500000000003e-26,5.7049500000000001e-30,-3.60993e-32,-4.07512e-31
1623.0,9.6331799999999996e-30,-7.9911900000000004e-26,-7.9913399999999997e-26,-7.9908799999999998e-26,4.9574999999999999e-30,-1.2273799999999999e-31,-8.8111599999999997e-31
1624.0,1.13737e-29,-7.9902099999999995e-26,-7.9907599999999999e-26,-7.98979e-26,4.3736800000000003e-30,-1.5570700000000001e-31,-5.4263700000000003e-31
1625.0,2.1604200000000001e-29,-7.9950299999999997e-26,-7.9929100000000001e-26,-7.9946799999999999e-26,4.6618799999999998e-30,-6.2744099999999997e-31,1.9601399999999999e-30
1626.0,1.8180000000000001e-29,-7.9942999999999995e-26,-7.9925899999999997e-26,-7.9939900000000001e-26,4.9065199999999998e-30,-5.4441600000000001e-31,1.7673000000000001e-30
1627.0,1.52517e-29,-7.9935900000000001e-26,-7.9922700000000004e-26,-7.9932900000000004e-26,5.1559500000000001e-30,-5.2398300000000002e-31,1.6403600000000001e-30
1628.0,1.2106e-29,-7.9927300000000003e-26,-7.9918999999999998e-26,-7.9924799999999996e-26,5.3538299999999999e-30,-4.6540999999999997e-31,1.4290299999999999e-30
1629.0,9.8670599999999996e-30,-7.9919699999999996e-26,-7.9916000000000001e-26,-7.9917000000000004e-26,5.1871400000000002e-30,-5.3013499999999997e-31,1.2854500000000001e-30
1630.0,9.5233299999999994e-30,-7.9910300000000002e-26,-7.9911599999999999e-26,-7.9907699999999997e-26,4.9949e-30,-5.3854499999999997e-31,1.0397999999999999e-30
1631.0,1.12257e-29,-7.9902599999999997e-26,-7.9909200000000001e-26,-7.98996e-26,4.1449399999999998e-30,-7.3385700000000002e-31,3.5786199999999998e-31
1632.0,2.13383e-29,-7.9948300000000003e-26,-7.9928199999999996e-26,-7.9945699999999998e-26,4.30109e-30,-8.7875100000000003e-31,3.71131e-30
1633.0,1.8380099999999999e-29,-7.9941699999999999e-26,-7.9925299999999997e-26,-7.9939300000000001e-26,4.5916600000000002e-30,-8.4867399999999997e-31,3.51904e-30
1634.0,1.52181e-29,-7.9934000000000005e-26,-7.9921899999999997e-26,-7.9932e-26,4.8171800000000001e-30,-8.5345000000000003e-31,3.3210899999999998e-30
1635.0,1.25594e-29,-7.9926600000000005e-26,-7.9918800000000002e-26,-7.9924699999999998e-26,4.98415e-30,-8.5947300000000003e-31,3.2188999999999998e-30
1636.0,1.04505e-29,-7.9917999999999996e-26,-7.9914999999999999e-26,-7.9916400000000005e-26,4.9843999999999997e-30,-9.3370600000000002e-31,2.9120200000000001e-30
1637.0,9.9606599999999998e-30,-7.9910599999999996e-26,-7.9912199999999998e-26,-7.99087e-26,4.6441700000000002e-30,-1.10224e-30,2.6825399999999999e-30
1638.0,1.1617e-29,-7.9901399999999998e-26,-7.9907799999999995e-26,-7.9899400000000004e-26,4.2777200000000002e-30,-1.2837e-30,2.4772000000000001e-30
1639.0,2.1662300000000001e-29,-7.9946500000000005e-26,-7.9927499999999999e-26,-7.9944699999999996e-26,3.9875499999999998e-30,-1.2044500000000001e-30,5.3863999999999998e-30
1640.0,1.8764999999999999e-29,-7.9939800000000003e-26,-7.9924400000000004e-26,-7.9938200000000001e-26,4.2236299999999998e-30,-1.2129999999999999e-30,5.15194e-30
1641.0,1.5986000000000001e-29,-7.9932799999999995e-26,-7.9921399999999996e-26,-7.9931499999999998e-26,4.4605199999999999e-30,-1.2354399999999999e-30,5.0081400000000001e-30
1642.0,1.34326e-29,-7.9925000000000003e-26,-7.9918100000000005e-26,-7.9924099999999999e-26,4.6155599999999999e-30,-1.3112500000000001e-30,4.7866300000000002e-30
1643.0,1.1900100000000001e-29,-7.9917700000000002e-26,-7.9914999999999999e-26,-7.9916699999999999e-26,4.6586000000000002e-30,-1.44037e-30,4.6496499999999997e-30
1644.0,1.13553e-29,-7.9909299999999999e-26,-7.9911400000000003e-26,-7.9908600000000002e-26,4.4867499999999997e-30,-1.6574700000000001e-30,4.2334200000000002e-30
1645.0,1.24421e-29,-7.9901999999999997e-26,-7.9908600000000002e-26,-7.9900700000000001e-26,4.0107600000000002e-30,-2.0004099999999999e-30,3.67961e-30
1646.0,2.23707e-29,-7.99445e-26,-7.9926499999999996e-26,-7.9943499999999997e-26,3.6981500000000003e-30,-1.5535800000000001e-30,6.9696799999999997e-30
1647.0,1.96132e-29,-7.9938200000000001e-26,-7.9923800000000005e-26,-7.9937500000000003e-26,3.8898899999999998e-30,-1.5794899999999999e-30,6.7175900000000007e-30
1648.0,1.71574e-29,-7.9931300000000002e-26,-7.9920799999999996e-26,-7.9930899999999999e-26,4.09689e-30,-1.6593799999999999e-30,6.5500499999999996e-30
1649.0,1.51304e-29,-7.9924199999999996e-26,-7.99178e-26,-7.9924099999999999e-26,4.3097700000000002e-30,-1.76942e-30,6.4211600000000005e-30
1650.0,1.3616500000000001e-29,-7.9916600000000001e-26,-7.9914599999999995e-26,-7.9916699999999999e-26,4.3498299999999997e-30,-1.9734599999999999e-30,6.1291899999999998e-30
1651.0,1.3319999999999999e-29,-7.9909399999999997e-26,-7.9911500000000001e-26,-7.9909399999999997e-26,4.2576799999999998e-30,-2.255e-30,5.8624600000000003e-30
1652.0,1.4178699999999999e-29,-7.9901100000000004e-26,-7.9907799999999995e-26,-7.9901399999999998e-26,4.0229399999999998e-30,-2.59669e-30,5.4518099999999999e-30
1653.0,2.32388e-29,-7.9942899999999997e-26,-7.9925899999999997e-26,-7.9942600000000004e-26,3.4375299999999998e-30,-1.9035799999999999e-30,8.3490099999999999e-30
1654.0,2.1002800000000001e-29,-7.9937000000000002e-26,-7.9923200000000005e-26,-7.9937000000000002e-26,3.6276399999999998e-30,-1.96455e-30,8.1682000000000004e-30
1655.0,1.8878600000000001e-29,-7.9930600000000005e-26,-7.99206e-26,-7.9930999999999997e-26,3.8737999999999997e-30,-2.0661799999999999e-30,8.0340000000000002e-30
1656.0,1.70526e-29,-7.9923599999999997e-26,-7.9917500000000006e-26,-7.9924199999999996e-26,4.0541399999999999e-30,-2.2497e-30,7.8666100000000007e-30
1657.0,1.5978900000000001e-29,-7.9916500000000003e-26,-7.9914499999999997e-26,-7.9917299999999998e-26,4.1998400000000003e-30,-2.5187400000000001e-30,7.68389e-30
1658.0,1.5460699999999999e-29,-7.9908799999999998e-26,-7.9911400000000003e-26,-7.9909999999999996e-26,4.0967100000000001e-30,-2.8573699999999999e-30,7.2869400000000005e-30
1659.0,1.6051000000000001e-29,-7.9901600000000005e-26,-7.9908399999999994e-26,-7.9902599999999997e-26,3.8105299999999998e-30,-3.3444900000000002e-30,6.8248499999999998e-30
1660.0,2.4458000000000001e-29,-7.9941899999999995e-26,-7.9925299999999997e-26,-7.99422e-26,3.3356899999999998e-30,-2.2043000000000001e-30,9.5117300000000002e-30
1661.0,2.27141e-29,-7.9936699999999996e-26,-7.9923200000000005e-26,-7.9937400000000005e-26,3.5321999999999997e-30,-2.2860599999999999e-30,9.4821199999999998e-30
1662.0,2.09389e-29,-7.9930399999999997e-26,-7.9920400000000004e-26,-7.9931499999999998e-26,3.7823699999999997e-30,-2.4471600000000002e-30,9.4103999999999994e-30
1663.0,1.9442799999999999e-29,-7.9923599999999997e-26,-7.9917500000000006e-26,-7.9925100000000001e-26,4.03699e-30,-2.6975599999999999e-30,9.3031200000000004e-30
1664.0,1.8305900000000001e-29,-7.9916299999999995e-26,-7.9914499999999997e-26,-7.9918100000000005e-26,4.1448600000000001e-30,-2.9962199999999999e-30,9.0704300000000002e-30
1665.0,1.79876e-29,-7.9908899999999996e-26,-7.9911400000000003e-26,-7.9911099999999997e-26,4.17845e-30,-3.42188e-30,8.7710399999999998e-30
1666.0,1.8293100000000001e-29,-7.99013e-26,-7.9908000000000002e-26,-7.9903799999999995e-26,4.0703999999999999e-30,-3.9846200000000001e-30,8.2127699999999999e-30
1667.0,2.2479400000000001e-29,-7.9950299999999997e-26,-7.9928599999999999e-26,-7.99456e-26,6.1617900000000003e-30,-3.0300700000000002e-31,1.1215300000000001e-31
1668.0,1.9442999999999999e-29,-7.9943300000000001e-26,-7.9925999999999995e-26,-7.9939499999999997e-26,6.6054600000000002e-30,-1.06148e-32,-1.1107099999999999e-31
1669.0,1.71674e-29,-7.9936900000000004e-26,-7.9922999999999998e-26,-7.99331e-26,6.8475900000000001e-30,-7.5680099999999999e-32,-2.6560600000000001e-31
1670.0,1.5060999999999999e-29,-7.9928099999999998e-26,-7.99189e-26,-7.99246e-26,7.3681600000000005e-30,1.4398499999999999e-31,-3.4868800000000001e-31
1671.0,1.30754e-29,-7.99206e-26,-7.9916400000000005e-26,-7.9917399999999996e-26,7.1893899999999994e-30,1.1968300000000001e-31,-6.4602000000000003e-31
1672.0,1.3082000000000001e-29,-7.9911199999999995e-26,-7.9911199999999995e-26,-7.9907500000000001e-26,7.2198099999999999e-30,1.87664e-31,-6.2233900000000001e-31
1673.0,1.4036400000000001e-29,-7.9903599999999999e-26,-7.9909299999999999e-26,-7.9900000000000003e-26,6.4517000000000004e-30,1.88133e-31,-1.3174200000000001e-30
1674.0,2.13414e-29,-7.9948099999999996e-26,-7.9928e-26,-7.9944599999999998e-26,5.7940999999999999e-30,-4.2957899999999997e-31,1.8291599999999999e-30
1675.0,1.9240400000000001e-29,-7.9942399999999996e-26,-7.9925299999999997e-26,-7.9939100000000005e-26,6.2116600000000002e-30,-3.6363099999999998e-31,1.70557e-30
1676.0,1.65745e-29,-7.99348e-26,-7.9922100000000004e-26,-7.9932e-26,6.6596799999999994e-30,-2.5201200000000001e-31,1.5184999999999999e-30
1677.0,1.43512e-29,-7.9927599999999997e-26,-7.9918999999999998e-26,-7.9924799999999996e-26,6.87177e-30,-2.3588900000000001e-31,1.4271799999999999e-30
1678.0,1.2906899999999999e-29,-7.99189e-26,-7.9914999999999999e-26,-7.9916400000000005e-26,7.0809499999999996e-30,-1.63329e-31,1.2302399999999999e-30
1679.0,1.231e-29,-7.9911400000000003e-26,-7.9912199999999998e-26,-7.99087e-26,6.7920299999999995e-30,-2.8358599999999998e-31,1.0035599999999999e-30
1680.0,1.3423999999999999e-29,-7.9902300000000003e-26,-7.9907500000000001e-26,-7.9899199999999997e-26,6.4517800000000001e-30,-3.4664e-31,9.8703099999999997e-31
1681.0,2.14468e-29,-7.9946600000000003e-26,-7.9927300000000003e-26,-7.99439e-26,5.4912000000000001e-30,-7.0764800000000002e-31,3.5872400000000003e-30
1682.0,1.90486e-29,-7.99405e-26,-7.9924500000000002e-26,-7.9938100000000003e-26,5.8654900000000003e-30,-6.63574e-31,3.3999299999999999e-30
1683.0,1.6642199999999999e-29,-7.9933799999999998e-26,-7.9921600000000003e-26,-7.9931599999999996e-26,6.25163e-30,-5.8409100000000004e-31,3.2959199999999998e-30
1684.0,1.4470699999999999e-29,-7.9925899999999997e-26,-7.9918100000000005e-26,-7.9924199999999996e-26,6.5735000000000005e-30,-5.6364600000000003e-31,3.11341e-30
1685.0,1.3061299999999999e-29,-7.9918599999999995e-26,-7.9915099999999997e-26,-7.9916799999999997e-26,6.6601499999999995e-30,-6.3376199999999997e-31,3.0283900000000001e-30
1686.0,1.27372e-29,-7.9909999999999996e-26,-7.9911099999999997e-26,-7.9908399999999994e-26,6.6425700000000001e-30,-7.0637600000000001e-31,2.7415400000000002e-30
1687.0,1.3475500000000001e-29,-7.9902699999999995e-26,-7.9908399999999994e-26,-7.9900600000000003e-26,6.2096300000000002e-30,-9.5065399999999994e-31,2.21112e-30
1688.0,2.17183e-29,-7.9944800000000005e-26,-7.9926399999999998e-26,-7.9942799999999999e-26,5.12744e-30,-1.03374e-30,5.2699900000000003e-30
1689.0,1.93956e-29,-7.9938999999999996e-26,-7.9923900000000003e-26,-7.9937400000000005e-26,5.4909399999999998e-30,-9.6220400000000006e-31,5.0704199999999999e-30
1690.0,1.7105199999999999e-29,-7.9932099999999998e-26,-7.9920899999999994e-26,-7.9930899999999999e-26,5.8530399999999997e-30,-9.6070600000000007e-31,4.9338799999999998e-30
1691.0,1.5284600000000001e-29,-7.9925000000000003e-26,-7.9917899999999998e-26,-7.9924099999999999e-26,6.1755399999999997e-30,-9.8946599999999997e-31,4.8618699999999999e-30
1692.0,1.3896800000000001e-29,-7.99172e-26,-7.9914499999999997e-26,-7.9916600000000001e-26,6.3200799999999994e-30,-1.07289e-30,4.6106799999999999e-30
1693.0,1.3627600000000001e-29,-7.9909999999999996e-26,-7.9911400000000003e-26,-7.9909100000000003e-26,6.2586000000000003e-30,-1.2879300000000001e-30,4.4392800000000003e-30
1694.0,1.4491700000000001e-29,-7.9901600000000005e-26,-7.9907500000000001e-26,-7.9900899999999997e-26,6.07126e-30,-1.4753900000000001e-30,4.2176200000000003e-30
1695.0,2.2171199999999999e-29,-7.9942899999999997e-26,-7.9925700000000001e-26,-7.9941899999999995e-26,4.7532700000000001e-30,-1.37172e-30,6.7655099999999996e-30
1696.0,2.01557e-29,-7.9937400000000005e-26,-7.9923200000000005e-26,-7.9936599999999998e-26,5.0812099999999997e-30,-1.36182e-30,6.6254800000000006e-30
1697.0,1.81298e-29,-7.9930999999999997e-26,-7.9920500000000002e-26,-7.9930600000000005e-26,5.46555e-30,-1.37206e-30,6.5227599999999994e-30
1698.0,1.63902e-29,-7.9923800000000005e-26,-7.9917399999999996e-26,-7.9923800000000005e-26,5.7367599999999997e-30,-1.4695899999999999e-30,6.37262e-30
1699.0,1.53927e-29,-7.9916699999999999e-26,-7.9914399999999999e-26,-7.9916899999999995e-26,5.9195999999999999e-30,-1.6271699999999998e-30,6.2695200000000003e-30
1700.0,1.50096e-29,-7.9909000000000005e-26,-7.9911099999999997e-26,-7.9909499999999995e-26,5.9408100000000003e-30,-1.8326199999999999e-30,5.9372e-30
1701.0,1.54845e-29,-7.9901999999999997e-26,-7.99081e-26,-7.9901899999999999e-26,5.7256899999999997e-30,-2.2631800000000002e-30,5.43904e-30
1702.0,2.31252e-29,-7.9941500000000003e-26,-7.9925000000000003e-26,-7.9941099999999999e-26,4.4357199999999997e-30,-1.7142399999999999e-30,8.1645299999999996e-30
1703.0,2.1244199999999999e-29,-7.9936300000000005e-26,-7.9922800000000002e-26,-7.9936300000000005e-26,4.7641700000000001e-30,-1.7163800000000001e-30,8.0183599999999997e-30
1704.0,1.9518299999999999e-29,-7.9930100000000004e-26,-7.9920099999999999e-26,-7.9930499999999995e-26,5.0730600000000001e-30,-1.8027900000000001e-30,7.9579999999999995e-30
1705.0,1.8095e-29,-7.9923300000000003e-26,-7.99172e-26,-7.9924099999999999e-26,5.3983399999999997e-30,-1.9424399999999999e-30,7.8717599999999995e-30
1706.0,1.6999799999999999e-29,-7.9916099999999999e-26,-7.9914200000000003e-26,-7.9917299999999998e-26,5.5500700000000002e-30,-2.1401699999999999e-30,7.6541099999999996e-30
1707.0,1.684e-29,-7.9909000000000005e-26,-7.9911099999999997e-26,-7.9910200000000004e-26,5.6379600000000003e-30,-2.4898000000000001e-30,7.44663e-30
1708.0,1.7228200000000001e-29,-7.9901200000000002e-26,-7.9907599999999999e-26,-7.9902900000000002e-26,5.4787200000000003e-30,-2.7859999999999998e-30,7.07715e-30
1709.0,2.3856900000000001e-29,-7.9940300000000004e-26,-7.9924500000000002e-26,-7.9940599999999998e-26,4.22743e-30,-1.9925899999999999e-30,9.1277399999999998e-30
1710.0,2.2628700000000001e-29,-7.9935800000000003e-26,-7.9922499999999996e-26,-7.9936400000000003e-26,4.5042200000000003e-30,-2.0336400000000002e-30,9.2066399999999997e-30
1711.0,2.10329e-29,-7.99297e-26,-7.9920000000000001e-26,-7.9930800000000001e-26,4.8535500000000003e-30,-2.14283e-30,9.1397999999999999e-30
1712.0,1.9706299999999999e-29,-7.9922999999999998e-26,-7.9917100000000002e-26,-7.99246e-26,5.13065e-30,-2.33016e-30,9.0752299999999998e-30
1713.0,1.88779e-29,-7.9916000000000001e-26,-7.9914100000000005e-26,-7.9917899999999998e-26,5.3680200000000002e-30,-2.6419800000000001e-30,8.9109300000000006e-30
1714.0,1.84571e-29,-7.9908600000000002e-26,-7.9911099999999997e-26,-7.9910999999999999e-26,5.38233e-30,-2.9469699999999999e-30,8.5991799999999999e-30
1715.0,1.8817399999999999e-29,-7.9901499999999996e-26,-7.99081e-26,-7.9903699999999997e-26,5.2184399999999998e-30,-3.4825400000000003e-30,8.2183500000000004e-30
1716.0,3.7478599999999997e-29,-7.9962899999999995e-26,-7.9936099999999997e-26,-7.9963999999999996e-26,-4.28649e-30,-3.8200699999999999e-30,1.36056e-29
1717.0,3.72675e-29,-7.9967899999999997e-26,-7.9938700000000002e-26,-7.9967000000000004e-26,-4.3939399999999997e-30,-3.8292200000000002e-30,1.23879e-29
1718.0,3.7462699999999998e-29,-7.9972800000000002e-26,-7.9940800000000005e-26,-7.9971000000000004e-26,-4.43248e-30,-3.1349799999999999e-30,1.0669499999999999e-29
1719.0,3.6935500000000002e-29,-7.9976200000000002e-26,-7.9942299999999998e-26,-7.9972800000000002e-26,-4.5718300000000003e-30,-3.0304800000000001e-30,8.7345199999999995e-30
1720.0,3.6401899999999999e-29,-7.9979399999999995e-26,-7.9943800000000002e-26,-7.9974900000000005e-26,-4.438e-30,-2.3911799999999999e-30,6.4603100000000002e-30
1721.0,3.5913800000000001e-29,-7.9981700000000006e-26,-7.9945000000000001e-26,-7.9975899999999996e-26,-4.5638999999999998e-30,-2.2037800000000002e-30,3.8543399999999997e-30
1722.0,3.5569799999999997e-29,-7.9982599999999999e-26,-7.9945199999999997e-26,-7.9976100000000004e-26,-4.1917900000000003e-30,-1.6128999999999999e-30,1.28581e-30
1723.0,3.3284e-29,-7.99581e-26,-7.9934499999999995e-26,-7.9958199999999998e-26,-3.9704299999999998e-30,-3.8884800000000001e-30,1.22968e-29
1724.0,3.3855700000000001e-29,-7.9961699999999996e-26,-7.9935800000000003e-26,-7.99615e-26,-4.02743e-30,-3.2947e-30,1.14854e-29
1725.0,3.2492200000000002e-29,-7.9964700000000005e-26,-7.9937400000000005e-26,-7.9962899999999995e-26,-4.0125499999999998e-30,-3.2079100000000002e-30,9.6489199999999997e-30
1726.0,3.2316100000000001e-29,-7.9967899999999997e-26,-7.9938600000000004e-26,-7.99655e-26,-3.8915899999999997e-30,-2.50894e-30,7.8997099999999998e-30
1727.0,3.1175400000000002e-29,-7.9970099999999999e-26,-7.9939900000000001e-26,-7.9966299999999995e-26,-3.9143100000000001e-30,-2.4066899999999999e-30,5.7101300000000002e-30
1728.0,3.0659800000000002e-29,-7.9971600000000003e-26,-7.9940400000000002e-26,-7.9967299999999998e-26,-3.6539999999999997e-30,-1.6811899999999999e-30,3.4860099999999999e-30
1729.0,3.0570599999999999e-29,-7.9973499999999999e-26,-7.9941500000000003e-26,-7.9968200000000003e-26,-3.7133100000000001e-30,-1.67043e-30,1.07398e-30
1730.0,3.5671399999999999e-29,-7.9961099999999997e-26,-7.9935200000000004e-26,-7.9961699999999996e-26,-2.53806e-30,-3.5895599999999998e-30,1.32802e-29
1731.0,3.6053199999999999e-29,-7.9966400000000005e-26,-7.9937600000000001e-26,-7.9966000000000001e-26,-2.7316999999999999e-30,-3.2190899999999997e-30,1.1966e-29
1732.0,3.5784199999999999e-29,-7.9970400000000004e-26,-7.9939399999999999e-26,-7.9968599999999995e-26,-2.8519399999999998e-30,-2.9081700000000001e-30,1.03606e-29
1733.0,3.5351199999999999e-29,-7.9974199999999996e-26,-7.9941199999999997e-26,-7.99712e-26,-2.8633800000000001e-30,-2.5183900000000001e-30,8.3775800000000004e-30
1734.0,3.4702099999999998e-29,-7.9976899999999999e-26,-7.9942500000000006e-26,-7.9972700000000004e-26,-2.94503e-30,-2.1676300000000001e-30,6.0825799999999997e-30
1735.0,3.4158900000000002e-29,-7.9978900000000005e-26,-7.9943499999999997e-26,-7.9973699999999995e-26,-2.7557300000000001e-30,-1.7879400000000001e-30,3.6857600000000002e-30
1736.0,3.4185000000000001e-29,-7.9980800000000001e-26,-7.99445e-26,-7.9974699999999998e-26,-2.9715699999999999e-30,-1.45854e-30,1.0323900000000001e-30
1737.0,3.2380600000000002e-29,-7.9956200000000004e-26,-7.9932900000000004e-26,-7.9956700000000006e-26,-2.42388e-30,-3.4145299999999999e-30,1.21348e-29
1738.0,3.15832e-29,-7.9959000000000005e-26,-7.9934399999999997e-26,-7.9958600000000002e-26,-2.44972e-30,-3.0899800000000001e-30,1.08466e-29
1739.0,3.1297499999999998e-29,-7.9962600000000001e-26,-7.9935900000000001e-26,-7.9961199999999995e-26,-2.41272e-30,-2.7298699999999999e-30,9.3497099999999999e-30
1740.0,3.0370200000000001e-29,-7.9965300000000004e-26,-7.9937199999999998e-26,-7.9962799999999997e-26,-2.38796e-30,-2.34644e-30,7.4432199999999995e-30
1741.0,2.9926300000000001e-29,-7.9967799999999999e-26,-7.9938299999999999e-26,-7.9964399999999999e-26,-2.2289500000000002e-30,-1.9745599999999999e-30,5.4533e-30
1742.0,2.93462e-29,-7.9969699999999995e-26,-7.9939399999999999e-26,-7.9965400000000002e-26,-2.2246499999999999e-30,-1.61596e-30,3.1632900000000001e-30
1743.0,2.9161100000000001e-29,-7.9970799999999996e-26,-7.9939800000000003e-26,-7.9965900000000003e-26,-1.9427599999999999e-30,-1.21332e-30,9.5168600000000008e-31
1744.0,3.4435999999999998e-29,-7.9959100000000003e-26,-7.9933899999999996e-26,-7.99598e-26,-8.1429300000000004e-31,-3.1560099999999997e-30,1.2885200000000001e-29
1745.0,3.4355599999999998e-29,-7.9963700000000002e-26,-7.9936099999999997e-26,-7.9963200000000001e-26,-9.7429600000000008e-31,-2.7917300000000001e-30,1.1609e-29
1746.0,3.4101300000000002e-29,-7.9967899999999997e-26,-7.9938100000000003e-26,-7.9966400000000005e-26,-1.07335e-30,-2.4808699999999999e-30,9.9356899999999996e-30
1747.0,3.3474000000000002e-29,-7.9971100000000002e-26,-7.9939700000000005e-26,-7.9968399999999999e-26,-1.09651e-30,-2.13863e-30,7.9886099999999999e-30
1748.0,3.2839100000000001e-29,-7.9973900000000002e-26,-7.9941099999999999e-26,-7.9970099999999999e-26,-1.03517e-30,-1.8065400000000002e-30,5.7968099999999998e-30
1749.0,3.2341300000000003e-29,-7.9975899999999996e-26,-7.9942100000000002e-26,-7.9971100000000002e-26,-1.11114e-30,-1.48326e-30,3.3536499999999998e-30
1750.0,3.20875e-29,-7.9977200000000005e-26,-7.9942799999999999e-26,-7.9971600000000003e-26,-8.0779400000000007e-31,-1.19198e-30,9.5585800000000007e-31
1751.0,3.0566800000000001e-29,-7.9953699999999997e-26,-7.9931499999999998e-26,-7.9954100000000001e-26,-7.9452600000000001e-31,-3.05007e-30,1.16033e-29
1752.0,3.0218299999999998e-29,-7.9956900000000002e-26,-7.9933000000000002e-26,-7.9956599999999996e-26,-8.34438e-31,-2.7418900000000001e-30,1.04311e-29
1753.0,2.94687e-29,-7.99598e-26,-7.9934299999999999e-26,-7.9958400000000006e-26,-7.8873300000000001e-31,-2.3612600000000001e-30,8.8586199999999998e-30
1754.0,2.8957100000000001e-29,-7.9962799999999997e-26,-7.9935700000000005e-26,-7.9960499999999998e-26,-6.9581699999999999e-31,-2.0542200000000001e-30,7.0827e-30
1755.0,2.8248300000000001e-29,-7.9964999999999999e-26,-7.9936799999999994e-26,-7.9961799999999994e-26,-6.2198299999999997e-31,-1.65942e-30,5.0506799999999997e-30
1756.0,2.8012000000000003e-29,-7.9966899999999995e-26,-7.9937699999999999e-26,-7.9962899999999995e-26,-4.0293700000000001e-31,-1.3641900000000001e-30,2.9786199999999998e-30
1757.0,2.7989899999999998e-29,-7.99689e-26,-7.9938899999999998e-26,-7.9964100000000005e-26,-5.3499600000000003e-31,-1.10723e-30,7.0755500000000004e-31
1758.0,3.2910599999999998e-29,-7.99564e-26,-7.9932300000000005e-26,-7.9957e-26,8.7247599999999996e-31,-2.76801e-30,1.24339e-29
1759.0,3.2815300000000002e-29,-7.9960999999999999e-26,-7.9934600000000004e-26,-7.9960499999999998e-26,7.3969800000000001e-31,-2.44913e-30,1.1113099999999999e-29
1760.0,3.2324600000000001e-29,-7.9964599999999995e-26,-7.9936300000000005e-26,-7.9963100000000003e-26,7.73942e-31,-2.0815e-30,9.4981600000000001e-30
1761.0,3.1698099999999998e-29,-7.9967799999999999e-26,-7.9937899999999995e-26,-7.9965199999999995e-26,8.0855400000000005e-31,-1.7832699999999999e-30,7.5554400000000003e-30
1762.0,3.09832e-29,-7.9970199999999997e-26,-7.9939100000000005e-26,-7.9966500000000003e-26,8.7215699999999993e-31,-1.45431e-30,5.4349700000000002e-30
1763.0,3.0457799999999999e-29,-7.9972100000000004e-26,-7.9940300000000004e-26,-7.9967600000000003e-26,1.0253800000000001e-30,-1.19062e-30,3.1433699999999999e-30
1764.0,3.0370300000000002e-29,-7.9973599999999997e-26,-7.9941000000000001e-26,-7.9968300000000001e-26,8.6551300000000003e-31,-9.2509199999999994e-31,7.0081100000000003e-31
1765.0,2.9201799999999998e-29,-7.9951399999999998e-26,-7.9930100000000004e-26,-7.9951700000000003e-26,7.2498899999999998e-31,-2.7252800000000001e-30,1.10999e-29
1766.0,2.8651999999999998e-29,-7.9954000000000003e-26,-7.9931300000000002e-26,-7.9953599999999999e-26,7.5765499999999998e-31,-2.37177e-30,9.94316e-30
1767.0,2.8026899999999998e-29,-7.9957099999999998e-26,-7.9932799999999995e-26,-7.9955800000000001e-26,8.1536299999999995e-31,-2.08327e-30,8.4038499999999993e-30
1768.0,2.7375599999999998e-29,-7.9959600000000004e-26,-7.9934000000000005e-26,-7.9957400000000003e-26,9.6732500000000008e-31,-1.6957200000000001e-30,6.6678699999999995e-30
1769.0,2.6952399999999999e-29,-7.99621e-26,-7.9935200000000004e-26,-7.9959000000000005e-26,1.1283499999999999e-30,-1.42821e-30,4.7488500000000003e-30
1770.0,2.6544799999999997e-29,-7.9963899999999998e-26,-7.9936099999999997e-26,-7.9959999999999996e-26,1.20506e-30,-1.1050000000000001e-30,2.6749500000000001e-30
1771.0,2.6926099999999998e-29,-7.9965699999999996e-26,-7.9936900000000004e-26,-7.9960999999999999e-26,1.52311e-30,-8.1399700000000002e-31,6.4338999999999998e-31
1772.0,3.1512800000000002e-29,-7.9953699999999997e-26,-7.9930800000000001e-26,-7.9954100000000001e-26,2.4194499999999999e-30,-2.4610200000000001e-30,1.1851e-29
1773.0,3.1229500000000001e-29,-7.9957699999999997e-26,-7.9932699999999997e-26,-7.9957099999999998e-26,2.4221299999999999e-30,-2.0641900000000001e-30,1.05841e-29
1774.0,3.0746599999999999e-29,-7.9961099999999997e-26,-7.9934399999999997e-26,-7.9959600000000004e-26,2.5020400000000001e-30,-1.76798e-30,8.9604899999999997e-30
1775.0,3.0058799999999998e-29,-7.99638e-26,-7.9935700000000005e-26,-7.9961300000000004e-26,2.6672100000000002e-30,-1.4304200000000001e-30,7.1317900000000003e-30
1776.0,2.9439800000000002e-29,-7.9966199999999997e-26,-7.99371e-26,-7.9962699999999999e-26,2.81147e-30,-1.16114e-30,5.06185e-30
1777.0,2.8936899999999998e-29,-7.9967899999999997e-26,-7.9937899999999995e-26,-7.9963399999999996e-26,2.8929499999999999e-30,-9.1470200000000006e-31,2.8500400000000001e-30
1778.0,2.88676e-29,-7.9969300000000004e-26,-7.99388e-26,-7.9964100000000005e-26,3.1948799999999999e-30,-6.3946999999999997e-31,6.7527700000000002e-31
1779.0,2.7837699999999998e-29,-7.9948699999999995e-26,-7.9928599999999999e-26,-7.9948900000000002e-26,2.1812300000000001e-30,-2.3775899999999999e-30,1.05775e-29
1780.0,2.7296800000000002e-29,-7.9951399999999998e-26,-7.9929899999999996e-26,-7.9950899999999997e-26,2.2032100000000001e-30,-2.1094000000000002e-30,9.4093399999999996e-30
1781.0,2.6649400000000001e-29,-7.9953799999999995e-26,-7.9930999999999997e-26,-7.9952499999999999e-26,2.38234e-30,-1.7558900000000001e-30,7.9574099999999998e-30
1782.0,2.6066100000000002e-29,-7.99564e-26,-7.9932300000000005e-26,-7.9954299999999997e-26,2.55365e-30,-1.4617600000000001e-30,6.2523e-30
1783.0,2.5557200000000001e-29,-7.9958400000000006e-26,-7.9933199999999998e-26,-7.9955399999999997e-26,2.75551e-30,-1.1227000000000001e-30,4.4148999999999998e-30
1784.0,2.5540800000000003e-29,-7.9960499999999998e-26,-7.9934200000000001e-26,-7.9956599999999996e-26,3.0423300000000001e-30,-8.8449799999999993e-31,2.45878e-30
1785.0,2.53696e-29,-7.99621e-26,-7.9935300000000002e-26,-7.9957599999999999e-26,2.9385799999999999e-30,-6.4383100000000001e-31,3.78368e-31
1786.0,3.00852e-29,-7.9950700000000001e-26,-7.9929199999999999e-26,-7.9951100000000004e-26,3.7688100000000002e-30,-2.1154099999999999e-30,1.1237599999999999e-29
1787.0,2.97764e-29,-7.9954199999999999e-26,-7.9930899999999999e-26,-7.9953699999999997e-26,3.8535500000000002e-30,-1.79533e-30,9.9992100000000006e-30
1788.0,2.9204000000000003e-29,-7.9957099999999998e-26,-7.9932300000000005e-26,-7.9955600000000005e-26,4.0967399999999999e-30,-1.43011e-30,8.4690900000000002e-30
1789.0,2.8589899999999998e-29,-7.9959600000000004e-26,-7.9933500000000004e-26,-7.9957199999999995e-26,4.3263700000000002e-30,-1.16361e-30,6.6558200000000001e-30
1790.0,2.79827e-29,-7.99615e-26,-7.9934499999999995e-26,-7.99581e-26,4.5592600000000002e-30,-8.7137499999999997e-31,4.7231900000000002e-30
1791.0,2.7665400000000001e-29,-7.9963299999999998e-26,-7.9935499999999998e-26,-7.9959000000000005e-26,4.7862299999999997e-30,-6.4430500000000001e-31,2.6166199999999998e-30
1792.0,2.7456599999999999e-29,-7.9964399999999999e-26,-7.9935999999999999e-26,-7.9959200000000001e-26,4.77777e-30,-4.3714899999999998e-31,3.9929900000000004e-31
1793.0,2.6740899999999998e-29,-7.9946299999999998e-26,-7.9927300000000003e-26,-7.9946399999999996e-26,3.4095299999999997e-30,-2.1383099999999999e-30,1.0043700000000001e-29
1794.0,2.6238800000000003e-29,-7.9948499999999999e-26,-7.9928300000000005e-26,-7.9947999999999998e-26,3.5674800000000002e-30,-1.8190500000000001e-30,8.9855100000000003e-30
1795.0,2.5510000000000002e-29,-7.9950799999999999e-26,-7.9929399999999995e-26,-7.9949500000000002e-26,3.7318399999999998e-30,-1.52092e-30,7.5309800000000002e-30
1796.0,2.49952e-29,-7.9952900000000002e-26,-7.99303e-26,-7.9950799999999999e-26,4.0347099999999997e-30,-1.17426e-30,5.9317900000000002e-30
1797.0,2.46479e-29,-7.9955100000000003e-26,-7.99314e-26,-7.9952099999999995e-26,4.3050700000000002e-30,-9.1116600000000008e-31,4.1273399999999997e-30
1798.0,2.43696e-29,-7.9956599999999996e-26,-7.9932199999999996e-26,-7.9952800000000004e-26,4.4818e-30,-6.2983300000000003e-31,2.2315299999999999e-30
1799.0,2.51912e-29,-7.99587e-26,-7.9933000000000002e-26,-7.9953900000000005e-26,4.9795500000000003e-30,-3.89229e-31,3.60989e-31
1800.0,2.8769200000000002e-29,-7.9947800000000002e-26,-7.9927900000000002e-26,-7.9948200000000005e-26,4.83214e-30,-1.8290300000000001e-30,1.0685300000000001e-29
1801.0,2.8363000000000003e-29,-7.9950199999999999e-26,-7.9928799999999995e-26,-7.9949799999999996e-26,5.0898799999999999e-30,-1.5264699999999999e-30,9.5354300000000007e-30
1802.0,2.7807599999999999e-29,-7.9952499999999999e-26,-7.9929799999999998e-26,-7.9951200000000002e-26,5.39844e-30,-1.21526e-30,8.0557899999999996e-30
1803.0,2.7198300000000002e-29,-7.99547e-26,-7.9930800000000001e-26,-7.9952300000000003e-26,5.7209899999999997e-30,-8.8541500000000002e-31,6.34089e-30
1804.0,2.67713e-29,-7.9956599999999996e-26,-7.9931700000000006e-26,-7.9953199999999996e-26,6.0293299999999999e-30,-6.6587900000000001e-31,4.4053099999999999e-30
1805.0,2.6410100000000001e-29,-7.9958000000000002e-26,-7.9932400000000003e-26,-7.9953699999999997e-26,6.2458600000000003e-30,-4.0072999999999996e-31,2.4173100000000001e-30
1806.0,2.66864e-29,-7.9959499999999995e-26,-7.9933199999999998e-26,-7.9954299999999997e-26,6.5634600000000004e-30,-1.5896400000000001e-31,3.86165e-31
1807.0,2.5957300000000003e-29,-7.9944099999999996e-26,-7.9926100000000004e-26,-7.9944300000000004e-26,4.3504000000000001e-30,-1.9334700000000002e-30,9.6326499999999997e-30
1808.0,2.5347500000000001e-29,-7.9945799999999996e-26,-7.9926899999999999e-26,-7.9945500000000002e-26,4.5509100000000001e-30,-1.65406e-30,8.6128600000000003e-30
1809.0,2.4710700000000001e-29,-7.9947700000000004e-26,-7.9927800000000004e-26,-7.9946500000000005e-26,4.8896300000000003e-30,-1.2816699999999999e-30,7.2793599999999999e-30
1810.0,2.41405e-29,-7.9949699999999998e-26,-7.9928699999999997e-26,-7.9947700000000004e-26,5.1726099999999999e-30,-9.9511999999999997e-31,5.6519200000000002e-30
1811.0,2.3828e-29,-7.9951499999999996e-26,-7.9929500000000004e-26,-7.9948599999999997e-26,5.5126200000000003e-30,-6.8882500000000004e-31,3.9338199999999999e-30
1812.0,2.3975100000000001e-29,-7.9953400000000003e-26,-7.99303e-26,-7.9949500000000002e-26,5.8995900000000001e-30,-4.5880299999999999e-31,2.0905899999999999e-30
1813.0,2.3565799999999999e-29,-7.9954500000000004e-26,-7.9931200000000004e-26,-7.9950000000000003e-26,5.7145999999999998e-30,-2.09894e-31,1.09894e-31
1814.0,1.69654e-29,-7.9903099999999998e-26,-7.9907300000000005e-26,-7.9899099999999999e-26,8.8457200000000004e-30,4.7030500000000003e-31,-7.3712299999999999e-31
1815.0,2.03916e-29,-7.9904600000000002e-26,-7.9909299999999999e-26,-7.9901200000000002e-26,1.0954e-29,9.2745899999999993e-31,-1.0712700000000001e-30
1816.0,1.6459899999999999e-29,-7.9903599999999999e-26,-7.9908600000000002e-26,-7.9900799999999999e-26,8.6090100000000002e-30,1.3459700000000001e-32,6.9402599999999999e-31
1817.0,2.0156600000000001e-29,-7.9903199999999996e-26,-7.9908000000000002e-26,-7.9900700000000001e-26,1.09472e-29,5.1935400000000003e-31,1.29386e-30
1818.0,1.6658199999999999e-29,-7.9902400000000001e-26,-7.9907599999999999e-26,-7.9900700000000001e-26,8.4354100000000007e-30,-4.2554299999999998e-31,2.8925e-30
1819.0,1.98488e-29,-7.9903400000000004e-26,-7.9908600000000002e-26,-7.9902099999999995e-26,1.05321e-29,6.4419699999999995e-33,2.9574000000000002e-30
1820.0,1.68759e-29,-7.9902599999999997e-26,-7.99081e-26,-7.9901899999999999e-26,8.0270100000000007e-30,-1.08379e-30,4.2226800000000002e-30
1821.0,2.0333000000000001e-29,-7.9902499999999999e-26,-7.9908000000000002e-26,-7.9902499999999999e-26,1.00926e-29,-4.3476900000000002e-31,5.0760099999999997e-30
1822.0,1.8021600000000001e-29,-7.9901600000000005e-26,-7.9907699999999997e-26,-7.9902599999999997e-26,7.5451999999999997e-30,-1.63862e-30,6.1798899999999997e-30
1823.0,2.0514499999999999e-29,-7.9902200000000005e-26,-7.99081e-26,-7.9903599999999999e-26,9.3917499999999995e-30,-1.16027e-30,6.4258600000000004e-30
1824.0,1.8874999999999999e-29,-7.9901800000000001e-26,-7.9907900000000004e-26,-7.9903500000000002e-26,7.0443200000000005e-30,-2.5545199999999999e-30,7.2515999999999995e-30
1825.0,2.1635299999999999e-29,-7.9901499999999996e-26,-7.9907900000000004e-26,-7.99047e-26,8.5563399999999995e-30,-1.96641e-30,8.2908799999999995e-30
1826.0,2.02636e-29,-7.9901200000000002e-26,-7.9907799999999995e-26,-7.9904500000000004e-26,6.3951e-30,-2.95351e-30,8.7533800000000006e-30
1827.0,2.21534e-29,-7.9901499999999996e-26,-7.9907900000000004e-26,-7.99053e-26,7.6984600000000001e-30,-3.0150999999999999e-30,9.2175400000000004e-30
1828.0,1.59922e-29,-7.9912600000000001e-26,-7.9912899999999995e-26,-7.9909299999999999e-26,8.9618299999999997e-30,5.1783399999999998e-31,-8.64564e-31
1829.0,1.99081e-29,-7.9912199999999998e-26,-7.9912000000000002e-26,-7.9908899999999996e-26,1.1283e-29,9.1319899999999992e-31,-7.1654600000000001e-31
1830.0,1.5783400000000001e-29,-7.9911099999999997e-26,-7.9911400000000003e-26,-7.9908600000000002e-26,8.9002199999999998e-30,1.6104599999999999e-31,1.16889e-30
1831.0,1.9071799999999999e-29,-7.9912400000000005e-26,-7.9912699999999999e-26,-7.9910200000000004e-26,1.08231e-29,5.6429099999999996e-31,1.38648e-30
1832.0,1.5731900000000001e-29,-7.9910999999999999e-26,-7.9911900000000004e-26,-7.9909499999999995e-26,8.4906400000000006e-30,-3.2173599999999999e-31,2.9858099999999999e-30
1833.0,1.9418799999999999e-29,-7.9911300000000005e-26,-7.9911900000000004e-26,-7.9910200000000004e-26,1.0642700000000001e-29,2.7168300000000001e-31,3.4090500000000003e-30
1834.0,1.6466e-29,-7.9909899999999998e-26,-7.9911199999999995e-26,-7.9909700000000003e-26,8.1649599999999999e-30,-7.6655599999999998e-31,4.7350800000000003e-30
1835.0,1.9673199999999999e-29,-7.9910800000000003e-26,-7.9911900000000004e-26,-7.9911099999999997e-26,1.00465e-29,-2.5459699999999999e-31,5.2633899999999999e-30
1836.0,1.74087e-29,-7.9909600000000005e-26,-7.9911199999999995e-26,-7.9910300000000002e-26,7.6092300000000006e-30,-1.45603e-30,6.3519300000000002e-30
1837.0,2.05209e-29,-7.9909999999999996e-26,-7.9911599999999999e-26,-7.9911699999999997e-26,9.45607e-30,-8.3147000000000003e-31,7.0258400000000006e-30
1838.0,1.8731399999999999e-29,-7.9908899999999996e-26,-7.9911099999999997e-26,-7.9910999999999999e-26,7.09661e-30,-2.0235699999999998e-30,7.8132099999999994e-30
1839.0,2.1340900000000001e-29,-7.9909499999999995e-26,-7.9911400000000003e-26,-7.9912400000000005e-26,8.6171699999999998e-30,-1.6345399999999999e-30,8.5265200000000007e-30
1840.0,1.9998800000000001e-29,-7.9908899999999996e-26,-7.9910999999999999e-26,-7.9911500000000001e-26,6.5612700000000004e-30,-2.7519500000000001e-30,8.9859400000000006e-30
1841.0,2.2538400000000001e-29,-7.9909200000000001e-26,-7.9911300000000005e-26,-7.9913299999999999e-26,7.7185499999999996e-30,-2.5536200000000002e-30,9.9512999999999996e-30
1842.0,1.6614500000000001e-29,-7.9920199999999997e-26,-7.9915300000000004e-26,-7.9916699999999999e-26,9.2217799999999995e-30,4.8133500000000004e-31,-5.5003100000000004e-31
1843.0,1.8799400000000001e-29,-7.9921799999999999e-26,-7.9917100000000002e-26,-7.9918599999999995e-26,1.05369e-29,8.1526900000000003e-31,-5.9323800000000002e-31
1844.0,1.5686600000000001e-29,-7.9920000000000001e-26,-7.9915699999999996e-26,-7.9917500000000006e-26,8.69682e-30,1.1437400000000001e-31,1.3259300000000001e-30
1845.0,1.9068300000000001e-29,-7.99206e-26,-7.9916000000000001e-26,-7.9918300000000001e-26,1.0630899999999999e-29,6.1807300000000001e-31,1.55003e-30
1846.0,1.6017699999999999e-29,-7.9918599999999995e-26,-7.9914900000000001e-26,-7.99172e-26,8.4732299999999997e-30,-1.8115699999999999e-31,3.1763099999999997e-30
1847.0,1.9017000000000001e-29,-7.9920099999999999e-26,-7.9916000000000001e-26,-7.99189e-26,1.0155399999999999e-29,2.6583099999999999e-31,3.5923000000000002e-30
1848.0,1.66167e-29,-7.9917999999999996e-26,-7.9914800000000003e-26,-7.9917500000000006e-26,7.9869400000000006e-30,-6.9284999999999996e-31,4.9733500000000003e-30
1849.0,1.9775799999999999e-29,-7.99189e-26,-7.9915300000000004e-26,-7.9918999999999998e-26,9.7660199999999998e-30,-9.5959500000000004e-32,5.5300099999999999e-30
1850.0,1.76825e-29,-7.9917000000000004e-26,-7.9914399999999999e-26,-7.9917700000000002e-26,7.5041099999999996e-30,-1.1959400000000001e-30,6.5916099999999999e-30
1851.0,2.0645599999999999e-29,-7.9918100000000005e-26,-7.9914999999999999e-26,-7.99195e-26,9.13793e-30,-6.8808799999999998e-31,7.2746700000000006e-30
1852.0,1.9049599999999999e-29,-7.9916500000000003e-26,-7.9914200000000003e-26,-7.9918100000000005e-26,6.9564899999999994e-30,-1.8350399999999999e-30,8.0812400000000005e-30
1853.0,2.1786299999999999e-29,-7.9917399999999996e-26,-7.9914800000000003e-26,-7.9920099999999999e-26,8.3894700000000005e-30,-1.4203899999999999e-30,8.8818199999999996e-30
1854.0,2.03688e-29,-7.9916199999999997e-26,-7.9914200000000003e-26,-7.9918700000000004e-26,6.43636e-30,-2.3816e-30,9.2777300000000006e-30
1855.0,2.30405e-29,-7.9917100000000002e-26,-7.9914499999999997e-26,-7.99206e-26,7.5450400000000003e-30,-2.2339200000000001e-30,1.02882e-29
1856.0,1.7042199999999999e-29,-7.9929299999999997e-26,-7.9919900000000003e-26,-7.9925700000000001e-26,8.6148499999999997e-30,3.3682100000000001e-31,-4.8986900000000001e-31
1857.0,2.01209e-29,-7.9929899999999996e-26,-7.9919699999999996e-26,-7.9925999999999995e-26,1.03868e-29,7.0511199999999998e-31,-3.7059700000000001e-31
1858.0,1.6963599999999999e-29,-7.9927699999999995e-26,-7.9918800000000002e-26,-7.9925000000000003e-26,8.5315800000000006e-30,1.2139399999999999e-31,1.47491e-30
1859.0,1.9351500000000001e-29,-7.9929399999999995e-26,-7.9919900000000003e-26,-7.9926800000000001e-26,9.8701399999999994e-30,4.4552700000000004e-31,1.7024300000000002e-30
1860.0,1.6972000000000001e-29,-7.9926899999999999e-26,-7.9918599999999995e-26,-7.9925100000000001e-26,8.0815100000000001e-30,-2.3722099999999999e-31,3.3529599999999998e-30
1861.0,1.9796599999999999e-29,-7.9928300000000005e-26,-7.9919200000000006e-26,-7.9926700000000003e-26,9.6534400000000005e-30,2.1756699999999999e-31,3.7206500000000003e-30
1862.0,1.7553200000000001e-29,-7.9925500000000005e-26,-7.9917899999999998e-26,-7.9924799999999996e-26,7.6724599999999993e-30,-6.2219500000000003e-31,5.0769899999999998e-30
1863.0,2.0414299999999999e-29,-7.9927200000000005e-26,-7.9918800000000002e-26,-7.9926899999999999e-26,9.1795899999999998e-30,-1.3828900000000001e-31,5.6685999999999999e-30
1864.0,1.8605100000000001e-29,-7.99246e-26,-7.9917600000000004e-26,-7.9924900000000005e-26,7.1734599999999993e-30,-1.1100199999999999e-30,6.7653999999999993e-30
1865.0,2.1400800000000001e-29,-7.9925999999999995e-26,-7.9918300000000001e-26,-7.9926899999999999e-26,8.6276299999999995e-30,-6.5677400000000002e-31,7.4489199999999995e-30
1866.0,1.9895900000000001e-29,-7.9923800000000005e-26,-7.9917399999999996e-26,-7.9925100000000001e-26,6.6525700000000003e-30,-1.6480000000000001e-30,8.2281500000000001e-30
1867.0,2.2650999999999999e-29,-7.9925199999999999e-26,-7.9917999999999996e-26,-7.9927300000000003e-26,7.9579700000000003e-30,-1.2868000000000001e-30,9.0721199999999995e-30
1868.0,2.1252e-29,-7.9923499999999999e-26,-7.99172e-26,-7.9925399999999995e-26,6.1672899999999998e-30,-2.15525e-30,9.4475199999999999e-30
1869.0,2.3987699999999999e-29,-7.9924900000000005e-26,-7.99178e-26,-7.9927800000000004e-26,7.1568999999999998e-30,-2.0422000000000002e-30,1.04935e-29
1870.0,1.9281499999999999e-29,-7.9936599999999998e-26,-7.9922599999999994e-26,-7.9932699999999997e-26,8.4648800000000002e-30,2.7968799999999999e-31,-2.2417299999999999e-31
1871.0,2.0685799999999999e-29,-7.9938499999999995e-26,-7.9923900000000003e-26,-7.9934399999999997e-26,9.2389199999999994e-30,4.4531499999999998e-31,-2.46196e-31
1872.0,1.8554900000000001e-29,-7.9935800000000003e-26,-7.9922399999999998e-26,-7.9932699999999997e-26,7.9029599999999995e-30,-2.8104600000000001e-32,1.6287700000000002e-30
1873.0,2.1102599999999999e-29,-7.9937500000000003e-26,-7.99229e-26,-7.9934200000000001e-26,9.2989500000000003e-30,3.1410200000000002e-31,1.85448e-30
1874.0,1.8736400000000001e-29,-7.9934299999999999e-26,-7.9921600000000003e-26,-7.9932199999999996e-26,7.6594000000000006e-30,-2.9175199999999999e-31,3.45577e-30
1875.0,2.11733e-29,-7.9936400000000003e-26,-7.9922599999999994e-26,-7.9934299999999999e-26,8.8927600000000001e-30,5.1492500000000001e-32,3.8482100000000001e-30
1876.0,1.9200299999999999e-29,-7.99331e-26,-7.9921100000000002e-26,-7.9931900000000002e-26,7.2114000000000006e-30,-6.6377600000000002e-31,5.2113899999999998e-30
1877.0,2.1828199999999999e-29,-7.9935099999999994e-26,-7.9921999999999995e-26,-7.9934100000000003e-26,8.5019599999999995e-30,-2.9535200000000002e-31,5.7758199999999999e-30
1878.0,2.00286e-29,-7.9931700000000006e-26,-7.99206e-26,-7.9931599999999996e-26,6.7064699999999995e-30,-1.1011299999999999e-30,6.8455300000000003e-30
1879.0,2.2779499999999999e-29,-7.9933799999999998e-26,-7.9921500000000005e-26,-7.9934000000000005e-26,8.0058700000000007e-30,-7.0941600000000001e-31,7.5552500000000004e-30
1880.0,2.1245599999999999e-29,-7.9930899999999999e-26,-7.9920299999999995e-26,-7.9931599999999996e-26,6.2576000000000003e-30,-1.5422899999999999e-30,8.3122599999999999e-30
1881.0,2.39713e-29,-7.9932799999999995e-26,-7.9921100000000002e-26,-7.9934100000000003e-26,7.3700399999999996e-30,-1.28321e-30,9.1847700000000006e-30
1882.0,2.24762e-29,-7.9930399999999997e-26,-7.9920099999999999e-26,-7.9931800000000004e-26,5.7563699999999998e-30,-2.0125599999999999e-30,9.5164800000000006e-30
1883.0,2.5335000000000002e-29,-7.9932300000000005e-26,-7.9920899999999994e-26,-7.9934399999999997e-26,6.7061600000000001e-30,-1.9021699999999999e-30,1.05858e-29
1884.0,2.09431e-29,-7.9944400000000002e-26,-7.9926200000000002e-26,-7.9940099999999997e-26,7.4573100000000002e-30,2.4877300000000001e-32,-1.5070599999999999e-31
1885.0,2.3439800000000001e-29,-7.99462e-26,-7.9926499999999996e-26,-7.9941400000000005e-26,8.8368599999999996e-30,3.0512000000000001e-31,-3.8871600000000003e-33
1886.0,2.0736700000000001e-29,-7.9942700000000001e-26,-7.9925299999999997e-26,-7.9939300000000001e-26,7.4263099999999994e-30,-1.28693e-31,1.7485900000000001e-30
1887.0,2.28354e-29,-7.9945199999999997e-26,-7.9926399999999998e-26,-7.9941500000000003e-26,8.3727599999999995e-30,5.8267700000000003e-32,2.0033600000000001e-30
1888.0,2.0694599999999999e-29,-7.9941500000000003e-26,-7.9924799999999996e-26,-7.9938899999999998e-26,7.0101000000000004e-30,-3.9951700000000002e-31,3.59872e-30
1889.0,2.3199399999999999e-29,-7.99439e-26,-7.9925600000000003e-26,-7.9941199999999997e-26,8.1307999999999996e-30,-1.5262100000000001e-31,4.01166e-30
1890.0,2.1097600000000001e-29,-7.9939800000000003e-26,-7.9924099999999999e-26,-7.9938299999999999e-26,6.6281699999999999e-30,-7.5231899999999998e-31,5.3301699999999999e-30
1891.0,2.3688800000000001e-29,-7.9942399999999996e-26,-7.9925100000000001e-26,-7.9940800000000005e-26,7.7505500000000005e-30,-4.4795300000000002e-31,5.8980500000000002e-30
1892.0,2.18303e-29,-7.9938399999999997e-26,-7.9923499999999999e-26,-7.9937699999999999e-26,6.2160300000000001e-30,-1.11898e-30,6.9346699999999994e-30
1893.0,2.44736e-29,-7.9940900000000003e-26,-7.9924500000000002e-26,-7.99405e-26,7.2638600000000002e-30,-8.6825199999999994e-31,7.6779899999999994e-30
1894.0,2.27958e-29,-7.9937199999999998e-26,-7.9922999999999998e-26,-7.9937400000000005e-26,5.7298699999999998e-30,-1.54122e-30,8.3685600000000003e-30
1895.0,2.5571000000000003e-29,-7.9939700000000005e-26,-7.9924000000000001e-26,-7.9940199999999995e-26,6.7716999999999996e-30,-1.2950600000000001e-30,9.2443200000000007e-30
1896.0,2.3843599999999999e-29,-7.9936500000000001e-26,-7.9922700000000004e-26,-7.9937299999999996e-26,5.3510600000000002e-30,-1.88183e-30,9.4912799999999994e-30
1897.0,2.6715199999999998e-29,-7.9938899999999998e-26,-7.9923699999999995e-26,-7.9940300000000004e-26,6.1682100000000001e-30,-1.8138999999999999e-30,1.05938e-29
1898.0,2.32685e-29,-7.9950100000000001e-26,-7.9928799999999995e-26,-7.99456e-26,7.3446899999999997e-30,-1.9718199999999999e-32,7.9954699999999995e-32
1899.0,2.4640600000000001e-29,-7.9952800000000004e-26,-7.9929899999999996e-26,-7.99479e-26,7.58589e-30,-1.02369e-33,1.1206000000000001e-31
1900.0,2.2610799999999999e-29,-7.9948800000000005e-26,-7.9928099999999998e-26,-7.9945099999999999e-26,6.6535599999999997e-30,-3.1177799999999999e-31,1.9271800000000002e-30
1901.0,2.4973400000000001e-29,-7.9951999999999997e-26,-7.9929299999999997e-26,-7.99479e-26,7.5468999999999996e-30,-1.5611599999999999e-31,2.2063499999999999e-30
1902.0,2.2639800000000001e-29,-7.9947200000000002e-26,-7.9927400000000001e-26,-7.9944400000000002e-26,6.3905800000000006e-30,-5.3440500000000001e-31,3.7456700000000002e-30
1903.0,2.5095099999999999e-29,-7.9950600000000003e-26,-7.9928699999999997e-26,-7.9947399999999998e-26,7.2209900000000005e-30,-3.6597099999999998e-31,4.1953999999999999e-30
1904.0,2.2935599999999999e-29,-7.9945500000000002e-26,-7.9926600000000005e-26,-7.9943599999999995e-26,6.0465099999999997e-30,-8.2008900000000005e-31,5.4808599999999998e-30
1905.0,2.5560100000000002e-29,-7.9948900000000002e-26,-7.9928e-26,-7.9946899999999997e-26,6.8491099999999994e-30,-6.6796900000000004e-31,6.0799600000000001e-30
1906.0,2.34796e-29,-7.9943800000000002e-26,-7.9925899999999997e-26,-7.9942799999999999e-26,5.6221599999999997e-30,-1.1886699999999999e-30,7.0645400000000001e-30
1907.0,2.62499e-29,-7.9947100000000004e-26,-7.9927200000000005e-26,-7.9946100000000002e-26,6.4659599999999998e-30,-9.9138299999999991e-31,7.8208099999999999e-30
1908.0,2.4230700000000001e-29,-7.99422e-26,-7.9925199999999999e-26,-7.9942000000000004e-26,5.2825499999999997e-30,-1.50653e-30,8.4110500000000001e-30
1909.0,2.7044500000000003e-29,-7.9945400000000004e-26,-7.9926600000000005e-26,-7.9945400000000004e-26,6.0288899999999997e-30,-1.39538e-30,9.3250700000000005e-30
1910.0,2.4968599999999999e-29,-7.9941099999999999e-26,-7.9924799999999996e-26,-7.9941600000000001e-26,4.8624900000000001e-30,-1.87553e-30,9.4456399999999994e-30
1911.0,2.7801700000000002e-29,-7.9944099999999996e-26,-7.9926100000000004e-26,-7.9944800000000005e-26,5.63601e-30,-1.7253999999999999e-30,1.0495700000000001e-29
1912.0,3.4435100000000001e-29,-7.9900100000000001e-26,-7.99297e-26,-7.9901200000000002e-26,-1.0491299999999999e-29,1.53224e-30,-1.07166e-30
1913.0,3.2530499999999997e-29,-7.9898200000000005e-26,-7.9925999999999995e-26,-7.9898200000000005e-26,-9.6563199999999996e-30,8.1968500000000002e-31,-1.50904e-30
1914.0,3.2780799999999999e-29,-7.9898200000000005e-26,-7.9927099999999995e-26,-7.9898900000000003e-26,-9.1533599999999993e-30,8.9401700000000008e-31,-1.4569300000000001e-30
1915.0,2.9793299999999998e-29,-7.9897200000000003e-26,-7.9922200000000002e-26,-7.98962e-26,-8.69531e-30,1.72049e-31,-2.1071099999999999e-30
1916.0,2.9368699999999997e-29,-7.9898300000000003e-26,-7.9924400000000004e-26,-7.9898300000000003e-26,-7.6041400000000002e-30,3.5433800000000002e-31,-1.3565899999999999e-30
1917.0,2.5333999999999997e-29,-7.98979e-26,-7.9916600000000001e-26,-7.9894599999999998e-26,-7.9601699999999995e-30,1.7304800000000001e-33,-3.1426500000000001e-30
1918.0,2.3580500000000001e-29,-7.99047e-26,-7.9925299999999997e-26,-7.9900700000000001e-26,-2.02998e-30,-2.5094599999999999e-30,8.1173099999999999e-31
1919.0,2.7191900000000001e-29,-7.9910800000000003e-26,-7.9929299999999997e-26,-7.9910900000000001e-26,-1.15094e-29,9.2416000000000008e-31,-7.2411000000000001e-31
1920.0,2.6303899999999999e-29,-7.9910900000000001e-26,-7.9930200000000002e-26,-7.9911500000000001e-26,-1.04303e-29,8.2326100000000001e-31,-1.0023900000000001e-30
1921.0,2.34511e-29,-7.9909899999999998e-26,-7.9925799999999999e-26,-7.9909100000000003e-26,-9.6142299999999995e-30,3.14828e-31,-1.3098199999999999e-30
1922.0,2.1879100000000001e-29,-7.9910900000000001e-26,-7.9927400000000001e-26,-7.9910800000000003e-26,-8.1752600000000003e-30,3.1025900000000002e-31,-1.2756000000000001e-30
1923.0,1.95448e-29,-7.9909700000000003e-26,-7.9922100000000004e-26,-7.9908000000000002e-26,-8.0776699999999993e-30,2.8702900000000001e-33,-1.8675300000000002e-30
1924.0,1.5379499999999999e-29,-7.9912799999999997e-26,-7.9924799999999996e-26,-7.9910800000000003e-26,-4.4315700000000003e-30,-5.8296499999999998e-31,-1.1143799999999999e-30
1925.0,1.7348100000000001e-29,-7.9907500000000001e-26,-7.9921000000000004e-26,-7.9907e-26,-5.75883e-30,6.4053300000000002e-31,-1.7946500000000001e-30
1926.0,2.3883999999999999e-29,-7.9922499999999996e-26,-7.9934000000000005e-26,-7.99229e-26,-1.21045e-29,7.2541499999999999e-31,-4.3860400000000003e-31
1927.0,2.10725e-29,-7.99212e-26,-7.9929899999999996e-26,-7.9920500000000002e-26,-1.09506e-29,3.6410799999999999e-31,-7.4982000000000003e-31
1928.0,1.87511e-29,-7.99223e-26,-7.9930899999999999e-26,-7.9921999999999995e-26,-9.5203700000000005e-30,2.1917199999999999e-31,-8.9297999999999996e-31
1929.0,1.66677e-29,-7.99212e-26,-7.9926800000000001e-26,-7.9919900000000003e-26,-8.8199499999999994e-30,3.4042799999999999e-33,-1.25031e-30
1930.0,1.25156e-29,-7.9923400000000001e-26,-7.9928e-26,-7.9921899999999997e-26,-6.3812099999999998e-30,-2.4876100000000002e-31,-1.2079800000000001e-30
1931.0,1.2414e-29,-7.9920199999999997e-26,-7.9924699999999998e-26,-7.9919200000000006e-26,-6.3860000000000001e-30,-2.25681e-33,-1.4373900000000001e-30
1932.0,8.4957299999999996e-30,-7.9924000000000001e-26,-7.9924500000000002e-26,-7.9921399999999996e-26,-4.2402399999999998e-30,-5.7682599999999999e-31,-1.7349200000000001e-30
1933.0,2.15804e-29,-7.9931700000000006e-26,-7.9934299999999999e-26,-7.9930800000000001e-26,-1.23282e-29,2.5506099999999999e-31,-2.0139500000000002e-31
1934.0,1.9297900000000001e-29,-7.9932599999999999e-26,-7.9934899999999998e-26,-7.9932e-26,-1.10238e-29,1.0340899999999999e-31,-4.2089300000000004e-31
1935.0,1.7194000000000001e-29,-7.9931800000000004e-26,-7.9931300000000002e-26,-7.9930399999999997e-26,-9.8715800000000004e-30,-5.2768600000000003e-32,-7.7721699999999999e-31
1936.0,1.42705e-29,-7.9933899999999996e-26,-7.9932e-26,-7.9932400000000003e-26,-8.1236400000000001e-30,-2.7272e-31,-8.7647699999999993e-31
1937.0,1.3111e-29,-7.9931800000000004e-26,-7.9929100000000001e-26,-7.9930499999999995e-26,-7.3580400000000007e-30,-2.3741900000000002e-31,-1.09403e-30
1938.0,1.0815e-29,-7.9934700000000002e-26,-7.9929000000000003e-26,-7.9932199999999996e-26,-5.3582199999999998e-30,-4.6138100000000002e-31,-1.39482e-30
1939.0,8.6543199999999995e-30,-7.9931599999999996e-26,-7.9926899999999999e-26,-7.9929899999999996e-26,-4.2029999999999997e-30,-2.7673700000000002e-31,-1.21806e-30
1940.0,2.1489900000000001e-29,-7.9942000000000004e-26,-7.9939100000000005e-26,-7.9941000000000001e-26,-1.23164e-29,-1.0566e-31,-7.72982e-33
1941.0,1.9572399999999999e-29,-7.9941099999999999e-26,-7.9935599999999996e-26,-7.9939399999999999e-26,-1.09337e-29,-1.7393900000000001e-31,-3.4189399999999999e-31
1942.0,1.8016500000000001e-29,-7.9943300000000001e-26,-7.9936099999999997e-26,-7.9941400000000005e-26,-9.6895500000000003e-30,-4.0791399999999997e-31,-4.7010199999999998e-31
1943.0,1.66363e-29,-7.9942100000000002e-26,-7.9933600000000002e-26,-7.9940199999999995e-26,-8.4558099999999996e-30,-3.7823500000000001e-31,-7.4932100000000004e-31
1944.0,1.5781400000000001e-29,-7.9944900000000003e-26,-7.9933500000000004e-26,-7.9942100000000002e-26,-6.8233999999999995e-30,-5.7287600000000002e-31,-9.9528200000000006e-31
1945.0,1.4099100000000001e-29,-7.9942399999999996e-26,-7.9931499999999998e-26,-7.9940400000000002e-26,-5.6088799999999998e-30,-5.3847800000000001e-31,-9.9252599999999997e-31
1946.0,1.47896e-29,-7.9944800000000005e-26,-7.9930899999999999e-26,-7.9941600000000001e-26,-4.1392199999999998e-30,-5.9440899999999998e-31,-1.5406e-30
1947.0,2.2358600000000001e-29,-7.9949500000000002e-26,-7.9939599999999995e-26,-7.99473e-26,-1.18228e-29,-3.57688e-31,5.4545500000000002e-32
1948.0,2.1677400000000001e-29,-7.99513e-26,-7.9939999999999999e-26,-7.9948900000000002e-26,-1.0982300000000001e-29,-5.7759999999999996e-31,-6.7424799999999995e-32
1949.0,2.0388899999999999e-29,-7.9950799999999999e-26,-7.9937899999999995e-26,-7.9948400000000001e-26,-9.5157799999999994e-30,-5.3662899999999997e-31,-3.97362e-31
1950.0,2.0683700000000001e-29,-7.9954100000000001e-26,-7.9937899999999995e-26,-7.9950899999999997e-26,-8.2751500000000001e-30,-7.2771399999999999e-31,-5.9547800000000003e-31
1951.0,1.94614e-29,-7.9952499999999999e-26,-7.9936199999999995e-26,-7.9949900000000005e-26,-6.9527299999999997e-30,-7.2724400000000003e-31,-7.2496599999999997e-31
1952.0,2.0395e-29,-7.9955100000000003e-26,-7.9935800000000003e-26,-7.9951499999999996e-26,-5.5638200000000002e-30,-7.2533199999999997e-31,-1.12838e-30
1953.0,1.8887499999999999e-29,-7.9953e-26,-7.9934200000000001e-26,-7.9949799999999996e-26,-4.04639e-30,-7.7678700000000003e-31,-1.00158e-30
1954.0,2.4419800000000001e-29,-7.9957500000000001e-26,-7.9943300000000001e-26,-7.99547e-26,-1.1905800000000001e-29,-7.7945899999999998e-31,2.3616600000000002e-31
1955.0,2.33813e-29,-7.9957599999999999e-26,-7.9941600000000001e-26,-7.99547e-26,-1.04687e-29,-7.0940800000000003e-31,-8.7740600000000002e-32
1956.0,2.4588800000000001e-29,-7.99615e-26,-7.9941899999999995e-26,-7.9957699999999997e-26,-9.5934999999999999e-30,-8.7178000000000003e-31,-2.2361799999999998e-31
1957.0,2.38611e-29,-7.9961099999999997e-26,-7.99405e-26,-7.9957699999999997e-26,-8.1951799999999998e-30,-9.2275499999999999e-31,-4.2219600000000004e-31
1958.0,2.54271e-29,-7.9964499999999997e-26,-7.9940300000000004e-26,-7.9959999999999996e-26,-7.0082799999999996e-30,-9.4741000000000003e-31,-7.8038999999999998e-31
1959.0,2.4460099999999999e-29,-7.9962899999999995e-26,-7.9938899999999998e-26,-7.9959000000000005e-26,-5.7006499999999999e-30,-1.0145200000000001e-30,-8.02047e-31
1960.0,2.56055e-29,-7.9964900000000001e-26,-7.9938600000000004e-26,-7.9960200000000004e-26,-4.4563299999999999e-30,-9.2282400000000002e-31,-1.2813000000000001e-30
1961.0,3.4030399999999999e-29,-7.9898900000000003e-26,-7.9928099999999998e-26,-7.9899400000000004e-26,-1.0075499999999999e-29,1.16761e-30,-2.14131e-30
1962.0,3.3900899999999998e-29,-7.9898599999999997e-26,-7.9928599999999999e-26,-7.9899799999999996e-26,-9.4558499999999995e-30,1.16e-30,-2.0294199999999999e-30
1963.0,3.2305900000000002e-29,-7.9896999999999995e-26,-7.9924900000000005e-26,-7.9896799999999999e-26,-8.9829099999999999e-30,7.5800099999999997e-31,-2.59728e-30
1964.0,3.1337999999999998e-29,-7.9897999999999998e-26,-7.9925899999999997e-26,-7.9898499999999999e-26,-8.2846099999999998e-30,7.17536e-31,-2.1992500000000002e-30
1965.0,2.89565e-29,-7.9896600000000003e-26,-7.9920500000000002e-26,-7.9895199999999997e-26,-8.2293700000000007e-30,6.7230200000000001e-31,-3.23513e-30
1966.0,2.6522799999999999e-29,-7.9899900000000005e-26,-7.9923499999999999e-26,-7.9898800000000005e-26,-6.0039300000000002e-30,-3.9515299999999997e-31,-1.9669299999999999e-30
1967.0,2.5047799999999999e-29,-7.98945e-26,-7.9914200000000003e-26,-7.98956e-26,-8.3891e-30,1.0697600000000001e-30,-3.77609e-30
1968.0,2.8062700000000003e-29,-7.9910999999999999e-26,-7.9931499999999998e-26,-7.9911900000000004e-26,-1.1106e-29,1.1315399999999999e-30,-2.0361299999999999e-30
1969.0,2.6073500000000002e-29,-7.9909299999999999e-26,-7.9928099999999998e-26,-7.9909299999999999e-26,-1.01619e-29,7.9930399999999996e-31,-2.28051e-30
1970.0,2.45129e-29,-7.9910200000000004e-26,-7.9928500000000001e-26,-7.99104e-26,-9.1423699999999997e-30,6.9887099999999999e-31,-2.4170199999999999e-30
1971.0,2.2372000000000001e-29,-7.9908899999999996e-26,-7.99246e-26,-7.99081e-26,-8.5118400000000003e-30,4.9173599999999999e-31,-2.7210800000000001e-30
1972.0,1.9698599999999999e-29,-7.9911199999999995e-26,-7.9925700000000001e-26,-7.9910200000000004e-26,-6.8666199999999998e-30,2.6173699999999999e-31,-2.7115100000000002e-30
1973.0,1.8082300000000001e-29,-7.99087e-26,-7.9921100000000002e-26,-7.9907500000000001e-26,-6.6031799999999999e-30,2.3825600000000001e-31,-2.97079e-30
1974.0,1.36335e-29,-7.9913299999999999e-26,-7.9923099999999996e-26,-7.9910999999999999e-26,-4.0316999999999997e-30,-3.6263300000000002e-31,-1.9901900000000001e-30
1975.0,2.34254e-29,-7.99206e-26,-7.9931900000000002e-26,-7.99206e-26,-1.16371e-29,8.3370299999999992e-31,-2.00701e-30
1976.0,2.14386e-29,-7.99212e-26,-7.9931900000000002e-26,-7.99212e-26,-1.046e-29,6.5071400000000002e-31,-2.2149199999999999e-30
1977.0,1.9118499999999999e-29,-7.9920099999999999e-26,-7.9928599999999999e-26,-7.9919400000000002e-26,-9.4434999999999999e-30,4.6120800000000002e-31,-2.4464699999999999e-30
1978.0,1.6537099999999999e-29,-7.9921999999999995e-26,-7.9929100000000001e-26,-7.9921100000000002e-26,-8.0405300000000003e-30,3.3693900000000001e-31,-2.6925700000000001e-30
1979.0,1.4592000000000001e-29,-7.9920400000000004e-26,-7.9925700000000001e-26,-7.9919099999999996e-26,-7.1317300000000005e-30,1.6728399999999999e-31,-2.8079599999999999e-30
1980.0,1.1377600000000001e-29,-7.9923200000000005e-26,-7.9926600000000005e-26,-7.9921399999999996e-26,-5.2884900000000002e-30,1.41784e-31,-2.83528e-30
1981.0,1.08838e-29,-7.9920299999999995e-26,-7.9923400000000001e-26,-7.9918499999999997e-26,-4.6612800000000002e-30,5.8567599999999999e-31,-3.3733500000000002e-30
1982.0,2.1276300000000001e-29,-7.9931499999999998e-26,-7.9935800000000003e-26,-7.9931200000000004e-26,-1.1834300000000001e-29,5.7741500000000004e-31,-1.9200500000000002e-30
1983.0,1.8971700000000001e-29,-7.9930200000000002e-26,-7.9932699999999997e-26,-7.9929399999999995e-26,-1.05872e-29,4.0403699999999997e-31,-2.1580700000000001e-30
1984.0,1.6835600000000001e-29,-7.9931900000000002e-26,-7.9932900000000004e-26,-7.9930800000000001e-26,-9.3509900000000001e-30,2.78963e-31,-2.4272499999999999e-30
1985.0,1.4917999999999999e-29,-7.9930899999999999e-26,-7.9930000000000006e-26,-7.9929500000000004e-26,-8.1733099999999993e-30,1.2613600000000001e-31,-2.6155e-30
1986.0,1.27688e-29,-7.9933199999999998e-26,-7.9930499999999995e-26,-7.99314e-26,-6.6472300000000002e-30,1.1559800000000001e-31,-2.8653800000000001e-30
1987.0,1.15119e-29,-7.99314e-26,-7.9927800000000004e-26,-7.9929399999999995e-26,-5.6033699999999997e-30,1.1247800000000001e-31,-3.0801299999999999e-30
1988.0,1.06134e-29,-7.9934399999999997e-26,-7.9927900000000002e-26,-7.9931800000000004e-26,-3.9912699999999997e-30,-1.8962000000000001e-31,-3.3252999999999997e-30
1989.0,2.0631500000000001e-29,-7.9939700000000005e-26,-7.9936900000000004e-26,-7.9938399999999997e-26,-1.1681899999999999e-29,3.09076e-31,-1.8472199999999999e-30
1990.0,1.9034700000000001e-29,-7.9940800000000005e-26,-7.9936699999999996e-26,-7.9939300000000001e-26,-1.05831e-29,1.6766999999999999e-31,-2.07454e-30
1991.0,1.7454199999999999e-29,-7.9940300000000004e-26,-7.9934200000000001e-26,-7.9938499999999995e-26,-9.2996100000000003e-30,5.9057600000000003e-32,-2.3115000000000002e-30
1992.0,1.6292800000000001e-29,-7.9942600000000004e-26,-7.9934499999999995e-26,-7.99405e-26,-8.0095299999999994e-30,-1.1227899999999999e-32,-2.5894e-30
1993.0,1.5262600000000001e-29,-7.9941600000000001e-26,-7.9932199999999996e-26,-7.9939399999999999e-26,-6.7593199999999995e-30,-7.9447699999999995e-32,-2.81273e-30
1994.0,1.50147e-29,-7.9943999999999998e-26,-7.9932300000000005e-26,-7.9941299999999995e-26,-5.2895000000000001e-30,-1.29348e-31,-3.11356e-30
1995.0,1.3911499999999999e-29,-7.9942500000000006e-26,-7.9930499999999995e-26,-7.9939599999999995e-26,-3.8735300000000002e-30,-1.95086e-32,-3.2298700000000003e-30
1996.0,2.1684500000000001e-29,-7.9948900000000002e-26,-7.99405e-26,-7.9946899999999997e-26,-1.15818e-29,3.08963e-32,-1.7915400000000001e-30
1997.0,2.0446400000000001e-29,-7.9948300000000003e-26,-7.9938100000000003e-26,-7.9946000000000004e-26,-1.03338e-29,-4.9390799999999995e-32,-2.0081099999999999e-30
1998.0,1.99947e-29,-7.9950700000000001e-26,-7.9938299999999999e-26,-7.9948099999999996e-26,-9.2701600000000007e-30,-1.2567400000000001e-31,-2.2418900000000001e-30
1999.0,1.93711e-29,-7.9950500000000005e-26,-7.9936400000000003e-26,-7.9947800000000002e-26,-7.9410600000000002e-30,-2.09911e-31,-2.5004899999999999e-30
2000.0,1.9636199999999999e-29,-7.9953099999999998e-26,-7.9936599999999998e-26,-7.9949900000000005e-26,-6.6511099999999994e-30,-2.7854600000000001e-31,-2.79737e-30
2001.0,1.9066900000000001e-29,-7.9952099999999995e-26,-7.9934899999999998e-26,-7.9948800000000005e-26,-5.3291999999999997e-30,-2.7061099999999999e-31,-2.99336e-30
2002.0,2.0256999999999999e-29,-7.9954500000000004e-26,-7.9934899999999998e-26,-7.9950799999999999e-26,-4.0493500000000002e-30,-4.1605600000000002e-31,-3.4291900000000003e-30
2003.0,2.2892599999999999e-29,-7.9954799999999998e-26,-7.9941600000000001e-26,-7.9951999999999997e-26,-1.10874e-29,-1.7692000000000001e-31,-1.7797200000000001e-30
2004.0,2.31069e-29,-7.9957199999999995e-26,-7.9941799999999997e-26,-7.9954199999999999e-26,-1.03659e-29,-2.3885200000000001e-31,-1.92706e-30
2005.0,2.2895300000000001e-29,-7.99581e-26,-7.99405e-26,-7.9954799999999998e-26,-9.0638899999999995e-30,-3.4072699999999998e-31,-2.1841600000000001e-30
2006.0,2.3783199999999999e-29,-7.9961300000000004e-26,-7.9940699999999996e-26,-7.9957400000000003e-26,-7.9531900000000007e-30,-4.3724199999999996e-31,-2.4883e-30
2007.0,2.38696e-29,-7.9961199999999995e-26,-7.9939300000000001e-26,-7.9957300000000005e-26,-6.7205200000000004e-30,-4.5026600000000001e-31,-2.7627900000000001e-30
2008.0,2.49377e-29,-7.9963600000000004e-26,-7.9939300000000001e-26,-7.9959200000000001e-26,-5.5229499999999999e-30,-4.8164100000000002e-31,-3.1253700000000001e-30
2009.0,2.4489600000000001e-29,-7.9962799999999997e-26,-7.9938100000000003e-26,-7.9958199999999998e-26,-4.1012000000000002e-30,-4.71746e-31,-3.2232000000000001e-30
2010.0,3.4559400000000001e-29,-7.9899500000000002e-26,-7.9929799999999998e-26,-7.9901200000000002e-26,-9.9575600000000001e-30,1.27067e-30,-2.7544299999999999e-30
2011.0,3.3641699999999998e-29,-7.9897599999999994e-26,-7.9926899999999999e-26,-7.9898099999999996e-26,-9.2649200000000001e-30,1.0210200000000001e-30,-3.1495799999999999e-30
2012.0,3.2822899999999998e-29,-7.9897999999999998e-26,-7.9927200000000005e-26,-7.9899199999999997e-26,-8.7581800000000002e-30,1.03399e-30,-2.90467e-30
2013.0,3.1177899999999998e-29,-7.9896500000000005e-26,-7.9923099999999996e-26,-7.9896299999999998e-26,-8.4738499999999999e-30,1.0827200000000001e-30,-3.6192799999999997e-30
2014.0,2.9198300000000003e-29,-7.9898699999999995e-26,-7.9924299999999994e-26,-7.9898599999999997e-26,-7.3521299999999994e-30,6.3214399999999996e-31,-3.1268399999999999e-30
2015.0,2.73491e-29,-7.9895899999999994e-26,-7.9918399999999999e-26,-7.9895799999999996e-26,-7.7811700000000001e-30,1.50804e-30,-4.2114600000000001e-30
2016.0,2.4733599999999999e-29,-7.9901399999999998e-26,-7.9921700000000001e-26,-7.9897700000000004e-26,-4.6710000000000003e-30,1.01318e-30,-3.80376e-30
2017.0,2.8188099999999997e-29,-7.9909499999999995e-26,-7.9930000000000006e-26,-7.9910200000000004e-26,-1.07838e-29,1.1163099999999999e-30,-3.3144800000000001e-30
2018.0,2.6767099999999998e-29,-7.9909700000000003e-26,-7.99297e-26,-7.99104e-26,-9.8645600000000003e-30,1.02837e-30,-3.4069999999999998e-30
2019.0,2.49659e-29,-7.9908399999999994e-26,-7.9926700000000003e-26,-7.9908399999999994e-26,-9.0677399999999995e-30,8.8953200000000007e-31,-3.63094e-30
2020.0,2.2932499999999999e-29,-7.9910099999999994e-26,-7.9926899999999999e-26,-7.9909999999999996e-26,-8.0892800000000006e-30,8.0321100000000001e-31,-3.8268400000000003e-30
2021.0,2.0913999999999999e-29,-7.9908600000000002e-26,-7.9923200000000005e-26,-7.9907799999999995e-26,-7.3082300000000006e-30,7.6330800000000004e-31,-4.0738800000000001e-30
2022.0,1.82896e-29,-7.9911400000000003e-26,-7.9924199999999996e-26,-7.9910300000000002e-26,-5.9518699999999997e-30,6.3752800000000004e-31,-4.0551799999999997e-30
2023.0,1.7256199999999999e-29,-7.9908600000000002e-26,-7.9918999999999998e-26,-7.9907900000000004e-26,-5.6898300000000002e-30,1.18283e-30,-5.1736800000000003e-30
2024.0,2.3875199999999999e-29,-7.9920500000000002e-26,-7.99331e-26,-7.9920899999999994e-26,-1.12217e-29,1.0193000000000001e-30,-3.5076000000000001e-30
2025.0,2.1891699999999999e-29,-7.9919099999999996e-26,-7.99303e-26,-7.9919099999999996e-26,-1.0171e-29,8.7487799999999999e-31,-3.6591699999999998e-30
2026.0,1.9829399999999999e-29,-7.9920500000000002e-26,-7.9930100000000004e-26,-7.9920099999999999e-26,-9.1031699999999994e-30,7.7307599999999999e-31,-3.94538e-30
2027.0,1.76346e-29,-7.9919599999999998e-26,-7.9927300000000003e-26,-7.9918800000000002e-26,-8.0149099999999994e-30,6.2919499999999996e-31,-4.1103000000000001e-30
2028.0,1.5504800000000001e-29,-7.9921700000000001e-26,-7.9927599999999997e-26,-7.9920699999999998e-26,-6.8143399999999995e-30,6.3653400000000002e-31,-4.40077e-30
2029.0,1.3759800000000001e-29,-7.9920299999999995e-26,-7.9924299999999994e-26,-7.9918800000000002e-26,-5.7111300000000002e-30,5.9350200000000002e-31,-4.67241e-30
2030.0,1.09325e-29,-7.9923599999999997e-26,-7.9925399999999995e-26,-7.9921500000000005e-26,-3.9689600000000003e-30,3.2266299999999999e-31,-4.4943600000000001e-30
2031.0,2.1339800000000001e-29,-7.9929199999999999e-26,-7.9934200000000001e-26,-7.9928900000000005e-26,-1.13667e-29,8.5597700000000006e-31,-3.6025700000000001e-30
2032.0,1.9376000000000001e-29,-7.9929899999999996e-26,-7.9933600000000002e-26,-7.9929299999999997e-26,-1.02379e-29,7.3138800000000003e-31,-3.7888599999999999e-30
2033.0,1.73571e-29,-7.9929399999999995e-26,-7.9931200000000004e-26,-7.9928400000000003e-26,-9.0569199999999999e-30,5.8140699999999999e-31,-3.99958e-30
2034.0,1.5700800000000001e-29,-7.99314e-26,-7.9931300000000002e-26,-7.9930000000000006e-26,-7.89612e-30,5.64769e-31,-4.3528199999999998e-30
2035.0,1.4061599999999999e-29,-7.9930700000000003e-26,-7.9928799999999995e-26,-7.9929000000000003e-26,-6.6263399999999999e-30,4.3200599999999998e-31,-4.5530900000000001e-30
2036.0,1.2793400000000001e-29,-7.9933000000000002e-26,-7.9929299999999997e-26,-7.9930999999999997e-26,-5.2453199999999997e-30,4.5185699999999997e-31,-4.8303299999999999e-30
2037.0,1.2376e-29,-7.9931700000000006e-26,-7.9926800000000001e-26,-7.9929199999999999e-26,-4.0300900000000001e-30,6.7111199999999998e-31,-5.3311200000000001e-30
2038.0,2.0653899999999999e-29,-7.9938999999999996e-26,-7.9937400000000005e-26,-7.9937899999999995e-26,-1.13143e-29,6.5355800000000002e-31,-3.6174199999999997e-30
2039.0,1.8926499999999999e-29,-7.9938200000000001e-26,-7.9935099999999994e-26,-7.9936799999999994e-26,-1.01169e-29,5.3361900000000001e-31,-3.7879400000000002e-30
2040.0,1.7747000000000001e-29,-7.9939800000000003e-26,-7.9934899999999998e-26,-7.9938200000000001e-26,-9.0299899999999995e-30,4.7260799999999997e-31,-4.0972799999999998e-30
2041.0,1.65882e-29,-7.9939800000000003e-26,-7.9932900000000004e-26,-7.9937899999999995e-26,-7.7467899999999993e-30,3.5473500000000001e-31,-4.3447499999999999e-30
2042.0,1.5992599999999999e-29,-7.9942000000000004e-26,-7.99331e-26,-7.9939700000000005e-26,-6.4767799999999994e-30,3.60427e-31,-4.6992200000000001e-30
2043.0,1.55566e-29,-7.9941500000000003e-26,-7.9931099999999995e-26,-7.9938700000000002e-26,-5.1919399999999998e-30,2.95492e-31,-5.0009699999999999e-30
2044.0,1.61013e-29,-7.9944099999999996e-26,-7.9931499999999998e-26,-7.9941199999999997e-26,-3.7855900000000002e-30,7.40811e-32,-5.3558299999999999e-30
2045.0,2.12027e-29,-7.9946299999999998e-26,-7.9938899999999998e-26,-7.9944400000000002e-26,-1.1026e-29,4.4979200000000001e-31,-3.63515e-30
2046.0,2.0408500000000001e-29,-7.9947399999999998e-26,-7.9938399999999997e-26,-7.9945299999999995e-26,-1.00919e-29,4.0797200000000001e-31,-3.82542e-30
2047.0,1.96551e-29,-7.9947800000000002e-26,-7.9936799999999994e-26,-7.9945500000000002e-26,-8.8658200000000005e-30,2.96731e-31,-4.0605800000000003e-30
2048.0,1.9488899999999999e-29,-7.9950199999999999e-26,-7.9937000000000002e-26,-7.9947499999999996e-26,-7.6796400000000002e-30,2.35142e-31,-4.3955899999999999e-30
2049.0,1.9506899999999999e-29,-7.9950399999999995e-26,-7.99354e-26,-7.99473e-26,-6.4293700000000005e-30,1.62762e-31,-4.7248900000000002e-30
2050.0,2.0033599999999999e-29,-7.9952699999999995e-26,-7.9935599999999996e-26,-7.9949199999999996e-26,-5.1404900000000002e-30,9.2195599999999999e-32,-5.0927499999999999e-30
2051.0,1.9910200000000001e-29,-7.9952300000000003e-26,-7.9934299999999999e-26,-7.9948400000000001e-26,-3.7731700000000002e-30,1.6952699999999999e-31,-5.3250300000000003e-30
2052.0,2.27716e-29,-7.9953599999999999e-26,-7.9941500000000003e-26,-7.9950999999999994e-26,-1.09005e-29,3.1603600000000001e-31,-3.65847e-30
2053.0,2.23904e-29,-7.9954500000000004e-26,-7.9940400000000002e-26,-7.9951600000000005e-26,-9.8642600000000001e-30,2.3078600000000002e-31,-3.8082800000000001e-30
2054.0,2.2673199999999999e-29,-7.9957199999999995e-26,-7.9940599999999998e-26,-7.9953900000000005e-26,-8.8029999999999994e-30,1.3283800000000001e-31,-4.1098499999999998e-30
2055.0,2.3220400000000001e-29,-7.9958400000000006e-26,-7.9939399999999999e-26,-7.9954799999999998e-26,-7.63521e-30,7.5778100000000001e-32,-4.4657399999999998e-30
2056.0,2.40129e-29,-7.9960800000000003e-26,-7.9939599999999995e-26,-7.9956800000000004e-26,-6.4739499999999993e-30,-4.9130699999999999e-33,-4.8302099999999997e-30
2057.0,2.4389999999999999e-29,-7.9960999999999999e-26,-7.9938299999999999e-26,-7.9956599999999996e-26,-5.2599099999999997e-30,-3.9206099999999999e-32,-5.14071e-30
2058.0,2.5662600000000001e-29,-7.9963100000000003e-26,-7.9938600000000004e-26,-7.99587e-26,-4.0643300000000001e-30,-2.2438100000000001e-31,-5.6002500000000001e-30
2059.0,3.4257199999999999e-29,-7.9898699999999995e-26,-7.9928199999999996e-26,-7.9899799999999996e-26,-9.7611499999999998e-30,1.06897e-30,-3.9271299999999998e-30
2060.0,3.3676999999999998e-29,-7.9898599999999997e-26,-7.9928400000000003e-26,-7.9900500000000005e-26,-9.1895900000000001e-30,1.22124e-30,-3.6429299999999997e-30
2061.0,3.2484300000000002e-29,-7.9896999999999995e-26,-7.9925000000000003e-26,-7.9897700000000004e-26,-8.8077400000000006e-30,1.2259e-30,-4.1414199999999997e-30
2062.0,3.0917499999999998e-29,-7.9898599999999997e-26,-7.9925600000000003e-26,-7.9899299999999995e-26,-8.0323299999999995e-30,1.17476e-30,-3.93413e-30
2063.0,2.9355099999999998e-29,-7.9896500000000005e-26,-7.9921100000000002e-26,-7.9896799999999999e-26,-7.9483600000000005e-30,1.6833799999999998e-30,-4.7033800000000003e-30
2064.0,2.68926e-29,-7.9900199999999999e-26,-7.9922499999999996e-26,-7.9898599999999997e-26,-6.2762200000000003e-30,1.3580099999999999e-30,-4.5758299999999997e-30
2065.0,2.4655200000000001e-29,-7.9896899999999997e-26,-7.9916400000000005e-26,-7.9896899999999997e-26,-6.7071900000000007e-30,1.6938900000000001e-30,-5.3089600000000002e-30
2066.0,2.8599699999999999e-29,-7.99098e-26,-7.9930899999999999e-26,-7.9911099999999997e-26,-1.0525900000000001e-29,1.26021e-30,-4.4878100000000001e-30
2067.0,2.7149900000000003e-29,-7.9908199999999998e-26,-7.9928300000000005e-26,-7.9908899999999996e-26,-9.6786400000000003e-30,1.1280700000000001e-30,-4.5876500000000001e-30
2068.0,2.5494799999999999e-29,-7.9909399999999997e-26,-7.9928099999999998e-26,-7.9909899999999998e-26,-8.8803999999999999e-30,1.17113e-30,-4.8004699999999998e-30
2069.0,2.3660099999999999e-29,-7.9908199999999998e-26,-7.9925000000000003e-26,-7.99081e-26,-8.0394799999999998e-30,1.1411600000000001e-30,-5.0572900000000001e-30
2070.0,2.15901e-29,-7.9910499999999998e-26,-7.9925299999999997e-26,-7.9910099999999994e-26,-7.0990699999999996e-30,1.1690100000000001e-30,-5.3159800000000003e-30
2071.0,1.98933e-29,-7.9908799999999998e-26,-7.9921399999999996e-26,-7.9907900000000004e-26,-6.1860100000000001e-30,1.4054200000000001e-30,-5.8928700000000001e-30
2072.0,1.7450199999999999e-29,-7.9912699999999999e-26,-7.9923200000000005e-26,-7.9910200000000004e-26,-4.3084300000000002e-30,1.21374e-30,-5.80229e-30
2073.0,2.4413000000000001e-29,-7.9918700000000004e-26,-7.9931800000000004e-26,-7.9919300000000004e-26,-1.0884e-29,1.1930400000000001e-30,-4.9362099999999998e-30
2074.0,2.26844e-29,-7.9919200000000006e-26,-7.9931099999999995e-26,-7.9919400000000002e-26,-9.9027400000000006e-30,1.1255900000000001e-30,-5.0841999999999998e-30
2075.0,2.07192e-29,-7.9918399999999999e-26,-7.9928699999999997e-26,-7.9918300000000001e-26,-8.8634199999999993e-30,1.0262200000000001e-30,-5.26689e-30
2076.0,1.8964900000000001e-29,-7.9920299999999995e-26,-7.9928599999999999e-26,-7.9919800000000005e-26,-7.9054800000000002e-30,1.0460200000000001e-30,-5.6587700000000003e-30
2077.0,1.7064e-29,-7.9919599999999998e-26,-7.9925899999999997e-26,-7.9918499999999997e-26,-6.7069999999999994e-30,9.8675099999999992e-31,-5.9318699999999998e-30
2078.0,1.5418500000000001e-29,-7.9922100000000004e-26,-7.9926399999999998e-26,-7.9920699999999998e-26,-5.52847e-30,1.0048999999999999e-30,-6.23587e-30
2079.0,1.50124e-29,-7.9920500000000002e-26,-7.99229e-26,-7.99189e-26,-4.4660699999999998e-30,1.2597400000000001e-30,-7.0453400000000004e-30
2080.0,2.1968000000000001e-29,-7.9928799999999995e-26,-7.9934600000000004e-26,-7.9928599999999999e-26,-1.10009e-29,1.1223499999999999e-30,-5.1958300000000003e-30
2081.0,2.0066300000000001e-29,-7.9927699999999995e-26,-7.9932300000000005e-26,-7.9927300000000003e-26,-9.8734599999999995e-30,9.8637400000000002e-31,-5.2960100000000003e-30
2082.0,1.85508e-29,-7.9929199999999999e-26,-7.9931900000000002e-26,-7.9928400000000003e-26,-8.8617100000000002e-30,9.6265200000000004e-31,-5.6449499999999998e-30
2083.0,1.68853e-29,-7.9929000000000003e-26,-7.9929799999999998e-26,-7.9927800000000004e-26,-7.6442399999999995e-30,8.4018300000000001e-31,-5.9074700000000001e-30
2084.0,1.5897799999999999e-29,-7.9931200000000004e-26,-7.9930000000000006e-26,-7.99297e-26,-6.5272899999999994e-30,8.9410600000000002e-31,-6.3410299999999995e-30
2085.0,1.4989499999999999e-29,-7.9930600000000005e-26,-7.9927599999999997e-26,-7.9928500000000001e-26,-5.1924199999999999e-30,8.2762100000000002e-31,-6.6955999999999993e-30
2086.0,1.43856e-29,-7.99337e-26,-7.9928500000000001e-26,-7.9931200000000004e-26,-3.69085e-30,6.4170600000000004e-31,-6.9421599999999997e-30
2087.0,2.1038499999999999e-29,-7.9936699999999996e-26,-7.9936099999999997e-26,-7.9935800000000003e-26,-1.0871900000000001e-29,9.9543000000000007e-31,-5.3078599999999998e-30
2088.0,1.96363e-29,-7.9937400000000005e-26,-7.9935300000000002e-26,-7.9936199999999995e-26,-9.8353699999999996e-30,8.9201300000000008e-31,-5.4695500000000001e-30
2089.0,1.8387400000000001e-29,-7.9937400000000005e-26,-7.9933500000000004e-26,-7.9935900000000001e-26,-8.6834900000000003e-30,7.8870899999999997e-31,-5.7272800000000001e-30
2090.0,1.7750199999999999e-29,-7.9939499999999997e-26,-7.9933600000000002e-26,-7.9937699999999999e-26,-7.5755600000000004e-30,7.8384800000000001e-31,-6.1531000000000002e-30
2091.0,1.7171799999999999e-29,-7.9939700000000005e-26,-7.9931800000000004e-26,-7.9937400000000005e-26,-6.2744400000000001e-30,6.7056099999999997e-31,-6.4859200000000005e-30
2092.0,1.72634e-29,-7.9942000000000004e-26,-7.9932199999999996e-26,-7.9939499999999997e-26,-5.0234000000000001e-30,6.7022500000000003e-31,-6.9214300000000001e-30
2093.0,1.7432499999999999e-29,-7.9941500000000003e-26,-7.9930399999999997e-26,-7.9938399999999997e-26,-3.71114e-30,7.8139300000000001e-31,-7.3676e-30
2094.0,2.16175e-29,-7.9945099999999999e-26,-7.99388e-26,-7.9943399999999999e-26,-1.07216e-29,8.8142600000000007e-31,-5.4036799999999998e-30
2095.0,2.06203e-29,-7.9944800000000005e-26,-7.9937000000000002e-26,-7.9942999999999995e-26,-9.6886600000000005e-30,7.5649300000000003e-31,-5.5382099999999999e-30
2096.0,2.0148999999999999e-29,-7.9946799999999999e-26,-7.9937000000000002e-26,-7.9944599999999998e-26,-8.6282000000000007e-30,7.0974399999999997e-31,-5.8586300000000002e-30
2097.0,1.9989799999999999e-29,-7.9947499999999996e-26,-7.9935599999999996e-26,-7.9944900000000003e-26,-7.4015e-30,6.0443600000000004e-31,-6.2139599999999997e-30
2098.0,2.0320199999999999e-29,-7.9949900000000005e-26,-7.9935900000000001e-26,-7.9946899999999997e-26,-6.22764e-30,5.8402800000000003e-31,-6.65869e-30
2099.0,2.0620799999999999e-29,-7.9950000000000003e-26,-7.9934399999999997e-26,-7.9946600000000003e-26,-4.97846e-30,5.0405099999999998e-31,-7.0215499999999996e-30
2100.0,2.19029e-29,-7.9952800000000004e-26,-7.9934899999999998e-26,-7.9949199999999996e-26,-3.7115299999999998e-30,2.9759199999999999e-31,-7.5311100000000003e-30
2101.0,2.27511e-29,-7.9951200000000002e-26,-7.9940300000000004e-26,-7.9948800000000005e-26,-1.04612e-29,7.5357800000000003e-31,-5.4883799999999999e-30
2102.0,2.2574899999999999e-29,-7.9953e-26,-7.9940199999999995e-26,-7.9950299999999997e-26,-9.5914099999999995e-30,6.7495600000000001e-31,-5.67141e-30
2103.0,2.2791400000000001e-29,-7.9954500000000004e-26,-7.9939300000000001e-26,-7.9951499999999996e-26,-8.4932399999999995e-30,5.9639200000000003e-31,-5.9763499999999998e-30
2104.0,2.3406700000000001e-29,-7.9957099999999998e-26,-7.9939499999999997e-26,-7.9953699999999997e-26,-7.4006800000000006e-30,4.9898600000000002e-31,-6.3780599999999997e-30
2105.0,2.41377e-29,-7.99581e-26,-7.9938399999999997e-26,-7.9954199999999999e-26,-6.2515199999999998e-30,4.2786999999999996e-31,-6.7906499999999997e-30
2106.0,2.5125000000000001e-29,-7.9960300000000002e-26,-7.9938700000000002e-26,-7.9956200000000004e-26,-5.0698500000000002e-30,3.3744700000000001e-31,-7.2550299999999999e-30
2107.0,2.5311899999999999e-29,-7.9960499999999998e-26,-7.9937799999999997e-26,-7.9955700000000003e-26,-3.7713100000000003e-30,3.6875800000000001e-31,-7.5037200000000005e-30
2108.0,3.4134300000000001e-29,-7.98996e-26,-7.9929299999999997e-26,-7.9902200000000005e-26,-9.7789699999999997e-30,1.30719e-30,-4.58666e-30
2109.0,3.3162399999999997e-29,-7.9897999999999998e-26,-7.9926399999999998e-26,-7.9899400000000004e-26,-9.2167399999999995e-30,1.2020499999999999e-30,-4.8863100000000001e-30
2110.0,3.1980600000000002e-29,-7.9898800000000005e-26,-7.9926600000000005e-26,-7.9900600000000003e-26,-8.5877700000000006e-30,1.4331900000000001e-30,-4.7465400000000001e-30
2111.0,3.0625799999999999e-29,-7.9897200000000003e-26,-7.99229e-26,-7.9898300000000003e-26,-8.3055299999999993e-30,1.7217099999999999e-30,-5.3293e-30
2112.0,2.8618399999999998e-29,-7.9899799999999996e-26,-7.9923599999999997e-26,-7.9899799999999996e-26,-7.1779499999999995e-30,1.6972500000000001e-30,-5.39255e-30
2113.0,2.6945999999999998e-29,-7.9897499999999996e-26,-7.9918999999999998e-26,-7.98979e-26,-7.0011200000000001e-30,2.1334800000000001e-30,-6.0778199999999999e-30
2114.0,2.5104700000000001e-29,-7.9901800000000001e-26,-7.9920799999999996e-26,-7.9899199999999997e-26,-4.9478800000000002e-30,2.2613500000000001e-30,-6.4536300000000001e-30
2115.0,2.8850199999999997e-29,-7.99087e-26,-7.9929600000000002e-26,-7.9909999999999996e-26,-1.0313e-29,1.2885200000000001e-30,-5.6763199999999999e-30
2116.0,2.7536299999999998e-29,-7.9909000000000005e-26,-7.9929100000000001e-26,-7.9910300000000002e-26,-9.55926e-30,1.3984600000000001e-30,-5.7565800000000003e-30
2117.0,2.6009000000000001e-29,-7.9908000000000002e-26,-7.9926600000000005e-26,-7.99087e-26,-8.7367299999999994e-30,1.37218e-30,-5.9818000000000001e-30
2118.0,2.4305000000000001e-29,-7.9909700000000003e-26,-7.9926499999999996e-26,-7.9910099999999994e-26,-7.9730300000000005e-30,1.51207e-30,-6.3282299999999997e-30
2119.0,2.2615300000000001e-29,-7.99087e-26,-7.9923400000000001e-26,-7.9908500000000004e-26,-6.9718600000000004e-30,1.6371600000000002e-30,-6.7880200000000001e-30
2120.0,2.0762699999999999e-29,-7.9911500000000001e-26,-7.9924099999999999e-26,-7.99104e-26,-5.81472e-30,1.6067599999999999e-30,-7.0610300000000001e-30
2121.0,1.9441299999999999e-29,-7.9909700000000003e-26,-7.9919699999999996e-26,-7.9908899999999996e-26,-4.9955000000000003e-30,1.8331199999999999e-30,-7.8193199999999998e-30
2122.0,2.50901e-29,-7.9918800000000002e-26,-7.9932099999999998e-26,-7.9919599999999998e-26,-1.06032e-29,1.38191e-30,-6.3168000000000004e-30
2123.0,2.35183e-29,-7.9917600000000004e-26,-7.9930000000000006e-26,-7.9918100000000005e-26,-9.6482500000000004e-30,1.32863e-30,-6.3771699999999999e-30
2124.0,2.1969100000000001e-29,-7.99189e-26,-7.9929500000000004e-26,-7.9918999999999998e-26,-8.7776200000000003e-30,1.36064e-30,-6.7290900000000003e-30
2125.0,2.0245599999999999e-29,-7.9918499999999997e-26,-7.9927200000000005e-26,-7.9918200000000003e-26,-7.6650799999999993e-30,1.3487399999999999e-30,-7.0544400000000003e-30
2126.0,1.8932400000000001e-29,-7.9920699999999998e-26,-7.9927300000000003e-26,-7.9920000000000001e-26,-6.7013299999999999e-30,1.39298e-30,-7.5131200000000005e-30
2127.0,1.77699e-29,-7.9920000000000001e-26,-7.9924500000000002e-26,-7.9918599999999995e-26,-5.3957599999999999e-30,1.47684e-30,-8.03489e-30
2128.0,1.6557500000000001e-29,-7.9923200000000005e-26,-7.9925799999999999e-26,-7.9920899999999994e-26,-3.8348699999999997e-30,1.3718200000000001e-30,-8.2917000000000003e-30
2129.0,2.28303e-29,-7.9926999999999997e-26,-7.9933500000000004e-26,-7.9927200000000005e-26,-1.06557e-29,1.3553299999999999e-30,-6.6828600000000007e-30
2130.0,2.1266999999999999e-29,-7.9927400000000001e-26,-7.9932599999999999e-26,-7.9927200000000005e-26,-9.6574600000000005e-30,1.30543e-30,-6.8087800000000003e-30
2131.0,1.97568e-29,-7.9927300000000003e-26,-7.9930800000000001e-26,-7.9926700000000003e-26,-8.5758699999999999e-30,1.22075e-30,-7.0879899999999996e-30
2132.0,1.8821699999999999e-29,-7.9929199999999999e-26,-7.9930600000000005e-26,-7.9928300000000005e-26,-7.5931e-30,1.26262e-30,-7.5784900000000001e-30
2133.0,1.77657e-29,-7.9929199999999999e-26,-7.9928699999999997e-26,-7.9927800000000004e-26,-6.2978900000000002e-30,1.18426e-30,-7.9740199999999999e-30
2134.0,1.7413999999999999e-29,-7.9931599999999996e-26,-7.9929100000000001e-26,-7.9929899999999996e-26,-5.1290800000000002e-30,1.19818e-30,-8.4662699999999993e-30
2135.0,1.7718200000000001e-29,-7.9930899999999999e-26,-7.9926600000000005e-26,-7.9928699999999997e-26,-3.8829899999999999e-30,1.3369e-30,-9.1181100000000001e-30
2136.0,2.1938499999999999e-29,-7.9935800000000003e-26,-7.9935999999999999e-26,-7.9935200000000004e-26,-1.05482e-29,1.29156e-30,-6.8773700000000005e-30
2137.0,2.05833e-29,-7.9935300000000002e-26,-7.9934200000000001e-26,-7.9934399999999997e-26,-9.5085200000000002e-30,1.18282e-30,-7.0047099999999998e-30
2138.0,1.9793100000000001e-29,-7.9936799999999994e-26,-7.9933799999999998e-26,-7.9935499999999998e-26,-8.5132299999999994e-30,1.15066e-30,-7.3895100000000003e-30
2139.0,1.9124499999999999e-29,-7.9937299999999996e-26,-7.9932300000000005e-26,-7.9935700000000005e-26,-7.3242400000000003e-30,1.07364e-30,-7.7867900000000005e-30
2140.0,1.91132e-29,-7.9939499999999997e-26,-7.9932500000000001e-26,-7.9937500000000003e-26,-6.2129800000000003e-30,1.08647e-30,-8.3144100000000001e-30
2141.0,1.9140799999999999e-29,-7.9939700000000005e-26,-7.9930800000000001e-26,-7.99371e-26,-4.88987e-30,1.01018e-30,-8.7434499999999994e-30
2142.0,1.98098e-29,-7.9942500000000006e-26,-7.9931599999999996e-26,-7.9939599999999995e-26,-3.5102500000000002e-30,8.3358499999999995e-31,-9.2805199999999994e-30
2143.0,2.2306700000000001e-29,-7.9942899999999997e-26,-7.9937600000000001e-26,-7.9941600000000001e-26,-1.0359399999999999e-29,1.1844900000000001e-30,-7.0418199999999997e-30
2144.0,2.15047e-29,-7.9943700000000004e-26,-7.9937000000000002e-26,-7.9942000000000004e-26,-9.4398599999999997e-30,1.11635e-30,-7.1934999999999997e-30
2145.0,2.10839e-29,-7.99445e-26,-7.9935800000000003e-26,-7.9942500000000006e-26,-8.3567899999999997e-30,1.0301e-30,-7.5343999999999999e-30
2146.0,2.1180500000000001e-29,-7.9946600000000003e-26,-7.9935900000000001e-26,-7.9944300000000004e-26,-7.2597400000000006e-30,1.00974e-30,-8.0202499999999995e-30
2147.0,2.15146e-29,-7.9947399999999998e-26,-7.9934600000000004e-26,-7.9944599999999998e-26,-6.0560299999999998e-30,9.0648200000000005e-31,-8.4641400000000005e-30
2148.0,2.2262999999999999e-29,-7.9949699999999998e-26,-7.9935099999999994e-26,-7.9946700000000001e-26,-4.8667199999999999e-30,8.7437000000000008e-31,-9.0072500000000006e-30
2149.0,2.2656000000000001e-29,-7.9949799999999996e-26,-7.9933899999999996e-26,-7.9946100000000002e-26,-3.5953100000000003e-30,9.2091800000000006e-31,-9.3686799999999998e-30
2150.0,2.3437299999999999e-29,-7.9949500000000002e-26,-7.9939900000000001e-26,-7.9947499999999996e-26,-1.0210399999999999e-29,1.13349e-30,-7.1870700000000006e-30
2151.0,2.3194800000000001e-29,-7.9950500000000005e-26,-7.9938999999999996e-26,-7.9948300000000003e-26,-9.3264199999999998e-30,1.0694e-30,-7.3650800000000007e-30
2152.0,2.33733e-29,-7.9952800000000004e-26,-7.9939100000000005e-26,-7.9950100000000001e-26,-8.2917600000000001e-30,9.5272300000000002e-31,-7.7390699999999993e-30
2153.0,2.4046999999999999e-29,-7.9954299999999997e-26,-7.9938200000000001e-26,-7.9951200000000002e-26,-7.2036599999999993e-30,9.0098200000000007e-31,-8.2002500000000003e-30
2154.0,2.48351e-29,-7.9956599999999996e-26,-7.9938499999999995e-26,-7.9953099999999998e-26,-6.0733299999999998e-30,8.2926900000000007e-31,-8.7090899999999999e-30
2155.0,2.55639e-29,-7.9957300000000005e-26,-7.9937500000000003e-26,-7.9953199999999996e-26,-4.9040700000000002e-30,7.3571699999999996e-31,-9.1237100000000005e-30
2156.0,2.71223e-29,-7.99598e-26,-7.9937899999999995e-26,-7.9955700000000003e-26,-3.7323900000000003e-30,5.0002800000000003e-31,-9.7689400000000002e-30
2157.0,3.35211e-29,-7.9899299999999995e-26,-7.9927300000000003e-26,-7.9901399999999998e-26,-9.7486300000000002e-30,1.11835e-30,-5.8550800000000003e-30
2158.0,3.26966e-29,-7.98996e-26,-7.9927499999999999e-26,-7.9902200000000005e-26,-9.1741800000000007e-30,1.52948e-30,-5.6405899999999998e-30
2159.0,3.1547099999999998e-29,-7.9898099999999996e-26,-7.9924400000000004e-26,-7.9900100000000001e-26,-8.8127899999999999e-30,1.65658e-30,-6.1055299999999998e-30
2160.0,2.9921999999999998e-29,-7.9900100000000001e-26,-7.9924799999999996e-26,-7.9901399999999998e-26,-7.8658299999999997e-30,1.8706400000000001e-30,-6.2944599999999998e-30
2161.0,2.8593999999999999e-29,-7.9898300000000003e-26,-7.9921000000000004e-26,-7.98996e-26,-7.5262200000000004e-30,2.24333e-30,-6.9022500000000003e-30
2162.0,2.6758400000000002e-29,-7.9901600000000005e-26,-7.9921899999999997e-26,-7.9900799999999999e-26,-6.0772099999999997e-30,2.3726800000000001e-30,-7.3200300000000003e-30
2163.0,2.49311e-29,-7.9899199999999997e-26,-7.9917100000000002e-26,-7.9899299999999995e-26,-5.6947000000000002e-30,2.50416e-30,-7.89765e-30
2164.0,2.9074699999999997e-29,-7.9909399999999997e-26,-7.9930000000000006e-26,-7.9911400000000003e-26,-1.02243e-29,1.5332800000000001e-30,-6.8483499999999998e-30
2165.0,2.7877099999999998e-29,-7.9908299999999996e-26,-7.9927900000000002e-26,-7.9909700000000003e-26,-9.4426400000000007e-30,1.50057e-30,-6.9324500000000003e-30
2166.0,2.6497900000000001e-29,-7.9909399999999997e-26,-7.9927499999999999e-26,-7.9910700000000005e-26,-8.7606999999999995e-30,1.6966600000000001e-30,-7.2531299999999994e-30
2167.0,2.501e-29,-7.99087e-26,-7.9925000000000003e-26,-7.9909299999999999e-26,-7.8145000000000004e-30,1.77947e-30,-7.7113799999999994e-30
2168.0,2.34853e-29,-7.9910999999999999e-26,-7.9925100000000001e-26,-7.9910900000000001e-26,-6.8834300000000004e-30,1.9015300000000001e-30,-8.1505500000000005e-30
2169.0,2.2213000000000001e-29,-7.99098e-26,-7.9921799999999999e-26,-7.9909499999999995e-26,-5.80465e-30,2.0997399999999999e-30,-8.78423e-30
2170.0,2.11873e-29,-7.9913000000000005e-26,-7.9923200000000005e-26,-7.9911099999999997e-26,-4.2058499999999997e-30,2.17873e-30,-9.2337299999999993e-30
2171.0,2.5808000000000002e-29,-7.99178e-26,-7.9931200000000004e-26,-7.9918999999999998e-26,-1.03852e-29,1.5570600000000001e-30,-7.5584899999999995e-30
2172.0,2.4548399999999999e-29,-7.9918200000000003e-26,-7.9930399999999997e-26,-7.9918999999999998e-26,-9.5836899999999995e-30,1.6003799999999999e-30,-7.7587400000000006e-30
2173.0,2.3131500000000001e-29,-7.9917899999999998e-26,-7.9928599999999999e-26,-7.9918300000000001e-26,-8.6014400000000003e-30,1.6165799999999999e-30,-8.0797599999999997e-30
2174.0,2.1957500000000001e-29,-7.9919699999999996e-26,-7.9928300000000005e-26,-7.9919699999999996e-26,-7.7173199999999998e-30,1.6608799999999999e-30,-8.5891700000000004e-30
2175.0,2.0815699999999999e-29,-7.9919599999999998e-26,-7.9926100000000004e-26,-7.99189e-26,-6.4726399999999999e-30,1.75556e-30,-9.1330299999999995e-30
2176.0,1.99679e-29,-7.9921899999999997e-26,-7.9926499999999996e-26,-7.9920699999999998e-26,-5.3233399999999997e-30,1.72452e-30,-9.6011299999999996e-30
2177.0,1.9854300000000001e-29,-7.9920899999999994e-26,-7.9923300000000003e-26,-7.99195e-26,-4.1345800000000003e-30,1.8499799999999999e-30,-1.03493e-29
2178.0,2.3883100000000001e-29,-7.9926999999999997e-26,-7.9933500000000004e-26,-7.9927300000000003e-26,-1.04294e-29,1.5841500000000001e-30,-8.0696700000000005e-30
2179.0,2.25266e-29,-7.99263e-26,-7.9931900000000002e-26,-7.9926399999999998e-26,-9.4564699999999997e-30,1.5445499999999999e-30,-8.1994600000000001e-30
2180.0,2.15759e-29,-7.9927599999999997e-26,-7.99314e-26,-7.9927300000000003e-26,-8.5528299999999994e-30,1.56652e-30,-8.6323400000000002e-30
2181.0,2.05975e-29,-7.9928e-26,-7.9929799999999998e-26,-7.9927200000000005e-26,-7.3857700000000005e-30,1.51823e-30,-9.0999199999999997e-30
2182.0,2.02357e-29,-7.9930100000000004e-26,-7.9929799999999998e-26,-7.9928900000000005e-26,-6.3450899999999993e-30,1.55187e-30,-9.6686900000000005e-30
2183.0,1.9984099999999999e-29,-7.9930000000000006e-26,-7.9927800000000004e-26,-7.9928300000000005e-26,-4.9775199999999997e-30,1.5533700000000001e-30,-1.0225499999999999e-29
2184.0,2.0046e-29,-7.9932799999999995e-26,-7.9928900000000005e-26,-7.99303e-26,-3.4976400000000003e-30,1.45367e-30,-1.07586e-29
2185.0,2.3092200000000001e-29,-7.9934499999999995e-26,-7.9935200000000004e-26,-7.9934200000000001e-26,-1.0277e-29,1.5562099999999999e-30,-8.3323499999999994e-30
2186.0,2.2069e-29,-7.9934999999999996e-26,-7.9934399999999997e-26,-7.9934299999999999e-26,-9.3557199999999993e-30,1.4939599999999999e-30,-8.5107199999999994e-30
2187.0,2.1360600000000001e-29,-7.9935499999999998e-26,-7.99331e-26,-7.9934499999999995e-26,-8.3367200000000001e-30,1.43762e-30,-8.8950800000000003e-30
2188.0,2.1203999999999999e-29,-7.9937400000000005e-26,-7.9933000000000002e-26,-7.9935999999999999e-26,-7.3087200000000006e-30,1.42217e-30,-9.4576700000000003e-30
2189.0,2.1137599999999999e-29,-7.9938100000000003e-26,-7.9931700000000006e-26,-7.9936199999999995e-26,-6.0501499999999999e-30,1.3586500000000001e-30,-9.9800400000000001e-30
2190.0,2.1608500000000001e-29,-7.9940300000000004e-26,-7.9932e-26,-7.9938100000000003e-26,-4.8898400000000001e-30,1.32403e-30,-1.05718e-29
2191.0,2.2247200000000001e-29,-7.9939999999999999e-26,-7.9930200000000002e-26,-7.9937400000000005e-26,-3.62441e-30,1.3896500000000001e-30,-1.11399e-29
2192.0,2.3372800000000001e-29,-7.9942100000000002e-26,-7.9937500000000003e-26,-7.9940900000000003e-26,-1.0108e-29,1.4814700000000001e-30,-8.4876400000000005e-30
2193.0,2.27545e-29,-7.99422e-26,-7.9936300000000005e-26,-7.9940800000000005e-26,-9.2377499999999994e-30,1.40125e-30,-8.7015700000000005e-30
2194.0,2.2603600000000001e-29,-7.9943700000000004e-26,-7.9935999999999999e-26,-7.9942000000000004e-26,-8.2637899999999999e-30,1.37422e-30,-9.1468799999999998e-30
2195.0,2.2760300000000001e-29,-7.9944800000000005e-26,-7.9934999999999996e-26,-7.9942700000000001e-26,-7.1361100000000004e-30,1.2762999999999999e-30,-9.6525200000000001e-30
2196.0,2.3360900000000001e-29,-7.9946999999999995e-26,-7.9935200000000004e-26,-7.99445e-26,-6.0517099999999997e-30,1.2827599999999999e-30,-1.0240599999999999e-29
2197.0,2.3863100000000001e-29,-7.9947599999999994e-26,-7.9934000000000005e-26,-7.9944599999999998e-26,-4.7740600000000001e-30,1.1656100000000001e-30,-1.07055e-29
2198.0,2.5074200000000001e-29,-7.9950199999999999e-26,-7.9934700000000002e-26,-7.9946899999999997e-26,-3.4631200000000002e-30,9.5212300000000008e-31,-1.13969e-29
2199.0,2.4345500000000001e-29,-7.9947700000000004e-26,-7.9939100000000005e-26,-7.9946000000000004e-26,-9.9883800000000003e-30,1.43345e-30,-8.6569599999999997e-30
2200.0,2.4103699999999999e-29,-7.9949099999999998e-26,-7.99388e-26,-7.9946999999999995e-26,-9.1405199999999997e-30,1.3375900000000001e-30,-8.8877700000000007e-30
2201.0,2.45081e-29,-7.9950700000000001e-26,-7.9938200000000001e-26,-7.9948300000000003e-26,-8.1721800000000005e-30,1.31378e-30,-9.3627199999999995e-30
2202.0,2.5117300000000001e-29,-7.9952800000000004e-26,-7.9938299999999999e-26,-7.9950100000000001e-26,-7.1424599999999999e-30,1.2566400000000001e-30,-9.88644e-30
2203.0,2.5901300000000001e-29,-7.9954100000000001e-26,-7.9937400000000005e-26,-7.9950799999999999e-26,-5.9710300000000003e-30,1.13002e-30,-1.04018e-29
2204.0,2.6964600000000002e-29,-7.9956200000000004e-26,-7.9937699999999999e-26,-7.9952699999999995e-26,-4.8354700000000001e-30,1.06432e-30,-1.10146e-29
2205.0,2.7241799999999999e-29,-7.9956499999999998e-26,-7.9936799999999994e-26,-7.9952200000000005e-26,-3.5768199999999997e-30,1.0692099999999999e-30,-1.1268e-29
2206.0,3.3295600000000002e-29,-7.9900600000000003e-26,-7.9928300000000005e-26,-7.9903900000000005e-26,-9.7964800000000001e-30,1.5490900000000001e-30,-6.5401700000000003e-30
2207.0,3.2366800000000001e-29,-7.9899400000000004e-26,-7.9925700000000001e-26,-7.9902099999999995e-26,-9.4402399999999995e-30,1.5444699999999999e-30,-6.9533400000000006e-30
2208.0,3.1013899999999999e-29,-7.9900799999999999e-26,-7.9925799999999999e-26,-7.9903099999999998e-26,-8.5939800000000006e-30,1.8605800000000001e-30,-7.2269099999999996e-30
2209.0,2.9877400000000002e-29,-7.9899400000000004e-26,-7.9922700000000004e-26,-7.9901700000000003e-26,-8.1954200000000002e-30,2.1719699999999999e-30,-7.7843200000000003e-30
2210.0,2.8255300000000003e-29,-7.9901899999999999e-26,-7.9922999999999998e-26,-7.9902699999999995e-26,-6.9483200000000006e-30,2.39711e-30,-8.3498000000000001e-30
2211.0,2.70676e-29,-7.9900199999999999e-26,-7.9919300000000004e-26,-7.9901200000000002e-26,-6.3648600000000001e-30,2.72984e-30,-8.9932599999999995e-30
2212.0,2.6117099999999999e-29,-7.9903599999999999e-26,-7.9920400000000004e-26,-7.9902300000000003e-26,-4.6218199999999997e-30,3.0682099999999999e-30,-9.7045000000000002e-30
2213.0,2.9306500000000002e-29,-7.9909200000000001e-26,-7.9929100000000001e-26,-7.9911199999999995e-26,-1.01273e-29,1.5644400000000001e-30,-7.8656500000000005e-30
2214.0,2.8328100000000001e-29,-7.9909700000000003e-26,-7.9928500000000001e-26,-7.9911699999999997e-26,-9.5664599999999993e-30,1.7543700000000001e-30,-8.1628200000000004e-30
2215.0,2.7185200000000002e-29,-7.9909299999999999e-26,-7.9926600000000005e-26,-7.9910800000000003e-26,-8.72668e-30,1.8799299999999999e-30,-8.6674199999999994e-30
2216.0,2.59194e-29,-7.9910999999999999e-26,-7.99263e-26,-7.99121e-26,-7.8799000000000005e-30,2.0340299999999999e-30,-9.2001299999999995e-30
2217.0,2.4813000000000001e-29,-7.9910499999999998e-26,-7.9923800000000005e-26,-7.9910999999999999e-26,-6.8028500000000006e-30,2.1860900000000001e-30,-9.8704300000000003e-30
2218.0,2.3879700000000001e-29,-7.9913100000000003e-26,-7.9924199999999996e-26,-7.9912400000000005e-26,-5.56789e-30,2.3437300000000001e-30,-1.04553e-29
2219.0,2.31941e-29,-7.9911500000000001e-26,-7.99206e-26,-7.9910999999999999e-26,-4.4558499999999998e-30,2.4583200000000001e-30,-1.11516e-29
2220.0,2.6589700000000002e-29,-7.9918599999999995e-26,-7.9931300000000002e-26,-7.9919900000000003e-26,-1.0331e-29,1.75642e-30,-8.7561299999999997e-30
2221.0,2.5591900000000001e-29,-7.9918200000000003e-26,-7.9930000000000006e-26,-7.9919200000000006e-26,-9.53576e-30,1.78486e-30,-9.0312600000000005e-30
2222.0,2.4637800000000001e-29,-7.9919400000000002e-26,-7.9929399999999995e-26,-7.9920099999999999e-26,-8.7133599999999996e-30,1.8654400000000001e-30,-9.5783000000000003e-30
2223.0,2.3715600000000001e-29,-7.9919599999999998e-26,-7.9927699999999995e-26,-7.9919800000000005e-26,-7.6287100000000006e-30,1.9568900000000001e-30,-1.01975e-29
2224.0,2.29528e-29,-7.9921600000000003e-26,-7.9927599999999997e-26,-7.99212e-26,-6.5583699999999999e-30,1.9259999999999998e-30,-1.07755e-29
2225.0,2.2607300000000001e-29,-7.9921399999999996e-26,-7.9925399999999995e-26,-7.9920500000000002e-26,-5.2370699999999998e-30,2.1081999999999999e-30,-1.14767e-29
2226.0,2.2436199999999999e-29,-7.9923699999999995e-26,-7.99263e-26,-7.9921799999999999e-26,-3.67557e-30,2.1457199999999998e-30,-1.2027300000000001e-29
2227.0,2.49089e-29,-7.9926600000000005e-26,-7.9933000000000002e-26,-7.9927099999999995e-26,-1.02687e-29,1.7844900000000001e-30,-9.2360299999999996e-30
2228.0,2.4178299999999999e-29,-7.9927099999999995e-26,-7.9932400000000003e-26,-7.9927499999999999e-26,-9.4937699999999995e-30,1.8097400000000001e-30,-9.6342199999999994e-30
2229.0,2.3453700000000001e-29,-7.9927599999999997e-26,-7.9931200000000004e-26,-7.9927499999999999e-26,-8.5163900000000002e-30,1.8116600000000002e-30,-1.01593e-29
2230.0,2.3058900000000001e-29,-7.9929299999999997e-26,-7.9930899999999999e-26,-7.9929000000000003e-26,-7.5064899999999994e-30,1.8196400000000001e-30,-1.0794299999999999e-29
2231.0,2.28018e-29,-7.9929899999999996e-26,-7.9929399999999995e-26,-7.9928799999999995e-26,-6.2336100000000003e-30,1.8090000000000001e-30,-1.14401e-29
2232.0,2.2895300000000001e-29,-7.9932099999999998e-26,-7.99297e-26,-7.9930499999999995e-26,-5.0068599999999998e-30,1.7966299999999999e-30,-1.20416e-29
2233.0,2.34856e-29,-7.9931300000000002e-26,-7.9927300000000003e-26,-7.9929600000000002e-26,-3.7299000000000002e-30,1.83803e-30,-1.2743999999999999e-29
2234.0,2.4321500000000001e-29,-7.9934600000000004e-26,-7.9935200000000004e-26,-7.9934299999999999e-26,-1.0123e-29,1.7646100000000001e-30,-9.5585299999999995e-30
2235.0,2.3782299999999999e-29,-7.99348e-26,-7.9934299999999999e-26,-7.9934399999999997e-26,-9.3446899999999998e-30,1.7564e-30,-9.9020399999999993e-30
2236.0,2.3523599999999999e-29,-7.9936199999999995e-26,-7.9933899999999996e-26,-7.99354e-26,-8.3690500000000003e-30,1.7357500000000001e-30,-1.04884e-29
2237.0,2.34753e-29,-7.9937199999999998e-26,-7.9932900000000004e-26,-7.9935999999999999e-26,-7.2704100000000002e-30,1.6883199999999999e-30,-1.10902e-29
2238.0,2.3789999999999999e-29,-7.9939200000000003e-26,-7.9932900000000004e-26,-7.9937600000000001e-26,-6.1380899999999998e-30,1.6283299999999999e-30,-1.1728e-29
2239.0,2.4252699999999999e-29,-7.9939700000000005e-26,-7.9931499999999998e-26,-7.9937500000000003e-26,-4.8050900000000002e-30,1.6263e-30,-1.23458e-29
2240.0,2.4850600000000001e-29,-7.9941899999999995e-26,-7.9932300000000005e-26,-7.9939100000000005e-26,-3.3537300000000001e-30,1.4997e-30,-1.2963800000000001e-29
2241.0,2.46482e-29,-7.9941299999999995e-26,-7.99371e-26,-7.9940400000000002e-26,-9.99667e-30,1.7326099999999999e-30,-9.7252200000000006e-30
2242.0,2.4301000000000001e-29,-7.9942100000000002e-26,-7.9936599999999998e-26,-7.9941000000000001e-26,-9.1679099999999995e-30,1.68259e-30,-1.007e-29
2243.0,2.4419899999999999e-29,-7.9943300000000001e-26,-7.9935900000000001e-26,-7.9941799999999997e-26,-8.24967e-30,1.61128e-30,-1.06139e-29
2244.0,2.4845800000000001e-29,-7.9945199999999997e-26,-7.9935800000000003e-26,-7.9943399999999999e-26,-7.19763e-30,1.60791e-30,-1.1242299999999999e-29
2245.0,2.5364199999999997e-29,-7.9946399999999996e-26,-7.9934899999999998e-26,-7.9943999999999998e-26,-5.98636e-30,1.45531e-30,-1.18235e-29
2246.0,2.6222899999999998e-29,-7.9948400000000001e-26,-7.9935200000000004e-26,-7.9945699999999998e-26,-4.83029e-30,1.4262300000000001e-30,-1.2463499999999999e-29
2247.0,2.6923199999999998e-29,-7.9948400000000001e-26,-7.9933799999999998e-26,-7.9945199999999997e-26,-3.5833399999999998e-30,1.4359899999999999e-30,-1.29563e-29
2248.0,2.5028400000000001e-29,-7.9946500000000005e-26,-7.9938700000000002e-26,-7.9945000000000001e-26,-9.7332399999999993e-30,1.6115599999999999e-30,-9.7173500000000005e-30
2249.0,2.5435300000000002e-29,-7.99479e-26,-7.9938399999999997e-26,-7.99462e-26,-9.1503100000000002e-30,1.6332799999999999e-30,-1.01794e-29
2250.0,2.5705599999999998e-29,-7.99496e-26,-7.9938100000000003e-26,-7.9947499999999996e-26,-8.1801300000000003e-30,1.5656499999999999e-30,-1.06585e-29
2251.0,2.6379900000000001e-29,-7.9951200000000002e-26,-7.9937600000000001e-26,-7.9948800000000005e-26,-7.1223700000000004e-30,1.45092e-30,-1.12365e-29
2252.0,2.7204000000000002e-29,-7.9953199999999996e-26,-7.9937600000000001e-26,-7.9950299999999997e-26,-6.0019799999999999e-30,1.4052100000000001e-30,-1.1847400000000001e-29
2253.0,2.7922099999999998e-29,-7.9954199999999999e-26,-7.9936799999999994e-26,-7.9950600000000003e-26,-4.75194e-30,1.26522e-30,-1.2321900000000001e-29
2254.0,2.9384699999999998e-29,-7.9956300000000002e-26,-7.9937299999999996e-26,-7.9952699999999995e-26,-3.4906200000000002e-30,1.0067899999999999e-30,-1.31198e-29
2255.0,2.5605899999999999e-29,-7.9960800000000003e-26,-7.9947499999999996e-26,-7.9958400000000006e-26,-1.2959599999999999e-29,-8.6969200000000006e-31,4.4016599999999997e-31
2256.0,2.6136100000000001e-29,-7.9953500000000001e-26,-7.9944099999999996e-26,-7.9951200000000002e-26,-1.42326e-29,-4.9824899999999996e-31,7.4184400000000002e-31
2257.0,2.5298600000000002e-29,-7.99456e-26,-7.99439e-26,-7.9945000000000001e-26,-1.45697e-29,5.49743e-32,5.5322e-31
2258.0,2.6977999999999999e-29,-7.9935300000000002e-26,-7.9939300000000001e-26,-7.9935200000000004e-26,-1.53791e-29,4.8707100000000003e-31,5.9694899999999997e-31
2259.0,2.8372500000000001e-29,-7.99263e-26,-7.9938000000000005e-26,-7.9927200000000005e-26,-1.49828e-29,1.2674899999999999e-30,2.7209499999999998e-31
2260.0,3.0969800000000003e-29,-7.9914399999999999e-26,-7.9933299999999996e-26,-7.99155e-26,-1.4306599999999999e-29,1.60531e-30,1.03151e-32
2261.0,3.5402e-29,-7.9904000000000003e-26,-7.9932e-26,-7.9905499999999996e-26,-1.2762e-29,2.46238e-30,-3.6812500000000001e-31
2262.0,2.52197e-29,-7.9957699999999997e-26,-7.9943399999999999e-26,-7.9954600000000002e-26,-1.24288e-29,-6.7845000000000001e-31,3.3129699999999999e-31
2263.0,2.37519e-29,-7.9951200000000002e-26,-7.9943399999999999e-26,-7.9949699999999998e-26,-1.3059200000000001e-29,-4.2548399999999999e-31,3.2223100000000002e-31
2264.0,2.3606700000000001e-29,-7.9942399999999996e-26,-7.9938999999999996e-26,-7.9941000000000001e-26,-1.3518899999999999e-29,-2.9800700000000001e-32,3.29099e-31
2265.0,2.4076299999999999e-29,-7.9933899999999996e-26,-7.9938600000000004e-26,-7.9934000000000005e-26,-1.3625099999999999e-29,5.1892800000000002e-31,1.1528599999999999e-31
2266.0,2.5805700000000002e-29,-7.9922999999999998e-26,-7.99337e-26,-7.9923099999999996e-26,-1.3539600000000001e-29,8.5844600000000004e-31,-6.4342499999999997e-32
2267.0,2.95365e-29,-7.9913200000000001e-26,-7.9933199999999998e-26,-7.9914399999999999e-26,-1.2740499999999999e-29,1.48003e-30,-4.3667e-31
2268.0,3.41439e-29,-7.9900999999999995e-26,-7.9929000000000003e-26,-7.9901700000000003e-26,-1.1362e-29,1.62999e-30,-8.6206399999999993e-31
2269.0,2.5733499999999998e-29,-7.99604e-26,-7.9945900000000006e-26,-7.9956900000000002e-26,-1.26782e-29,-1.4889300000000001e-31,-1.7149099999999999e-30
2270.0,2.4398599999999999e-29,-7.9953199999999996e-26,-7.9945400000000004e-26,-7.9951200000000002e-26,-1.33916e-29,1.15555e-31,-1.6761900000000001e-30
2271.0,2.50175e-29,-7.9944300000000004e-26,-7.9942299999999998e-26,-7.9943200000000003e-26,-1.43024e-29,5.0543299999999997e-31,-1.6551899999999998e-30
2272.0,2.5824400000000001e-29,-7.9935599999999996e-26,-7.9940699999999996e-26,-7.9935700000000005e-26,-1.4495499999999999e-29,9.0201099999999995e-31,-1.7159500000000001e-30
2273.0,2.80083e-29,-7.9924699999999998e-26,-7.9936699999999996e-26,-7.9925500000000005e-26,-1.45668e-29,1.24159e-30,-1.7574600000000002e-30
2274.0,3.0861400000000001e-29,-7.9914999999999999e-26,-7.9934999999999996e-26,-7.9916500000000003e-26,-1.3702099999999999e-29,1.66246e-30,-1.7883299999999998e-30
2275.0,3.52812e-29,-7.9902499999999999e-26,-7.9931200000000004e-26,-7.9904100000000001e-26,-1.21874e-29,1.71622e-30,-1.91924e-30
2276.0,2.39098e-29,-7.99564e-26,-7.9943999999999998e-26,-7.9953799999999995e-26,-1.2033300000000001e-29,-1.4834e-31,-1.7212999999999998e-30
2277.0,2.3088500000000001e-29,-7.9949400000000004e-26,-7.9941299999999995e-26,-7.99473e-26,-1.25274e-29,1.1689800000000001e-31,-1.6945400000000002e-30
2278.0,2.25631e-29,-7.9941899999999995e-26,-7.9940199999999995e-26,-7.9941000000000001e-26,-1.2880699999999999e-29,4.0301100000000002e-31,-1.70826e-30
2279.0,2.34628e-29,-7.9932e-26,-7.9936599999999998e-26,-7.9931700000000006e-26,-1.3124500000000001e-29,7.5330899999999996e-31,-1.79677e-30
2280.0,2.5639200000000001e-29,-7.9923099999999996e-26,-7.9935499999999998e-26,-7.9923699999999995e-26,-1.28874e-29,1.0648899999999999e-30,-1.8443599999999999e-30
2281.0,2.9130599999999998e-29,-7.9911599999999999e-26,-7.9931599999999996e-26,-7.9912400000000005e-26,-1.22498e-29,1.2681199999999999e-30,-1.90112e-30
2282.0,3.49752e-29,-7.9901499999999996e-26,-7.9931099999999995e-26,-7.9902900000000002e-26,-1.10572e-29,1.6580999999999999e-30,-1.7543700000000001e-30
2283.0,2.5278199999999998e-29,-7.9959100000000003e-26,-7.9946000000000004e-26,-7.9955899999999999e-26,-1.2255800000000001e-29,5.0721799999999996e-31,-3.97927e-30
2284.0,2.46779e-29,-7.9951800000000001e-26,-7.9944200000000006e-26,-7.99496e-26,-1.3075500000000001e-29,7.8102400000000001e-31,-3.9988800000000001e-30
2285.0,2.4707300000000001e-29,-7.99439e-26,-7.9942600000000004e-26,-7.9942899999999997e-26,-1.36526e-29,9.8968500000000007e-31,-3.9611100000000002e-30
2286.0,2.59508e-29,-7.9934100000000003e-26,-7.9939499999999997e-26,-7.9934200000000001e-26,-1.4074300000000001e-29,1.26312e-30,-3.92189e-30
2287.0,2.7847300000000002e-29,-7.9924900000000005e-26,-7.9937500000000003e-26,-7.9925899999999997e-26,-1.3906299999999999e-29,1.39458e-30,-3.7509499999999998e-30
2288.0,3.0910199999999999e-29,-7.9913600000000004e-26,-7.9934000000000005e-26,-7.9915199999999995e-26,-1.3247600000000001e-29,1.4842400000000001e-30,-3.5078900000000003e-30
2289.0,3.5528399999999999e-29,-7.9903199999999996e-26,-7.9932400000000003e-26,-7.9905100000000004e-26,-1.1981e-29,1.5711e-30,-2.9740099999999998e-30
2290.0,2.3725899999999999e-29,-7.9954600000000002e-26,-7.9942799999999999e-26,-7.9951899999999999e-26,-1.16264e-29,4.2469300000000002e-31,-3.7251700000000003e-30
2291.0,2.27303e-29,-7.9948499999999999e-26,-7.9941500000000003e-26,-7.9946600000000003e-26,-1.20545e-29,5.94194e-31,-3.67827e-30
2292.0,2.25482e-29,-7.9939900000000001e-26,-7.99388e-26,-7.9938999999999996e-26,-1.24392e-29,8.5073700000000004e-31,-3.6929800000000002e-30
2293.0,2.3448e-29,-7.9931700000000006e-26,-7.9937299999999996e-26,-7.9931599999999996e-26,-1.25899e-29,1.0093899999999999e-30,-3.6366699999999999e-30
2294.0,2.5741300000000002e-29,-7.9921399999999996e-26,-7.9934000000000005e-26,-7.9921999999999995e-26,-1.24748e-29,1.2013799999999999e-30,-3.5596000000000001e-30
2295.0,2.9472900000000002e-29,-7.9911900000000004e-26,-7.9932799999999995e-26,-7.9913200000000001e-26,-1.1826899999999999e-29,1.31266e-30,-3.2889300000000003e-30
2296.0,3.4848300000000002e-29,-7.9900399999999995e-26,-7.9930000000000006e-26,-7.9901600000000005e-26,-1.06709e-29,1.2716399999999999e-30,-3.04579e-30
2297.0,2.5954900000000001e-29,-7.9957500000000001e-26,-7.9945199999999997e-26,-7.9954500000000004e-26,-1.19362e-29,1.13299e-30,-6.2841100000000003e-30
2298.0,2.5263899999999997e-29,-7.9950600000000003e-26,-7.9943800000000002e-26,-7.9948699999999995e-26,-1.2683500000000001e-29,1.3270999999999999e-30,-6.1628600000000001e-30
2299.0,2.5512200000000002e-29,-7.99422e-26,-7.9941400000000005e-26,-7.9941400000000005e-26,-1.32788e-29,1.47506e-30,-6.1834900000000001e-30
2300.0,2.63434e-29,-7.9933600000000002e-26,-7.9939499999999997e-26,-7.9934000000000005e-26,-1.35176e-29,1.53514e-30,-5.9543699999999998e-30
2301.0,2.8285900000000001e-29,-7.9923499999999999e-26,-7.9936300000000005e-26,-7.9924699999999998e-26,-1.34825e-29,1.5818800000000001e-30,-5.6798399999999999e-30
2302.0,3.1082699999999998e-29,-7.9913899999999998e-26,-7.9934499999999995e-26,-7.9915800000000006e-26,-1.28101e-29,1.4431300000000001e-30,-5.0931800000000002e-30
2303.0,3.5367599999999998e-29,-7.9902099999999995e-26,-7.9931099999999995e-26,-7.9904199999999999e-26,-1.1595999999999999e-29,1.21638e-30,-4.4232599999999999e-30
2304.0,2.3902700000000001e-29,-7.9952900000000002e-26,-7.9942299999999998e-26,-7.9950500000000005e-26,-1.1258800000000001e-29,9.2766700000000005e-31,-5.6380899999999998e-30
2305.0,2.31881e-29,-7.9946399999999996e-26,-7.9940300000000004e-26,-7.9944699999999996e-26,-1.1685299999999999e-29,1.05724e-30,-5.6369199999999997e-30
2306.0,2.2987499999999999e-29,-7.9938999999999996e-26,-7.99388e-26,-7.9938299999999999e-26,-1.2005399999999999e-29,1.1731899999999999e-30,-5.5226099999999999e-30
2307.0,2.40115e-29,-7.9929899999999996e-26,-7.9935999999999999e-26,-7.9930000000000006e-26,-1.21959e-29,1.30736e-30,-5.4274200000000002e-30
2308.0,2.6108200000000002e-29,-7.99212e-26,-7.9934499999999995e-26,-7.9922100000000004e-26,-1.20137e-29,1.32705e-30,-5.1156400000000003e-30
2309.0,2.9679700000000002e-29,-7.9910599999999996e-26,-7.9931499999999998e-26,-7.9911900000000004e-26,-1.1520499999999999e-29,1.3123400000000001e-30,-4.6818399999999999e-30
2310.0,3.4937399999999998e-29,-7.9900999999999995e-26,-7.9930999999999997e-26,-7.9903300000000006e-26,-1.06156e-29,1.2762599999999999e-30,-3.8002200000000001e-30
2311.0,2.70049e-29,-7.9955600000000005e-26,-7.9944300000000004e-26,-7.9953e-26,-1.16972e-29,1.7046200000000001e-30,-8.2757500000000004e-30
2312.0,2.6532899999999998e-29,-7.9948699999999995e-26,-7.9942600000000004e-26,-7.9947200000000002e-26,-1.23631e-29,1.77553e-30,-8.2879899999999997e-30
2313.0,2.6496900000000003e-29,-7.9941099999999999e-26,-7.9940900000000003e-26,-7.9940800000000005e-26,-1.2858499999999999e-29,1.81781e-30,-8.0836499999999996e-30
2314.0,2.7337900000000002e-29,-7.9932199999999996e-26,-7.9938299999999999e-26,-7.9932900000000004e-26,-1.3130599999999999e-29,1.8194499999999999e-30,-7.8944200000000001e-30
2315.0,2.8776199999999998e-29,-7.9923200000000005e-26,-7.9936199999999995e-26,-7.9924799999999996e-26,-1.3009700000000001e-29,1.6630900000000001e-30,-7.35518e-30
2316.0,3.1294799999999999e-29,-7.9912799999999997e-26,-7.99331e-26,-7.9914900000000001e-26,-1.2496699999999999e-29,1.4773499999999999e-30,-6.6084200000000004e-30
2317.0,3.5206999999999999e-29,-7.9902900000000002e-26,-7.9931599999999996e-26,-7.9905700000000003e-26,-1.1532300000000001e-29,1.1026900000000001e-30,-5.3526599999999998e-30
2318.0,2.4682800000000001e-29,-7.9950899999999997e-26,-7.9941299999999995e-26,-7.9948800000000005e-26,-1.09374e-29,1.3401899999999999e-30,-7.5084600000000003e-30
2319.0,2.3966000000000001e-29,-7.9945099999999999e-26,-7.9939900000000001e-26,-7.9943700000000004e-26,-1.13359e-29,1.4150300000000001e-30,-7.3415599999999994e-30
2320.0,2.3946900000000001e-29,-7.9937299999999996e-26,-7.9937600000000001e-26,-7.9936799999999994e-26,-1.1654100000000001e-29,1.49264e-30,-7.2763000000000001e-30
2321.0,2.4666600000000001e-29,-7.9929399999999995e-26,-7.9935900000000001e-26,-7.99297e-26,-1.17567e-29,1.4945499999999999e-30,-6.98404e-30
2322.0,2.6723700000000003e-29,-7.9919900000000003e-26,-7.9933299999999996e-26,-7.9921000000000004e-26,-1.16878e-29,1.50741e-30,-6.6130300000000001e-30
2323.0,2.9900899999999997e-29,-7.9910900000000001e-26,-7.9932e-26,-7.9912899999999995e-26,-1.12338e-29,1.39541e-30,-5.9120599999999999e-30
2324.0,3.4527000000000002e-29,-7.9900299999999997e-26,-7.9929299999999997e-26,-7.9902200000000005e-26,-1.03761e-29,1.07692e-30,-5.09708e-30
2325.0,2.8295200000000003e-29,-7.9953500000000001e-26,-7.9943300000000001e-26,-7.9951499999999996e-26,-1.14577e-29,2.0299700000000001e-30,-1.01189e-29
2326.0,2.7775099999999998e-29,-7.99473e-26,-7.9941799999999997e-26,-7.9946299999999998e-26,-1.2059099999999999e-29,2.0973699999999999e-30,-9.9424999999999999e-30
2327.0,2.77844e-29,-7.9939800000000003e-26,-7.9939700000000005e-26,-7.9939800000000003e-26,-1.24671e-29,2.0764500000000001e-30,-9.8784399999999998e-30
2328.0,2.8145700000000001e-29,-7.9931700000000006e-26,-7.9937699999999999e-26,-7.9932699999999997e-26,-1.26717e-29,1.9704399999999999e-30,-9.44567e-30
2329.0,2.9389999999999999e-29,-7.9922399999999998e-26,-7.9934899999999998e-26,-7.9924099999999999e-26,-1.2634200000000001e-29,1.8010200000000001e-30,-8.8879600000000006e-30
2330.0,3.1330900000000001e-29,-7.9913000000000005e-26,-7.9932900000000004e-26,-7.9915699999999996e-26,-1.2122900000000001e-29,1.4776899999999999e-30,-7.8647899999999999e-30
2331.0,3.47114e-29,-7.9902200000000005e-26,-7.99297e-26,-7.9904899999999996e-26,-1.11753e-29,1.1531500000000001e-30,-6.6772099999999997e-30
2332.0,2.5587099999999999e-29,-7.9949199999999996e-26,-7.9940599999999998e-26,-7.9947499999999996e-26,-1.0707800000000001e-29,1.6724200000000001e-30,-8.9483100000000001e-30
2333.0,2.51061e-29,-7.9943499999999997e-26,-7.9938999999999996e-26,-7.9942500000000006e-26,-1.10369e-29,1.7063900000000001e-30,-8.9372899999999999e-30
2334.0,2.4898200000000001e-29,-7.9936599999999998e-26,-7.9937299999999996e-26,-7.9936400000000003e-26,-1.12943e-29,1.7157599999999998e-30,-8.7125499999999995e-30
2335.0,2.5658600000000001e-29,-7.9928300000000005e-26,-7.9934999999999996e-26,-7.9928900000000005e-26,-1.1441299999999999e-29,1.7356299999999999e-30,-8.4890099999999997e-30
2336.0,2.7215400000000002e-29,-7.9920000000000001e-26,-7.9933199999999998e-26,-7.9921399999999996e-26,-1.13388e-29,1.6084399999999999e-30,-7.9457000000000004e-30
2337.0,3.0070899999999999e-29,-7.9910300000000002e-26,-7.9930700000000003e-26,-7.9912299999999996e-26,-1.10312e-29,1.45637e-30,-7.1508799999999997e-30
2338.0,3.4275600000000001e-29,-7.9900999999999995e-26,-7.9929799999999998e-26,-7.9904399999999995e-26,-1.04654e-29,1.32733e-30,-5.8103100000000002e-30
2339.0,2.9303199999999997e-29,-7.9951999999999997e-26,-7.9942500000000006e-26,-7.9950399999999995e-26,-1.1262799999999999e-29,2.29829e-30,-1.13308e-29
2340.0,2.8986999999999998e-29,-7.9946299999999998e-26,-7.9940900000000003e-26,-7.9945699999999998e-26,-1.16329e-29,2.2626800000000001e-30,-1.14475e-29
2341.0,2.8725499999999998e-29,-7.9939300000000001e-26,-7.9938899999999998e-26,-7.9939499999999997e-26,-1.20121e-29,2.2262499999999999e-30,-1.1211799999999999e-29
2342.0,2.8937900000000002e-29,-7.9931099999999995e-26,-7.9936500000000001e-26,-7.9932300000000005e-26,-1.21653e-29,2.0926400000000001e-30,-1.0902e-29
2343.0,2.9617799999999998e-29,-7.9922399999999998e-26,-7.9934200000000001e-26,-7.9924400000000004e-26,-1.21012e-29,1.87387e-30,-1.013e-29
2344.0,3.1289900000000001e-29,-7.9912799999999997e-26,-7.9931499999999998e-26,-7.9915400000000002e-26,-1.17347e-29,1.6008500000000001e-30,-9.1139799999999998e-30
2345.0,3.44037e-29,-7.9902499999999999e-26,-7.9929600000000002e-26,-7.9906700000000006e-26,-1.1168e-29,1.2044500000000001e-30,-7.4720199999999998e-30
2346.0,2.6391599999999998e-29,-7.9947800000000002e-26,-7.9939999999999999e-26,-7.9946600000000003e-26,-1.0406100000000001e-29,1.80339e-30,-1.01401e-29
2347.0,2.5931899999999999e-29,-7.9942799999999999e-26,-7.9938600000000004e-26,-7.9942000000000004e-26,-1.07335e-29,1.89576e-30,-1.00196e-29
2348.0,2.5968799999999998e-29,-7.9935999999999999e-26,-7.9936599999999998e-26,-7.9935999999999999e-26,-1.10001e-29,1.93602e-30,-9.9949100000000004e-30
2349.0,2.6409700000000002e-29,-7.9928300000000005e-26,-7.9934700000000002e-26,-7.9929100000000001e-26,-1.11509e-29,1.86975e-30,-9.6289299999999998e-30
2350.0,2.7801199999999997e-29,-7.9919699999999996e-26,-7.9932400000000003e-26,-7.9921299999999998e-26,-1.11415e-29,1.7775899999999998e-30,-9.0841399999999997e-30
2351.0,3.01462e-29,-7.9910800000000003e-26,-7.9930600000000005e-26,-7.9913399999999997e-26,-1.0866200000000001e-29,1.5924500000000001e-30,-8.1696099999999994e-30
2352.0,3.3641799999999999e-29,-7.9901200000000002e-26,-7.9928099999999998e-26,-7.9903699999999997e-26,-1.0199400000000001e-29,1.0847299999999999e-30,-7.0912300000000001e-30
2353.0,3.0280300000000002e-29,-7.9973400000000001e-26,-7.9942000000000004e-26,-7.9967999999999995e-26,-4.71334e-30,-1.18699e-30,-9.4244800000000002e-31
2354.0,3.6474000000000002e-29,-7.9984999999999996e-26,-7.9946899999999997e-26,-7.9977800000000004e-26,-5.5162399999999999e-30,-1.4932e-30,-1.4066400000000001e-30
2355.0,3.0854700000000003e-29,-7.9974799999999996e-26,-7.9943499999999997e-26,-7.9969099999999996e-26,-6.0477500000000001e-30,-1.16801e-30,-9.8625799999999994e-31
2356.0,3.5949899999999998e-29,-7.9983500000000004e-26,-7.9946600000000003e-26,-7.9976600000000005e-26,-6.5081900000000007e-30,-1.55234e-30,-7.7870800000000001e-31
2357.0,2.9425299999999999e-29,-7.9971999999999995e-26,-7.9943399999999999e-26,-7.9967100000000002e-26,-7.2332400000000005e-30,-1.2594900000000001e-30,-5.1954199999999996e-31
2358.0,3.5287899999999999e-29,-7.99837e-26,-7.9948200000000005e-26,-7.9976899999999999e-26,-7.5053399999999993e-30,-1.5044099999999999e-30,-7.1549100000000004e-31
2359.0,2.9393100000000002e-29,-7.9972399999999998e-26,-7.9944699999999996e-26,-7.99672e-26,-8.36326e-30,-1.14344e-30,-4.32069e-31
2360.0,3.3411999999999998e-29,-7.9979899999999996e-26,-7.9947599999999994e-26,-7.9973699999999995e-26,-8.7424099999999995e-30,-1.5558900000000001e-30,-1.9176500000000001e-31
2361.0,2.71257e-29,-7.9967799999999999e-26,-7.99445e-26,-7.9963700000000002e-26,-9.48174e-30,-1.16433e-30,-8.1647899999999997e-32
2362.0,3.17952e-29,-7.9978300000000005e-26,-7.9948699999999995e-26,-7.99723e-26,-9.5097300000000001e-30,-1.34167e-30,-5.2769800000000005e-32
2363.0,2.7277400000000001e-29,-7.9966699999999999e-26,-7.9945199999999997e-26,-7.9962400000000005e-26,-1.0805100000000001e-29,-9.86169e-31,1.3193e-31
2364.0,2.9101099999999999e-29,-7.9971999999999995e-26,-7.9948200000000005e-26,-7.9967500000000005e-26,-1.09956e-29,-1.40742e-30,3.0697600000000001e-31
2365.0,2.51727e-29,-7.9961699999999996e-26,-7.9945199999999997e-26,-7.9958799999999998e-26,-1.14949e-29,-8.7299799999999995e-31,2.7738999999999998e-31
2366.0,2.8336100000000002e-29,-7.9968499999999997e-26,-7.99473e-26,-7.9963899999999998e-26,-1.19063e-29,-9.8567700000000006e-31,4.5703000000000002e-31
2367.0,3.06687e-29,-7.9974e-26,-7.9942600000000004e-26,-7.9968200000000003e-26,-4.6429399999999997e-30,-7.9105599999999997e-31,-3.5655299999999999e-30
2368.0,3.5924000000000001e-29,-7.9983199999999998e-26,-7.9945799999999996e-26,-7.9975799999999998e-26,-5.0418100000000003e-30,-8.9321600000000006e-31,-3.61618e-30
2369.0,2.9616199999999999e-29,-7.9972100000000004e-26,-7.9942399999999996e-26,-7.9966600000000001e-26,-5.7252700000000001e-30,-6.9677299999999998e-31,-3.1022699999999999e-30
2370.0,3.5650100000000003e-29,-7.9983799999999998e-26,-7.9947399999999998e-26,-7.9976600000000005e-26,-6.1941900000000003e-30,-9.7207699999999992e-31,-3.4856699999999999e-30
2371.0,2.9275600000000001e-29,-7.99723e-26,-7.9943800000000002e-26,-7.9966899999999995e-26,-6.9257199999999997e-30,-6.8265400000000003e-31,-2.8605900000000002e-30
2372.0,3.4355199999999999e-29,-7.99814e-26,-7.9947100000000004e-26,-7.99746e-26,-7.2517600000000003e-30,-9.3017799999999993e-31,-3.0009299999999999e-30
2373.0,2.7835399999999997e-29,-7.9969099999999996e-26,-7.9943499999999997e-26,-7.9964399999999999e-26,-8.0892199999999994e-30,-5.95017e-31,-2.5233600000000001e-30
2374.0,3.2792000000000003e-29,-7.9980100000000003e-26,-7.9948300000000003e-26,-7.9973599999999997e-26,-8.1954000000000003e-30,-8.3059000000000002e-31,-2.6649600000000001e-30
2375.0,2.6934900000000001e-29,-7.9967899999999997e-26,-7.9944599999999998e-26,-7.9963299999999998e-26,-9.1902300000000002e-30,-5.4224899999999997e-31,-2.2296999999999998e-30
2376.0,3.0601100000000002e-29,-7.9975799999999998e-26,-7.9947800000000002e-26,-7.9970000000000001e-26,-9.4260500000000006e-30,-7.22855e-31,-2.3265099999999998e-30
2377.0,2.5413000000000001e-29,-7.9963600000000004e-26,-7.9944200000000006e-26,-7.9959899999999998e-26,-1.0263099999999999e-29,-4.2931499999999997e-31,-1.9667100000000001e-30
2378.0,2.8699600000000001e-29,-7.9972600000000006e-26,-7.9948300000000003e-26,-7.9967299999999998e-26,-1.03626e-29,-5.88421e-31,-2.00802e-30
2379.0,2.50878e-29,-7.9961300000000004e-26,-7.99445e-26,-7.9957799999999995e-26,-1.1301e-29,-2.7801100000000001e-31,-1.7587400000000001e-30
2380.0,2.65758e-29,-7.9966400000000005e-26,-7.9947599999999994e-26,-7.9962400000000005e-26,-1.15821e-29,-4.3603200000000002e-31,-1.80683e-30
2381.0,3.0001199999999997e-29,-7.9971600000000003e-26,-7.9941799999999997e-26,-7.9965699999999996e-26,-4.25293e-30,-2.1674200000000002e-31,-5.6781899999999998e-30
2382.0,3.5915099999999997e-29,-7.9982500000000001e-26,-7.9946299999999998e-26,-7.9975299999999997e-26,-4.87493e-30,-5.6897600000000001e-31,-6.3003099999999999e-30
2383.0,2.97638e-29,-7.9971700000000001e-26,-7.9942799999999999e-26,-7.9966199999999997e-26,-5.4967000000000002e-30,-2.4031800000000001e-31,-5.4580699999999997e-30
2384.0,3.5061099999999999e-29,-7.9981099999999995e-26,-7.9946100000000002e-26,-7.9974e-26,-5.8456900000000003e-30,-3.7033200000000002e-31,-5.8362299999999998e-30
2385.0,2.8612799999999999e-29,-7.9969499999999999e-26,-7.9942600000000004e-26,-7.9964300000000001e-26,-6.6580699999999998e-30,-1.17676e-31,-5.0605799999999997e-30
2386.0,3.3900299999999997e-29,-7.9980499999999995e-26,-7.9947399999999998e-26,-7.9973800000000004e-26,-6.8744500000000001e-30,-2.64662e-31,-5.4733600000000003e-30
2387.0,2.7562400000000002e-29,-7.9968399999999999e-26,-7.9943700000000004e-26,-7.9963600000000004e-26,-7.7912899999999999e-30,-7.0709900000000003e-32,-4.66637e-30
2388.0,3.2142499999999998e-29,-7.9977499999999999e-26,-7.99473e-26,-7.99712e-26,-7.9883400000000003e-30,-1.0352e-31,-5.0887599999999997e-30
2389.0,2.6290500000000001e-29,-7.9965099999999997e-26,-7.9943399999999999e-26,-7.9960800000000003e-26,-8.9099e-30,7.7912300000000003e-32,-4.3484799999999997e-30
2390.0,3.02214e-29,-7.9974799999999996e-26,-7.99479e-26,-7.9969099999999996e-26,-9.0378900000000002e-30,1.1690899999999999e-32,-4.6626899999999999e-30
2391.0,2.5167400000000001e-29,-7.9962600000000001e-26,-7.9944099999999996e-26,-7.9958799999999998e-26,-9.9408500000000005e-30,1.5144899999999999e-31,-4.0201600000000002e-30
2392.0,2.8209299999999999e-29,-7.9970199999999997e-26,-7.9947499999999996e-26,-7.9965199999999995e-26,-1.01773e-29,2.0113100000000001e-31,-4.3844700000000001e-30
2393.0,2.43696e-29,-7.9959000000000005e-26,-7.9943700000000004e-26,-7.9955800000000001e-26,-1.0877e-29,2.71589e-31,-3.8244399999999999e-30
2394.0,2.66174e-29,-7.99655e-26,-7.9947100000000004e-26,-7.9961300000000004e-26,-1.1222900000000001e-29,2.82379e-31,-4.1314000000000002e-30
2395.0,3.0840900000000001e-29,-7.9970699999999998e-26,-7.9941899999999995e-26,-7.9965300000000004e-26,-4.1831899999999998e-30,3.4686200000000002e-32,-8.0719299999999995e-30
2396.0,3.5272499999999999e-29,-7.9978900000000005e-26,-7.9944900000000003e-26,-7.9971999999999995e-26,-4.3920000000000001e-30,7.8942799999999998e-32,-8.5339499999999998e-30
2397.0,2.9467800000000002e-29,-7.9968499999999997e-26,-7.9941600000000001e-26,-7.9963200000000001e-26,-5.2618100000000002e-30,2.6514999999999999e-31,-7.5959100000000002e-30
2398.0,3.4770800000000002e-29,-7.9979199999999999e-26,-7.9946299999999998e-26,-7.9972600000000006e-26,-5.5782800000000001e-30,1.7280000000000001e-31,-8.2056199999999996e-30
2399.0,2.8634100000000002e-29,-7.9967999999999995e-26,-7.9942700000000001e-26,-7.9963100000000003e-26,-6.3997699999999994e-30,3.4985500000000002e-31,-7.2072700000000004e-30
2400.0,3.3539500000000002e-29,-7.9977200000000005e-26,-7.99462e-26,-7.9970900000000006e-26,-6.6904399999999998e-30,4.0327899999999997e-31,-7.8444999999999998e-30
2401.0,2.7468800000000001e-29,-7.9965400000000002e-26,-7.9942399999999996e-26,-7.9960900000000001e-26,-7.5762699999999995e-30,5.1405500000000003e-31,-6.8110100000000001e-30
2402.0,3.1968199999999998e-29,-7.9975600000000003e-26,-7.9947100000000004e-26,-7.9969699999999995e-26,-7.7172200000000002e-30,5.5124699999999999e-31,-7.4005999999999995e-30
2403.0,2.6241799999999999e-29,-7.9963399999999996e-26,-7.9943200000000003e-26,-7.9959399999999997e-26,-8.62919e-30,5.6189800000000004e-31,-6.3580299999999999e-30
2404.0,3.0177700000000002e-29,-7.9972100000000004e-26,-7.9946999999999995e-26,-7.9966699999999999e-26,-8.8782400000000005e-30,7.7355299999999999e-31,-7.02145e-30
2405.0,2.5246000000000001e-29,-7.9959999999999996e-26,-7.9942899999999997e-26,-7.9956599999999996e-26,-9.6909199999999995e-30,7.4228499999999996e-31,-6.0286999999999998e-30
2406.0,2.84584e-29,-7.9968499999999997e-26,-7.9947100000000004e-26,-7.99638e-26,-9.9343699999999995e-30,8.2696800000000001e-31,-6.6310300000000006e-30
2407.0,2.4627500000000001e-29,-7.9957300000000005e-26,-7.9943100000000005e-26,-7.9954299999999997e-26,-1.05707e-29,7.7867799999999996e-31,-5.7839099999999997e-30
2408.0,2.6951500000000002e-29,-7.9963499999999994e-26,-7.9946399999999996e-26,-7.9959499999999995e-26,-1.09795e-29,1.0297400000000001e-30,-6.3582700000000003e-30
2409.0,3.0243e-29,-7.9967000000000004e-26,-7.9940699999999996e-26,-7.99615e-26,-3.8212699999999998e-30,6.0778599999999998e-31,-9.9313299999999996e-30
2410.0,3.5324399999999999e-29,-7.9976399999999998e-26,-7.9944800000000005e-26,-7.9970299999999995e-26,-4.2896600000000001e-30,3.8108200000000002e-31,-1.07639e-29
2411.0,2.98869e-29,-7.9966699999999999e-26,-7.9941500000000003e-26,-7.9961900000000004e-26,-5.0749599999999999e-30,6.4482200000000003e-31,-9.6548099999999996e-30
2412.0,3.44083e-29,-7.9975000000000003e-26,-7.9944699999999996e-26,-7.9968999999999998e-26,-5.3680300000000001e-30,6.9392299999999997e-31,-1.0446999999999999e-29
2413.0,2.8819800000000001e-29,-7.9964599999999995e-26,-7.9941400000000005e-26,-7.9960099999999994e-26,-6.2710800000000001e-30,8.3230099999999992e-31,-9.2064299999999998e-30
2414.0,3.3393899999999999e-29,-7.9974299999999994e-26,-7.9945799999999996e-26,-7.9968700000000004e-26,-6.4720399999999996e-30,9.1918299999999995e-31,-1.0013099999999999e-29
2415.0,2.7698400000000001e-29,-7.9963200000000001e-26,-7.99422e-26,-7.9959200000000001e-26,-7.3609500000000004e-30,9.2954899999999996e-31,-8.7193700000000004e-30
2416.0,3.20812e-29,-7.9971799999999999e-26,-7.9945799999999996e-26,-7.9966600000000001e-26,-7.6427499999999994e-30,1.19931e-30,-9.6381300000000006e-30
2417.0,2.6692599999999999e-29,-7.99604e-26,-7.9942000000000004e-26,-7.9956800000000004e-26,-8.4684100000000002e-30,1.0948900000000001e-30,-8.3000099999999999e-30
2418.0,3.0569600000000001e-29,-7.9969400000000002e-26,-7.9946299999999998e-26,-7.9964700000000005e-26,-8.7199600000000001e-30,1.31501e-30,-9.1794300000000005e-30
2419.0,2.5706000000000002e-29,-7.9957900000000004e-26,-7.9942399999999996e-26,-7.9954799999999998e-26,-9.4433200000000007e-30,1.1194999999999999e-30,-7.86745e-30
2420.0,2.91035e-29,-7.9965699999999996e-26,-7.9946100000000002e-26,-7.9961599999999998e-26,-9.7967699999999996e-30,1.54012e-30,-8.7783000000000003e-30
2421.0,2.5150999999999999e-29,-7.9954899999999996e-26,-7.9942100000000002e-26,-7.9952300000000003e-26,-1.02869e-29,1.2934e-30,-7.5855800000000006e-30
2422.0,2.7895799999999997e-29,-7.9961300000000004e-26,-7.99456e-26,-7.9957900000000004e-26,-1.08079e-29,1.53593e-30,-8.4676399999999999e-30
2423.0,3.1677300000000001e-29,-7.9964999999999999e-26,-7.9940300000000004e-26,-7.9960499999999998e-26,-3.8413300000000001e-30,7.4726699999999998e-31,-1.21027e-29
2424.0,3.4564199999999998e-29,-7.9971100000000002e-26,-7.9942999999999995e-26,-7.9965300000000004e-26,-3.8531599999999997e-30,8.97846e-31,-1.2758199999999999e-29
2425.0,3.00761e-29,-7.9962899999999995e-26,-7.9940199999999995e-26,-7.9958400000000006e-26,-4.9661099999999997e-30,1.0409400000000001e-30,-1.14515e-29
2426.0,3.4242299999999999e-29,-7.9971399999999996e-26,-7.9944099999999996e-26,-7.9966299999999995e-26,-5.17175e-30,1.0775600000000001e-30,-1.23257e-29
2427.0,2.9208400000000001e-29,-7.99621e-26,-7.9941000000000001e-26,-7.99581e-26,-6.1264899999999999e-30,1.18182e-30,-1.0962500000000001e-29
2428.0,3.33689e-29,-7.9969699999999995e-26,-7.9944200000000006e-26,-7.9964999999999999e-26,-6.4318400000000007e-30,1.39964e-30,-1.19926e-29
2429.0,2.8304999999999998e-29,-7.9959899999999998e-26,-7.9940900000000003e-26,-7.9956300000000002e-26,-7.2999500000000001e-30,1.3708499999999999e-30,-1.04969e-29
2430.0,3.2262100000000003e-29,-7.9968300000000001e-26,-7.9944900000000003e-26,-7.9963899999999998e-26,-7.5458799999999996e-30,1.5609999999999999e-30,-1.15244e-29
2431.0,2.7279999999999999e-29,-7.9958000000000002e-26,-7.9941400000000005e-26,-7.9954799999999998e-26,-8.3460200000000005e-30,1.4183000000000001e-30,-9.9500499999999999e-30
2432.0,3.1069400000000001e-29,-7.9965599999999998e-26,-7.9944900000000003e-26,-7.9961699999999996e-26,-8.6847799999999998e-30,1.8489300000000001e-30,-1.1059e-29
2433.0,2.6602200000000001e-29,-7.9955399999999997e-26,-7.9941299999999995e-26,-7.9952699999999995e-26,-9.3302899999999997e-30,1.5695499999999999e-30,-9.5199000000000004e-30
2434.0,2.9911700000000003e-29,-7.9962600000000001e-26,-7.9945000000000001e-26,-7.9959200000000001e-26,-9.7501400000000002e-30,1.8910200000000002e-30,-1.06173e-29
2435.0,2.6023499999999998e-29,-7.9952900000000002e-26,-7.9941400000000005e-26,-7.9950700000000001e-26,-1.00995e-29,1.5424200000000001e-30,-9.16326e-30
2436.0,2.8932700000000002e-29,-7.9958600000000002e-26,-7.99445e-26,-7.9955800000000001e-26,-1.06642e-29,2.0576199999999999e-30,-1.02268e-29
2437.0,3.0769200000000002e-29,-7.9960999999999999e-26,-7.9939300000000001e-26,-7.9956300000000002e-26,-3.5165299999999999e-30,1.2666e-30,-1.3099199999999999e-29
2438.0,3.4964099999999997e-29,-7.9966799999999997e-26,-7.9941500000000003e-26,-7.9962400000000005e-26,-3.9164700000000002e-30,1.0903499999999999e-30,-1.4396000000000001e-29
2439.0,3.0760899999999999e-29,-7.99604e-26,-7.9939599999999995e-26,-7.9956599999999996e-26,-4.8890100000000001e-30,1.27679e-30,-1.2926899999999999e-29
2440.0,3.3915899999999999e-29,-7.9965800000000005e-26,-7.99422e-26,-7.9961400000000002e-26,-5.1456900000000002e-30,1.43473e-30,-1.40133e-29
2441.0,2.9733399999999998e-29,-7.99587e-26,-7.9939800000000003e-26,-7.9955299999999999e-26,-6.1362499999999998e-30,1.4466899999999999e-30,-1.23775e-29
2442.0,3.3314300000000001e-29,-7.9965099999999997e-26,-7.9942799999999999e-26,-7.9961199999999995e-26,-6.4068700000000006e-30,1.6485399999999999e-30,-1.3572100000000001e-29
2443.0,2.8793000000000001e-29,-7.9957199999999995e-26,-7.9940300000000004e-26,-7.9954199999999999e-26,-7.2589199999999998e-30,1.5729899999999999e-30,-1.17929e-29
2444.0,3.24071e-29,-7.9963299999999998e-26,-7.9943100000000005e-26,-7.9959899999999998e-26,-7.6163700000000002e-30,1.9437699999999999e-30,-1.3094699999999999e-29
2445.0,2.7991300000000001e-29,-7.9955100000000003e-26,-7.9940300000000004e-26,-7.9952499999999999e-26,-8.3392300000000001e-30,1.74777e-30,-1.12539e-29
2446.0,3.1441000000000002e-29,-7.9961300000000004e-26,-7.9943499999999997e-26,-7.9958199999999998e-26,-8.7747799999999995e-30,2.0352400000000001e-30,-1.2555e-29
2447.0,2.7254399999999999e-29,-7.9953e-26,-7.9940599999999998e-26,-7.9950799999999999e-26,-9.2910499999999996e-30,1.7238099999999999e-30,-1.06936e-29
2448.0,3.0481599999999998e-29,-7.9958600000000002e-26,-7.9943499999999997e-26,-7.9956200000000004e-26,-9.7434200000000003e-30,2.2361399999999999e-30,-1.1995699999999999e-29
2449.0,2.6823499999999998e-29,-7.9951100000000004e-26,-7.9940599999999998e-26,-7.9949199999999996e-26,-9.9805800000000007e-30,1.81547e-30,-1.02717e-29
2450.0,2.9694000000000002e-29,-7.9955800000000001e-26,-7.9943499999999997e-26,-7.9953699999999997e-26,-1.06039e-29,2.2439399999999999e-30,-1.15278e-29
2451.0,3.35114e-29,-7.9903199999999996e-26,-7.9928199999999996e-26,-7.9906300000000002e-26,-1.0527900000000001e-29,1.3850299999999999e-30,-8.7157800000000007e-30
2452.0,3.2964299999999999e-29,-7.9902400000000001e-26,-7.9926600000000005e-26,-7.9906900000000002e-26,-1.01999e-29,1.8602199999999999e-30,-9.4264799999999995e-30
2453.0,3.1792400000000001e-29,-7.9904199999999999e-26,-7.9925999999999995e-26,-7.9907400000000003e-26,-9.1917899999999993e-30,1.9178499999999999e-30,-1.05394e-29
2454.0,3.1233299999999999e-29,-7.9903400000000004e-26,-7.9923499999999999e-26,-7.9906800000000004e-26,-8.5658200000000005e-30,2.5632599999999998e-30,-1.13667e-29
2455.0,3.0237600000000002e-29,-7.9905700000000003e-26,-7.9923400000000001e-26,-7.9907900000000004e-26,-7.1425700000000001e-30,2.6281400000000001e-30,-1.24267e-29
2456.0,2.9803599999999999e-29,-7.9905100000000004e-26,-7.99206e-26,-7.9906700000000006e-26,-6.11909e-30,3.0017800000000002e-30,-1.3308599999999999e-29
2457.0,2.9339000000000002e-29,-7.9907400000000003e-26,-7.9921000000000004e-26,-7.9907599999999999e-26,-4.1918100000000002e-30,3.4256600000000003e-30,-1.4049399999999999e-29
2458.0,3.3290500000000002e-29,-7.9900799999999999e-26,-7.9927400000000001e-26,-7.9904600000000002e-26,-1.0256399999999999e-29,1.53794e-30,-7.50014e-30
2459.0,3.2166999999999998e-29,-7.9901899999999999e-26,-7.9926899999999999e-26,-7.9904899999999996e-26,-9.4126399999999998e-30,1.6518500000000001e-30,-8.1799200000000005e-30
2460.0,3.1407300000000002e-29,-7.9900799999999999e-26,-7.99246e-26,-7.9904199999999999e-26,-9.1162699999999994e-30,2.0487500000000001e-30,-8.7609700000000005e-30
2461.0,2.99616e-29,-7.9903e-26,-7.9924500000000002e-26,-7.9905100000000004e-26,-7.9654400000000006e-30,2.24651e-30,-9.5003100000000002e-30
2462.0,2.90425e-29,-7.9901700000000003e-26,-7.9921500000000005e-26,-7.9903900000000005e-26,-7.3043800000000005e-30,2.6700499999999999e-30,-1.01563e-29
2463.0,2.7950900000000001e-29,-7.9904500000000004e-26,-7.9921799999999999e-26,-7.9904799999999998e-26,-5.7644700000000003e-30,2.9078400000000001e-30,-1.09775e-29
2464.0,2.7066799999999998e-29,-7.9902599999999997e-26,-7.9917999999999996e-26,-7.9903099999999998e-26,-4.8743700000000002e-30,3.1128299999999999e-30,-1.1595699999999999e-29
2465.0,3.10772e-29,-7.9912899999999995e-26,-7.9930600000000005e-26,-7.9916099999999999e-26,-1.12009e-29,1.7580199999999999e-30,-1.02156e-29
2466.0,3.0517599999999999e-29,-7.99138e-26,-7.99297e-26,-7.9916500000000003e-26,-1.04236e-29,1.9106e-30,-1.12184e-29
2467.0,3.01599e-29,-7.9914100000000005e-26,-7.9928300000000005e-26,-7.9916799999999997e-26,-9.5732699999999996e-30,2.2722899999999999e-30,-1.22419e-29
2468.0,2.9573200000000002e-29,-7.9916000000000001e-26,-7.9927900000000002e-26,-7.99178e-26,-8.4559599999999996e-30,2.2968899999999999e-30,-1.31799e-29
2469.0,2.9333499999999998e-29,-7.9916299999999995e-26,-7.9925999999999995e-26,-7.9917700000000002e-26,-7.2248400000000006e-30,2.6806199999999999e-30,-1.4131999999999999e-29
2470.0,2.8997899999999999e-29,-7.9918700000000004e-26,-7.99263e-26,-7.9918999999999998e-26,-5.7184499999999998e-30,2.5995699999999999e-30,-1.4903799999999999e-29
2471.0,2.9274799999999998e-29,-7.9916500000000003e-26,-7.9922800000000002e-26,-7.9916199999999997e-26,-4.1617399999999997e-30,2.8613500000000001e-30,-1.5689e-29
2472.0,2.98009e-29,-7.9910999999999999e-26,-7.99297e-26,-7.9913399999999997e-26,-1.04662e-29,1.6494799999999999e-30,-8.9318399999999995e-30
2473.0,2.9168199999999998e-29,-7.9910800000000003e-26,-7.9928400000000003e-26,-7.9913100000000003e-26,-9.8196999999999998e-30,1.9354200000000001e-30,-9.5703599999999999e-30
2474.0,2.8157200000000002e-29,-7.9912000000000002e-26,-7.9927800000000004e-26,-7.9913899999999998e-26,-9.0032e-30,1.9866299999999999e-30,-1.0227e-29
2475.0,2.73941e-29,-7.9912000000000002e-26,-7.9925899999999997e-26,-7.9913399999999997e-26,-8.0610100000000002e-30,2.3276100000000002e-30,-1.10194e-29
2476.0,2.6453500000000002e-29,-7.9913999999999996e-26,-7.9925799999999999e-26,-7.9914800000000003e-26,-6.89325e-30,2.36734e-30,-1.16874e-29
2477.0,2.5922500000000002e-29,-7.9913299999999999e-26,-7.9922999999999998e-26,-7.9913499999999995e-26,-5.5996299999999999e-30,2.5384899999999999e-30,-1.246e-29
2478.0,2.5798800000000002e-29,-7.99155e-26,-7.9923800000000005e-26,-7.9914399999999999e-26,-3.9076599999999999e-30,2.8358e-30,-1.3117400000000001e-29
2479.0,2.9759000000000003e-29,-7.9922700000000004e-26,-7.9933199999999998e-26,-7.9924699999999998e-26,-1.14435e-29,2.0089499999999999e-30,-1.13661e-29
2480.0,2.9698500000000002e-29,-7.9923400000000001e-26,-7.9932300000000005e-26,-7.9925299999999997e-26,-1.0652400000000001e-29,2.1635200000000001e-30,-1.2409500000000001e-29
2481.0,2.9468400000000003e-29,-7.9924900000000005e-26,-7.9931700000000006e-26,-7.99263e-26,-9.58761e-30,2.2639300000000002e-30,-1.3395e-29
2482.0,2.9474799999999998e-29,-7.9925799999999999e-26,-7.9930499999999995e-26,-7.9926700000000003e-26,-8.4451500000000006e-30,2.4017800000000001e-30,-1.4361899999999999e-29
2483.0,2.9366300000000002e-29,-7.9927800000000004e-26,-7.9930399999999997e-26,-7.9928e-26,-7.0614200000000005e-30,2.4045600000000001e-30,-1.51543e-29
2484.0,2.9713800000000001e-29,-7.9927800000000004e-26,-7.9928599999999999e-26,-7.9927499999999999e-26,-5.5554600000000001e-30,2.4038000000000001e-30,-1.6041800000000001e-29
2485.0,2.9503000000000001e-29,-7.9928300000000005e-26,-7.9928400000000003e-26,-7.9926899999999999e-26,-3.6264399999999999e-30,2.60348e-30,-1.6417300000000001e-29
2486.0,2.7725999999999997e-29,-7.9919800000000005e-26,-7.9931700000000006e-26,-7.9921500000000005e-26,-1.06432e-29,1.8596600000000001e-30,-9.9053799999999994e-30
2487.0,2.71012e-29,-7.9920500000000002e-26,-7.9930999999999997e-26,-7.9921899999999997e-26,-9.8782200000000007e-30,1.94265e-30,-1.0529899999999999e-29
2488.0,2.65981e-29,-7.9920899999999994e-26,-7.99297e-26,-7.9921999999999995e-26,-8.9732099999999998e-30,2.1013299999999999e-30,-1.13056e-29
2489.0,2.6016599999999997e-29,-7.9922599999999994e-26,-7.9929399999999995e-26,-7.9923200000000005e-26,-7.9024800000000001e-30,2.16203e-30,-1.20215e-29
2490.0,2.5805100000000002e-29,-7.99229e-26,-7.9927699999999995e-26,-7.9923099999999996e-26,-6.6685400000000002e-30,2.28311e-30,-1.2843900000000001e-29
2491.0,2.5477900000000001e-29,-7.9924900000000005e-26,-7.9927699999999995e-26,-7.9924000000000001e-26,-5.2616400000000002e-30,2.20171e-30,-1.3419e-29
2492.0,2.59701e-29,-7.9923699999999995e-26,-7.9924900000000005e-26,-7.9922599999999994e-26,-3.8521900000000003e-30,2.3220900000000001e-30,-1.4256499999999999e-29
2493.0,2.9333999999999998e-29,-7.9931599999999996e-26,-7.9935700000000005e-26,-7.9932699999999997e-26,-1.15241e-29,2.1807100000000002e-30,-1.20281e-29
2494.0,2.9511799999999998e-29,-7.9932699999999997e-26,-7.9935200000000004e-26,-7.99337e-26,-1.05602e-29,2.27882e-30,-1.3118500000000001e-29
2495.0,2.9745399999999998e-29,-7.9933899999999996e-26,-7.9934399999999997e-26,-7.9934499999999995e-26,-9.5660599999999996e-30,2.3457899999999999e-30,-1.4065200000000001e-29
2496.0,2.9895399999999999e-29,-7.9935700000000005e-26,-7.9934100000000003e-26,-7.9935700000000005e-26,-8.2737500000000003e-30,2.3351299999999999e-30,-1.49381e-29
2497.0,3.0299799999999998e-29,-7.9936599999999998e-26,-7.9933000000000002e-26,-7.9935999999999999e-26,-6.9371599999999995e-30,2.3482299999999999e-30,-1.57682e-29
2498.0,3.0308800000000002e-29,-7.9938000000000005e-26,-7.9932900000000004e-26,-7.9936699999999996e-26,-5.3598699999999999e-30,2.19828e-30,-1.6295499999999999e-29
2499.0,3.1073699999999999e-29,-7.9936400000000003e-26,-7.9930200000000002e-26,-7.9934600000000004e-26,-3.7127800000000002e-30,2.1229900000000002e-30,-1.7131900000000001e-29
2500.0,2.6617100000000002e-29,-7.9928300000000005e-26,-7.9933899999999996e-26,-7.9929199999999999e-26,-1.05954e-29,1.9837999999999999e-30,-1.05314e-29
2501.0,2.6322599999999998e-29,-7.9928799999999995e-26,-7.99331e-26,-7.9929500000000004e-26,-9.8350299999999996e-30,2.01364e-30,-1.1176e-29
2502.0,2.6033699999999997e-29,-7.9930200000000002e-26,-7.9932599999999999e-26,-7.9930499999999995e-26,-8.8395900000000001e-30,2.0439000000000001e-30,-1.19134e-29
2503.0,2.6040699999999999e-29,-7.9931099999999995e-26,-7.9931499999999998e-26,-7.9930899999999999e-26,-7.7402399999999994e-30,2.1220800000000001e-30,-1.2709799999999999e-29
2504.0,2.5997100000000002e-29,-7.9932900000000004e-26,-7.99314e-26,-7.9932300000000005e-26,-6.4935399999999995e-30,2.0258099999999999e-30,-1.3356499999999999e-29
2505.0,2.6402999999999998e-29,-7.99331e-26,-7.9929600000000002e-26,-7.9931700000000006e-26,-5.0736399999999998e-30,2.0383199999999999e-30,-1.4123399999999999e-29
2506.0,2.6603300000000001e-29,-7.99348e-26,-7.99303e-26,-7.9932599999999999e-26,-3.3956800000000001e-30,2.0712500000000001e-30,-1.4668199999999999e-29
2507.0,2.9421699999999997e-29,-7.9939599999999995e-26,-7.9938100000000003e-26,-7.9939999999999999e-26,-1.12881e-29,2.3124899999999999e-30,-1.24435e-29
2508.0,2.98864e-29,-7.9940800000000005e-26,-7.9937600000000001e-26,-7.9940900000000003e-26,-1.04689e-29,2.33411e-30,-1.33856e-29
2509.0,3.0303700000000002e-29,-7.9942399999999996e-26,-7.9937199999999998e-26,-7.9942100000000002e-26,-9.3279600000000003e-30,2.3640300000000001e-30,-1.4313900000000001e-29
2510.0,3.0770300000000002e-29,-7.9943800000000002e-26,-7.9936500000000001e-26,-7.9942999999999995e-26,-8.16879e-30,2.2860100000000001e-30,-1.50936e-29
2511.0,3.1136299999999998e-29,-7.9945500000000002e-26,-7.9936300000000005e-26,-7.9943999999999998e-26,-6.74946e-30,2.1965000000000001e-30,-1.5767299999999999e-29
2512.0,3.1766800000000001e-29,-7.9945799999999996e-26,-7.9934999999999996e-26,-7.99439e-26,-5.2611200000000002e-30,2.0585000000000001e-30,-1.6474099999999999e-29
2513.0,3.1389600000000001e-29,-7.9946100000000002e-26,-7.9934999999999996e-26,-7.9943399999999999e-26,-3.4752999999999997e-30,2.0183900000000001e-30,-1.6698000000000001e-29
2514.0,2.6302699999999998e-29,-7.9936099999999997e-26,-7.9935999999999999e-26,-7.9936099999999997e-26,-1.04741e-29,1.9819399999999999e-30,-1.0815500000000001e-29
2515.0,2.6241500000000001e-29,-7.9936900000000004e-26,-7.9935499999999998e-26,-7.9936799999999994e-26,-9.6232000000000006e-30,2.0228099999999999e-30,-1.1498e-29
2516.0,2.6388699999999998e-29,-7.9938100000000003e-26,-7.99348e-26,-7.9937500000000003e-26,-8.7131200000000006e-30,2.0088799999999999e-30,-1.2207800000000001e-29
2517.0,2.6627999999999997e-29,-7.9939800000000003e-26,-7.9934499999999995e-26,-7.9938899999999998e-26,-7.5642799999999999e-30,1.9879200000000002e-30,-1.2930800000000001e-29
2518.0,2.7079800000000003e-29,-7.9940900000000003e-26,-7.9933600000000002e-26,-7.9939399999999999e-26,-6.3201899999999996e-30,1.9455399999999999e-30,-1.36378e-29
2519.0,2.7394900000000003e-29,-7.9942500000000006e-26,-7.9933600000000002e-26,-7.9940400000000002e-26,-4.9359400000000003e-30,1.78217e-30,-1.4178900000000001e-29
2520.0,2.8481300000000001e-29,-7.9942100000000002e-26,-7.9931700000000006e-26,-7.9939700000000005e-26,-3.60745e-30,1.74803e-30,-1.49925e-29
2521.0,2.9786200000000001e-29,-7.9946600000000003e-26,-7.9940300000000004e-26,-7.9946000000000004e-26,-1.10995e-29,2.33788e-30,-1.2448e-29
2522.0,3.0354300000000001e-29,-7.9947999999999998e-26,-7.9939900000000001e-26,-7.99473e-26,-1.0156e-29,2.3882800000000001e-30,-1.3353800000000001e-29
2523.0,3.0945300000000003e-29,-7.9949699999999998e-26,-7.9939499999999997e-26,-7.9948400000000001e-26,-9.19431e-30,2.2998199999999999e-30,-1.4101100000000001e-29
2524.0,3.1558599999999999e-29,-7.9951499999999996e-26,-7.9939300000000001e-26,-7.9949799999999996e-26,-7.9194800000000006e-30,2.2446299999999998e-30,-1.4838199999999999e-29
2525.0,3.2195400000000002e-29,-7.9952699999999995e-26,-7.9938600000000004e-26,-7.9950500000000005e-26,-6.6567400000000004e-30,2.10063e-30,-1.5454400000000001e-29
2526.0,3.2443999999999998e-29,-7.9953799999999995e-26,-7.9938399999999997e-26,-7.9950999999999994e-26,-5.1625999999999997e-30,1.8557599999999999e-30,-1.5913999999999999e-29
2527.0,3.3493900000000002e-29,-7.9953099999999998e-26,-7.9936300000000005e-26,-7.9950100000000001e-26,-3.7090800000000002e-30,1.60447e-30,-1.6644499999999999e-29
2528.0,2.6446799999999997e-29,-7.9942799999999999e-26,-7.9938000000000005e-26,-7.9942000000000004e-26,-1.01639e-29,2.00499e-30,-1.09194e-29
2529.0,2.6747299999999999e-29,-7.99439e-26,-7.9937600000000001e-26,-7.9942899999999997e-26,-9.5125099999999997e-30,1.9545199999999999e-30,-1.1522900000000001e-29
2530.0,2.7125499999999998e-29,-7.9945500000000002e-26,-7.9937299999999996e-26,-7.9944200000000006e-26,-8.5064699999999996e-30,1.9551099999999998e-30,-1.22253e-29
2531.0,2.7675999999999999e-29,-7.9946999999999995e-26,-7.9936699999999996e-26,-7.9945299999999995e-26,-7.4505300000000005e-30,1.8777499999999999e-30,-1.2879800000000001e-29
2532.0,2.8229100000000003e-29,-7.9948699999999995e-26,-7.9936599999999998e-26,-7.9946600000000003e-26,-6.2149499999999997e-30,1.7592400000000001e-30,-1.3482900000000001e-29
2533.0,2.9082799999999999e-29,-7.9949400000000004e-26,-7.9935499999999998e-26,-7.9946700000000001e-26,-4.8867700000000003e-30,1.6441300000000001e-30,-1.4169500000000001e-29
2534.0,2.9439700000000001e-29,-7.9951100000000004e-26,-7.9936099999999997e-26,-7.9947599999999994e-26,-3.3466800000000001e-30,1.54554e-30,-1.4635699999999999e-29
2535.0,2.9972500000000001e-29,-7.9951999999999997e-26,-7.9942100000000002e-26,-7.9950700000000001e-26,-1.07106e-29,2.3694000000000001e-30,-1.2248100000000001e-29
2536.0,3.0654299999999999e-29,-7.9953900000000005e-26,-7.9941899999999995e-26,-7.9952200000000005e-26,-1.0007100000000001e-29,2.2788599999999998e-30,-1.2880999999999999e-29
2537.0,3.14174e-29,-7.9955899999999999e-26,-7.9941600000000001e-26,-7.9953900000000005e-26,-8.9015999999999997e-30,2.2718200000000002e-30,-1.3573599999999999e-29
2538.0,3.22168e-29,-7.9957900000000004e-26,-7.9941299999999995e-26,-7.9955299999999999e-26,-7.8197799999999993e-30,2.0784600000000001e-30,-1.41694e-29
2539.0,3.2898000000000003e-29,-7.9959399999999997e-26,-7.9940900000000003e-26,-7.99564e-26,-6.5046599999999993e-30,1.9363799999999999e-30,-1.4723999999999999e-29
2540.0,3.3635700000000001e-29,-7.9960200000000004e-26,-7.9940099999999997e-26,-7.9956900000000002e-26,-5.1581799999999999e-30,1.66715e-30,-1.52147e-29
2541.0,3.3427999999999998e-29,-7.9960499999999998e-26,-7.9939999999999999e-26,-7.9956099999999995e-26,-3.6123499999999999e-30,1.5459799999999999e-30,-1.55329e-29
2542.0,2.69046e-29,-7.9947999999999998e-26,-7.9939599999999995e-26,-7.9946500000000005e-26,-1.00852e-29,1.8664400000000002e-30,-1.07642e-29
2543.0,2.7307899999999999e-29,-7.9949400000000004e-26,-7.9939399999999999e-26,-7.9947800000000002e-26,-9.29901e-30,1.9357500000000001e-30,-1.1371499999999999e-29
2544.0,2.7877500000000002e-29,-7.9951200000000002e-26,-7.9939200000000003e-26,-7.9949199999999996e-26,-8.4438700000000004e-30,1.8301300000000001e-30,-1.1942400000000001e-29
2545.0,2.86237e-29,-7.9953099999999998e-26,-7.9938899999999998e-26,-7.9950700000000001e-26,-7.3083899999999999e-30,1.7938399999999999e-30,-1.26087e-29
2546.0,2.9422800000000003e-29,-7.9954600000000002e-26,-7.9938399999999997e-26,-7.9951700000000003e-26,-6.1370999999999997e-30,1.6336299999999998e-30,-1.31842e-29
2547.0,3.00972e-29,-7.9955899999999999e-26,-7.9938299999999999e-26,-7.9952499999999999e-26,-4.8874099999999997e-30,1.4464799999999999e-30,-1.37118e-29
2548.0,3.14259e-29,-7.9956499999999998e-26,-7.9937199999999998e-26,-7.9952900000000002e-26,-3.7263500000000003e-30,1.28911e-30,-1.44287e-29
2549.0,1.91995e-28,-7.9784100000000004e-26,-7.9964300000000001e-26,-7.97746e-26,2.7234999999999999e-29,5.0158100000000003e-30,-9.8484299999999997e-30
2550.0,1.47206e-28,-7.9808100000000001e-26,-7.9946999999999995e-26,-7.9800500000000005e-26,1.8858999999999999e-29,4.3685200000000001e-30,-7.0860700000000006e-30
2551.0,1.12009e-28,-7.9828699999999998e-26,-7.9935800000000003e-26,-7.9823400000000001e-26,1.0945700000000001e-29,3.9983800000000001e-30,-5.0234699999999998e-30
2552.0,8.5855399999999997e-29,-7.9847100000000005e-26,-7.9930899999999999e-26,-7.9844300000000004e-26,3.4258400000000003e-30,3.5428000000000002e-30,-3.6800700000000002e-30
2553.0,6.58616e-29,-7.9862600000000001e-26,-7.9927400000000001e-26,-7.9861400000000003e-26,-1.9778299999999999e-30,3.2819599999999999e-30,-2.56532e-30
2554.0,5.1940400000000001e-29,-7.9878099999999998e-26,-7.9928500000000001e-26,-7.9878500000000002e-26,-6.9348500000000001e-30,2.99636e-30,-1.7511000000000001e-30
2555.0,4.1672200000000002e-29,-7.9890400000000002e-26,-7.9928300000000005e-26,-7.9891400000000005e-26,-1.01364e-29,2.6428800000000002e-30,-8.8453799999999994e-31
2556.0,1.8981900000000001e-28,-7.9784299999999999e-26,-7.9964700000000005e-26,-7.9776399999999998e-26,2.5585600000000001e-29,1.3598599999999999e-30,1.13233e-30
2557.0,1.4610499999999999e-28,-7.9808100000000001e-26,-7.99473e-26,-7.9801399999999998e-26,1.8196800000000001e-29,1.47939e-30,2.2452000000000001e-31
2558.0,1.1211600000000001e-28,-7.9828699999999998e-26,-7.99371e-26,-7.9824299999999995e-26,1.02266e-29,1.6209599999999998e-30,-5.8192800000000004e-31
2559.0,8.5993699999999996e-29,-7.9846700000000001e-26,-7.9931099999999995e-26,-7.9844199999999994e-26,3.56367e-30,1.8325399999999998e-30,-1.0422400000000001e-30
2560.0,6.6577400000000002e-29,-7.9862899999999995e-26,-7.9928900000000005e-26,-7.9862199999999998e-26,-2.2481299999999999e-30,1.8876399999999999e-30,-1.40536e-30
2561.0,5.2208600000000005e-29,-7.9877099999999995e-26,-7.9928099999999998e-26,-7.9877599999999997e-26,-6.4758499999999998e-30,2.0056799999999999e-30,-1.6455700000000001e-30
2562.0,4.23894e-29,-7.9891000000000002e-26,-7.9930100000000004e-26,-7.9892299999999998e-26,-9.9306899999999995e-30,1.9216999999999999e-30,-1.9131100000000001e-30
2563.0,1.8158499999999999e-28,-7.9786900000000004e-26,-7.9961400000000002e-26,-7.9782699999999997e-26,2.17913e-29,-1.6411799999999998e-30,1.08216e-29
2564.0,1.41365e-28,-7.9809700000000003e-26,-7.9946000000000004e-26,-7.9805800000000001e-26,1.5535099999999999e-29,-1.0682900000000001e-30,6.6784300000000002e-30
2565.0,1.0945099999999999e-28,-7.9829899999999996e-26,-7.9936699999999996e-26,-7.9827200000000005e-26,8.7116999999999995e-30,-2.8081400000000001e-31,3.6301499999999998e-30
2566.0,8.4486000000000001e-29,-7.9847399999999999e-26,-7.9931099999999995e-26,-7.9846100000000002e-26,2.5044600000000002e-30,2.9094899999999999e-31,1.40599e-30
2567.0,6.5822500000000003e-29,-7.9862899999999995e-26,-7.9928599999999999e-26,-7.9863000000000005e-26,-2.5983099999999999e-30,8.1161599999999994e-31,-3.11097e-31
2568.0,5.2211699999999996e-29,-7.9877699999999995e-26,-7.9929100000000001e-26,-7.9878900000000005e-26,-6.7266200000000001e-30,1.0864899999999999e-30,-1.58208e-30
2569.0,4.2289900000000002e-29,-7.9890199999999995e-26,-7.9929600000000002e-26,-7.9891899999999995e-26,-9.6563599999999995e-30,1.39899e-30,-2.3113999999999999e-30
2570.0,1.6918999999999999e-28,-7.9791299999999996e-26,-7.9955499999999995e-26,-7.9792200000000001e-26,1.6388099999999999e-29,-3.3636100000000002e-30,1.7997400000000001e-29
2571.0,1.3360300000000001e-28,-7.98127e-26,-7.9943100000000005e-26,-7.98127e-26,1.1722e-29,-2.61893e-30,1.17324e-29
2572.0,1.04445e-28,-7.9831699999999994e-26,-7.9934899999999998e-26,-7.9831800000000004e-26,6.20331e-30,-1.6138899999999999e-30,6.9216799999999997e-30
2573.0,8.1565600000000005e-29,-7.9848400000000001e-26,-7.9930100000000004e-26,-7.9849199999999997e-26,9.5316999999999998e-31,-8.1588900000000007e-31,3.2786800000000003e-30
2574.0,6.4294800000000002e-29,-7.9863899999999998e-26,-7.9928599999999999e-26,-7.9865400000000002e-26,-3.4921400000000002e-30,-1.0090400000000001e-31,5.0559400000000003e-31
2575.0,5.1288699999999997e-29,-7.9877800000000004e-26,-7.9928599999999999e-26,-7.9879799999999998e-26,-6.9411199999999998e-30,5.1813799999999999e-31,-1.51748e-30
2576.0,4.2028900000000002e-29,-7.9890599999999998e-26,-7.9929799999999998e-26,-7.98928e-26,-9.7145000000000005e-30,8.9166600000000005e-31,-3.2668899999999998e-30
2577.0,1.53805e-28,-7.9797700000000004e-26,-7.9948499999999999e-26,-7.9804100000000001e-26,1.05878e-29,-3.9916600000000001e-30,2.2113000000000001e-29
2578.0,1.2362500000000001e-28,-7.9816699999999999e-26,-7.99388e-26,-7.9820899999999995e-26,7.4763799999999998e-30,-3.1861499999999999e-30,1.4839399999999999e-29
2579.0,9.8250700000000002e-29,-7.9833899999999996e-26,-7.9932300000000005e-26,-7.9837199999999998e-26,3.1599799999999999e-30,-2.29921e-30,8.9552500000000005e-30
2580.0,7.7892900000000001e-29,-7.9850100000000001e-26,-7.9929000000000003e-26,-7.9853099999999998e-26,-9.8515599999999992e-31,-1.3435799999999999e-30,4.4387599999999997e-30
2581.0,6.2053499999999999e-29,-7.9864999999999999e-26,-7.9927900000000002e-26,-7.9867899999999998e-26,-4.4733700000000002e-30,-5.3363900000000002e-31,1.0096799999999999e-30
2582.0,4.9870500000000003e-29,-7.9878500000000002e-26,-7.9928e-26,-7.98814e-26,-7.4365100000000002e-30,1.16819e-31,-1.7264400000000001e-30
2583.0,4.11552e-29,-7.98905e-26,-7.9928900000000005e-26,-7.9893499999999997e-26,-9.7311700000000003e-30,7.1318600000000003e-31,-3.6407199999999998e-30
2584.0,1.3857599999999999e-28,-7.9803900000000005e-26,-7.9940900000000003e-26,-7.9814499999999998e-26,5.5213700000000002e-30,-3.6254799999999997e-30,2.3346399999999999e-29
2585.0,1.14083e-28,-7.9820099999999999e-26,-7.9934200000000001e-26,-7.9828099999999998e-26,3.3890099999999999e-30,-3.2135199999999999e-30,1.6211e-29
2586.0,9.2175000000000003e-29,-7.9836099999999997e-26,-7.9929500000000004e-26,-7.9842399999999996e-26,2.59434e-31,-2.33108e-30,1.01062e-29
2587.0,7.4065899999999999e-29,-7.9851499999999996e-26,-7.9927400000000001e-26,-7.9856800000000004e-26,-2.8558599999999999e-30,-1.4253799999999999e-30,5.1000500000000002e-30
2588.0,5.9461399999999998e-29,-7.9865900000000004e-26,-7.9926700000000003e-26,-7.9870400000000005e-26,-5.5415400000000001e-30,-5.9570500000000003e-31,1.1350300000000001e-30
2589.0,4.8276100000000002e-29,-7.9878900000000005e-26,-7.9926999999999997e-26,-7.9883000000000002e-26,-7.8951500000000006e-30,5.4437600000000005e-32,-2.03141e-30
2590.0,4.0334900000000002e-29,-7.9890900000000004e-26,-7.9928099999999998e-26,-7.9894400000000002e-26,-9.8169600000000001e-30,6.2202400000000001e-31,-4.79691e-30
2591.0,1.27205e-28,-7.9809000000000005e-26,-7.9935599999999996e-26,-7.9822499999999997e-26,1.60213e-30,-3.0462299999999999e-30,2.3394599999999999e-29
2592.0,1.0707999999999999e-28,-7.9822800000000002e-26,-7.9930700000000003e-26,-7.98337e-26,8.4608600000000005e-32,-2.6420500000000001e-30,1.69346e-29
2593.0,8.7443999999999997e-29,-7.9837699999999999e-26,-7.9927099999999995e-26,-7.9846500000000005e-26,-2.1162800000000002e-30,-1.9187900000000002e-30,1.0749400000000001e-29
2594.0,7.0597800000000001e-29,-7.9852400000000001e-26,-7.9925299999999997e-26,-7.9859600000000005e-26,-4.39003e-30,-1.1053699999999999e-30,5.3500600000000002e-30
2595.0,5.7225300000000001e-29,-7.9866400000000005e-26,-7.9925199999999999e-26,-7.9872399999999999e-26,-6.5056599999999993e-30,-3.9134999999999998e-31,9.8507400000000002e-31
2596.0,4.6729700000000002e-29,-7.9879299999999997e-26,-7.9925799999999999e-26,-7.9884200000000001e-26,-8.3430800000000002e-30,2.2549100000000002e-31,-2.5789299999999999e-30
2597.0,3.92794e-29,-7.9890900000000004e-26,-7.9927099999999995e-26,-7.9895500000000002e-26,-9.9663500000000005e-30,8.1127099999999998e-31,-5.2153899999999999e-30
2598.0,1.8150299999999999e-28,-7.9786500000000001e-26,-7.9962699999999999e-26,-7.9782699999999997e-26,1.7085100000000001e-29,4.0450200000000001e-30,-9.7964099999999997e-30
2599.0,1.4645300000000001e-28,-7.9806499999999999e-26,-7.9948900000000002e-26,-7.9803299999999994e-26,1.2999499999999999e-29,3.9019999999999997e-30,-7.3792400000000004e-30
2600.0,1.1407300000000001e-28,-7.9827099999999996e-26,-7.99388e-26,-7.9824699999999998e-26,6.9427299999999994e-30,3.3907700000000003e-30,-5.4524699999999999e-30
2601.0,8.8252999999999996e-29,-7.98445e-26,-7.9931599999999996e-26,-7.9843100000000005e-26,1.8245800000000002e-30,3.0969400000000001e-30,-3.8930000000000001e-30
2602.0,6.8663500000000003e-29,-7.9861400000000003e-26,-7.9929399999999995e-26,-7.9861199999999995e-26,-2.9799499999999999e-30,2.75048e-30,-2.8898100000000001e-30
2603.0,5.3131999999999997e-29,-7.9875199999999999e-26,-7.9926899999999999e-26,-7.9875399999999995e-26,-6.4017499999999995e-30,2.4586299999999999e-30,-1.8963200000000001e-30
2604.0,4.2643899999999998e-29,-7.9889599999999995e-26,-7.9929199999999999e-26,-7.9890599999999998e-26,-9.4141400000000006e-30,2.17438e-30,-1.5608e-30
2605.0,1.77315e-28,-7.9788399999999997e-26,-7.9962400000000005e-26,-7.9785800000000004e-26,1.5079299999999999e-29,1.9004300000000001e-30,-5.60997e-31
2606.0,1.4394e-28,-7.9808100000000001e-26,-7.99496e-26,-7.9805899999999999e-26,1.1111800000000001e-29,1.8419e-30,-7.7180600000000004e-31
2607.0,1.13051e-28,-7.9827300000000003e-26,-7.9938999999999996e-26,-7.9825700000000001e-26,6.2221699999999997e-30,1.8072699999999999e-30,-1.0989899999999999e-30
2608.0,8.8038599999999995e-29,-7.9845299999999995e-26,-7.9932900000000004e-26,-7.9844599999999998e-26,1.14873e-30,1.7898299999999999e-30,-1.36764e-30
2609.0,6.8572399999999998e-29,-7.9860800000000003e-26,-7.9929199999999999e-26,-7.9860999999999999e-26,-2.83807e-30,1.846e-30,-1.51991e-30
2610.0,5.3757099999999997e-29,-7.9875899999999997e-26,-7.9928699999999997e-26,-7.9876700000000004e-26,-6.4206500000000005e-30,1.7084700000000002e-30,-1.7182900000000001e-30
2611.0,4.25478e-29,-7.9888399999999997e-26,-7.9928300000000005e-26,-7.9889499999999997e-26,-9.0538699999999993e-30,1.6894400000000001e-30,-1.6242400000000002e-30
2612.0,1.6901700000000001e-28,-7.9791799999999997e-26,-7.9959100000000003e-26,-7.9791799999999997e-26,1.1600699999999999e-29,8.8186099999999999e-32,7.5187899999999999e-30
2613.0,1.38245e-28,-7.9810499999999998e-26,-7.9947599999999994e-26,-7.9810300000000002e-26,8.6729400000000002e-30,2.6831000000000002e-31,5.03937e-30
2614.0,1.09392e-28,-7.9829299999999997e-26,-7.9938200000000001e-26,-7.9829100000000001e-26,4.3625799999999997e-30,4.3200500000000004e-31,2.7690700000000001e-30
2615.0,8.6123699999999996e-29,-7.98462e-26,-7.9932500000000001e-26,-7.9846600000000003e-26,2.5540999999999998e-31,7.9605199999999998e-31,9.8719800000000005e-31
2616.0,6.7425200000000001e-29,-7.98621e-26,-7.9929600000000002e-26,-7.9862899999999995e-26,-3.3794699999999998e-30,9.2360800000000004e-31,-2.9441599999999999e-31
2617.0,5.3083100000000004e-29,-7.9875700000000001e-26,-7.9928099999999998e-26,-7.9876999999999997e-26,-6.4802499999999996e-30,1.14495e-30,-1.4501000000000001e-30
2618.0,4.2759599999999999e-29,-7.9889200000000003e-26,-7.9929399999999995e-26,-7.9890699999999996e-26,-9.0457899999999994e-30,1.2477299999999999e-30,-2.5115100000000001e-30
2619.0,1.57087e-28,-7.9797100000000005e-26,-7.9953599999999999e-26,-7.9800500000000005e-26,7.5582799999999997e-30,-1.12947e-30,1.34238e-29
2620.0,1.2997800000000001e-28,-7.9814200000000004e-26,-7.9944099999999996e-26,-7.9816799999999997e-26,5.4560199999999998e-30,-7.3483e-31,9.3604499999999999e-30
2621.0,1.0425599999999999e-28,-7.9831699999999994e-26,-7.9936400000000003e-26,-7.98337e-26,2.1543800000000001e-30,-3.4125200000000002e-31,5.7591400000000001e-30
2622.0,8.2687199999999996e-29,-7.9848099999999996e-26,-7.9931599999999996e-26,-7.9850000000000004e-26,-1.09848e-30,4.1840400000000001e-32,2.91876e-30
2623.0,6.5235799999999999e-29,-7.9862899999999995e-26,-7.9928699999999997e-26,-7.9864900000000001e-26,-4.13162e-30,3.6465800000000001e-31,5.26574e-31
2624.0,5.1997699999999999e-29,-7.9876800000000001e-26,-7.9928199999999996e-26,-7.9878699999999998e-26,-6.9493699999999997e-30,6.6133699999999999e-31,-1.39639e-30
2625.0,4.20976e-29,-7.9888899999999998e-26,-7.9928699999999997e-26,-7.98911e-26,-9.0193599999999998e-30,1.06286e-30,-2.67011e-30
2626.0,1.4398800000000001e-28,-7.9803e-26,-7.9946799999999999e-26,-7.9809200000000001e-26,3.3645900000000003e-30,-1.40732e-30,1.6907100000000001e-29
2627.0,1.20827e-28,-7.9818399999999999e-26,-7.9939800000000003e-26,-7.9823599999999997e-26,2.0633199999999999e-30,-1.10032e-30,1.21663e-29
2628.0,9.8074699999999998e-29,-7.9834700000000003e-26,-7.9933799999999998e-26,-7.98388e-26,-8.3322700000000005e-32,-6.8805000000000004e-31,7.8359400000000005e-30
2629.0,7.8350800000000005e-29,-7.9850100000000001e-26,-7.99297e-26,-7.9853699999999998e-26,-2.6008600000000001e-30,-3.6518000000000001e-31,4.1145799999999997e-30
2630.0,6.2445400000000003e-29,-7.9864499999999997e-26,-7.9927699999999995e-26,-7.9867499999999994e-26,-5.1799999999999999e-30,1.16273e-32,1.00959e-30
2631.0,5.0455500000000001e-29,-7.9877300000000003e-26,-7.9927400000000001e-26,-7.98803e-26,-7.4028000000000001e-30,5.3061300000000001e-31,-1.5051e-30
2632.0,4.1334999999999997e-29,-7.9889700000000005e-26,-7.9928500000000001e-26,-7.98922e-26,-9.1561299999999997e-30,8.1502799999999995e-31,-3.6541299999999999e-30
2633.0,1.31728e-28,-7.9809000000000005e-26,-7.9941000000000001e-26,-7.9818100000000005e-26,-7.4835199999999999e-32,-1.14961e-30,1.8726799999999999e-29
2634.0,1.1214499999999999e-28,-7.9822499999999997e-26,-7.9935700000000005e-26,-7.9830200000000002e-26,-5.9419899999999998e-31,-9.5501600000000001e-31,1.3751099999999999e-29
2635.0,9.2021900000000004e-29,-7.9837400000000006e-26,-7.9930999999999997e-26,-7.9843599999999995e-26,-2.1141699999999999e-30,-7.3705399999999996e-31,8.9391599999999998e-30
2636.0,7.4127700000000001e-29,-7.9851999999999998e-26,-7.9927699999999995e-26,-7.9857e-26,-4.04019e-30,-4.22819e-31,4.70864e-30
2637.0,5.9736900000000001e-29,-7.9865599999999998e-26,-7.9926399999999998e-26,-7.9870000000000001e-26,-6.1003299999999998e-30,1.06827e-32,1.0953799999999999e-30
2638.0,4.8593199999999999e-29,-7.9878300000000006e-26,-7.9926499999999996e-26,-7.9882e-26,-7.9071600000000002e-30,4.2835700000000001e-31,-1.8298700000000001e-30
2639.0,4.01769e-29,-7.9889700000000005e-26,-7.9927499999999999e-26,-7.9893499999999997e-26,-9.3364399999999999e-30,1.0049100000000001e-30,-4.0067700000000001e-30
2640.0,1.2218599999999999e-28,-7.9813399999999997e-26,-7.9936099999999997e-26,-7.9824299999999995e-26,-2.3141100000000001e-30,-7.7189799999999999e-31,1.88998e-29
2641.0,1.05522e-28,-7.9825399999999995e-26,-7.9932199999999996e-26,-7.9834700000000003e-26,-2.77984e-30,-8.2809800000000002e-31,1.4381200000000001e-29
2642.0,8.72853e-29,-7.9839300000000002e-26,-7.9928400000000003e-26,-7.9847100000000005e-26,-3.7801899999999997e-30,-5.54412e-31,9.3964899999999993e-30
2643.0,7.08695e-29,-7.9853300000000006e-26,-7.9926100000000004e-26,-7.9859700000000003e-26,-5.2343699999999998e-30,-2.3227499999999999e-31,4.8943800000000001e-30
2644.0,5.7242599999999998e-29,-7.9866600000000001e-26,-7.9925100000000001e-26,-7.9871899999999997e-26,-6.8092599999999997e-30,1.09626e-31,1.00287e-30
2645.0,4.70475e-29,-7.9878799999999996e-26,-7.9925600000000003e-26,-7.9883500000000004e-26,-8.3120800000000007e-30,5.8830500000000002e-31,-2.29392e-30
2646.0,3.9336199999999998e-29,-7.98905e-26,-7.9926899999999999e-26,-7.9894199999999994e-26,-9.3969599999999995e-30,7.9789900000000005e-31,-5.0746699999999997e-30
2647.0,3.8179400000000002e-29,-7.9891299999999995e-26,-7.9925799999999999e-26,-7.9895799999999996e-26,-9.6364000000000001e-30,9.7666599999999999e-31,-6.3593199999999994e-30
2648.0,3.7258000000000002e-29,-7.9891199999999998e-26,-7.9924400000000004e-26,-7.9896500000000005e-26,-9.6897000000000004e-30,1.6399899999999999e-30,-6.9396600000000003e-30
2649.0,3.57946e-29,-7.9891699999999999e-26,-7.99229e-26,-7.9896399999999996e-26,-8.8972999999999994e-30,1.84291e-30,-7.8301700000000001e-30
2650.0,3.4926300000000001e-29,-7.9891500000000003e-26,-7.9921000000000004e-26,-7.98962e-26,-8.5748699999999999e-30,2.7024e-30,-8.6814599999999997e-30
2651.0,3.34481e-29,-7.9892100000000002e-26,-7.9919400000000002e-26,-7.9895799999999996e-26,-7.4633100000000004e-30,2.89604e-30,-9.4885599999999995e-30
2652.0,3.2875200000000003e-29,-7.9892100000000002e-26,-7.9917299999999998e-26,-7.9894900000000003e-26,-6.6507299999999996e-30,3.7753099999999997e-30,-1.04733e-29
2653.0,3.1366900000000002e-29,-7.9893200000000003e-26,-7.9915800000000006e-26,-7.9894699999999996e-26,-5.2204e-30,3.8016099999999999e-30,-1.12575e-29
2654.0,4.53814e-29,-7.9879299999999997e-26,-7.9924500000000002e-26,-7.9885300000000002e-26,-8.6724199999999996e-30,5.9573300000000002e-31,-3.1063799999999999e-30
2655.0,4.3932299999999999e-29,-7.9879100000000001e-26,-7.9922599999999994e-26,-7.98854e-26,-8.7213900000000004e-30,1.14374e-30,-3.6370800000000003e-30
2656.0,4.2804599999999998e-29,-7.98786e-26,-7.9920699999999998e-26,-7.9885200000000004e-26,-8.7505500000000005e-30,1.83199e-30,-4.1923000000000003e-30
2657.0,4.1469099999999999e-29,-7.9878199999999996e-26,-7.9918599999999995e-26,-7.9884600000000005e-26,-8.5245499999999998e-30,2.56046e-30,-4.7801899999999997e-30
2658.0,4.0253099999999999e-29,-7.9877900000000002e-26,-7.9916500000000003e-26,-7.98837e-26,-8.2444000000000002e-30,3.3637399999999997e-30,-5.4590599999999998e-30
2659.0,3.84931e-29,-7.9878099999999998e-26,-7.9913899999999998e-26,-7.9882699999999997e-26,-7.5856899999999994e-30,4.2168100000000002e-30,-6.2362900000000003e-30
2660.0,3.6229199999999999e-29,-7.9881200000000004e-26,-7.9912799999999997e-26,-7.9883899999999996e-26,-6.4012300000000003e-30,4.8201900000000002e-30,-8.1474299999999995e-30
2661.0,5.5374000000000001e-29,-7.9866199999999998e-26,-7.9923300000000003e-26,-7.9873300000000003e-26,-7.2645600000000001e-30,1.10451e-31,7.8321900000000004e-31
2662.0,5.4119600000000004e-29,-7.9865400000000002e-26,-7.9921299999999998e-26,-7.9873599999999997e-26,-7.8574499999999997e-30,8.1977000000000001e-31,6.3606999999999998e-31
2663.0,5.2957599999999996e-29,-7.9864599999999995e-26,-7.9919200000000006e-26,-7.9873200000000005e-26,-8.3901799999999997e-30,1.7226199999999999e-30,4.49624e-31
2664.0,5.1712300000000005e-29,-7.98638e-26,-7.9916799999999997e-26,-7.9872599999999995e-26,-8.8309299999999998e-30,2.8264299999999999e-30,1.1708e-31
2665.0,5.0096500000000001e-29,-7.9863399999999997e-26,-7.9913899999999998e-26,-7.9871500000000005e-26,-9.09784e-30,3.9501700000000003e-30,-4.2509199999999998e-31
2666.0,4.7747099999999999e-29,-7.9864300000000002e-26,-7.9911400000000003e-26,-7.9871000000000004e-26,-8.9942100000000004e-30,5.2145599999999999e-30,-1.5396100000000001e-30
2667.0,4.3432300000000002e-29,-7.9867299999999998e-26,-7.9908600000000002e-26,-7.9871799999999999e-26,-8.2927099999999996e-30,5.9000299999999997e-30,-3.4919600000000002e-30
2668.0,6.8606700000000004e-29,-7.9852099999999996e-26,-7.9923300000000003e-26,-7.9861099999999997e-26,-5.7305599999999997e-30,-4.8833100000000002e-31,5.58284e-30
2669.0,6.7556499999999998e-29,-7.9850899999999997e-26,-7.9921100000000002e-26,-7.9861199999999995e-26,-6.9649599999999998e-30,4.6251199999999997e-31,5.90902e-30
2670.0,6.6687199999999995e-29,-7.98496e-26,-7.9918599999999995e-26,-7.9860800000000003e-26,-8.2634600000000005e-30,1.6918499999999998e-30,6.1420500000000001e-30
2671.0,6.5432999999999999e-29,-7.9848599999999997e-26,-7.9915800000000006e-26,-7.9860099999999995e-26,-9.4497299999999998e-30,3.2139700000000001e-30,6.1346100000000003e-30
2672.0,6.3597499999999998e-29,-7.9848599999999997e-26,-7.9912799999999997e-26,-7.9859399999999997e-26,-1.05076e-29,4.8373200000000001e-30,5.6070199999999999e-30
2673.0,6.0194100000000003e-29,-7.9849699999999998e-26,-7.9909100000000003e-26,-7.9859000000000005e-26,-1.11243e-29,6.4714499999999999e-30,4.4156800000000001e-30
2674.0,5.4809599999999998e-29,-7.9854299999999997e-26,-7.9906900000000002e-26,-7.98604e-26,-1.0602400000000001e-29,7.6099799999999996e-30,1.5026100000000001e-30
2675.0,8.5142800000000005e-29,-7.9837299999999996e-26,-7.9924799999999996e-26,-7.9848400000000001e-26,-4.1270300000000003e-30,-1.0536100000000001e-30,1.14187e-29
2676.0,8.4682000000000001e-29,-7.98354e-26,-7.99223e-26,-7.9848400000000001e-26,-6.1879199999999998e-30,1.63561e-31,1.23671e-29
2677.0,8.4233900000000004e-29,-7.98337e-26,-7.9919599999999998e-26,-7.9847999999999998e-26,-8.3834399999999998e-30,1.8287700000000002e-30,1.3174900000000001e-29
2678.0,8.3254099999999995e-29,-7.9832599999999999e-26,-7.9916400000000005e-26,-7.9847399999999999e-26,-1.05965e-29,3.8495100000000003e-30,1.3487700000000001e-29
2679.0,8.1146700000000004e-29,-7.9832599999999999e-26,-7.9912699999999999e-26,-7.9846700000000001e-26,-1.2658199999999999e-29,6.0850399999999999e-30,1.3083200000000001e-29
2680.0,7.7104300000000001e-29,-7.9834800000000001e-26,-7.9909000000000005e-26,-7.9846799999999999e-26,-1.40828e-29,8.2070899999999998e-30,1.14811e-29
2681.0,6.9918100000000002e-29,-7.9839200000000004e-26,-7.9904299999999997e-26,-7.9847800000000002e-26,-1.44674e-29,9.6605299999999996e-30,8.6193500000000005e-30
2682.0,1.0450500000000001e-28,-7.9822499999999997e-26,-7.9928099999999998e-26,-7.9835999999999999e-26,-2.7414800000000001e-30,-1.6123799999999999e-30,1.80919e-29
2683.0,1.0520599999999999e-28,-7.9819800000000005e-26,-7.9925799999999999e-26,-7.9835800000000003e-26,-5.5403000000000003e-30,2.0219999999999999e-33,1.98323e-29
2684.0,1.0605700000000001e-28,-7.9817299999999998e-26,-7.9923099999999996e-26,-7.9835200000000004e-26,-8.80907e-30,2.0821600000000001e-30,2.1509000000000001e-29
2685.0,1.0575899999999999e-28,-7.9815599999999998e-26,-7.9919300000000004e-26,-7.9834299999999999e-26,-1.23178e-29,4.7344400000000002e-30,2.23719e-29
2686.0,1.03727e-28,-7.9815900000000004e-26,-7.9914999999999999e-26,-7.9833799999999998e-26,-1.57702e-29,7.6901100000000006e-30,2.2072099999999999e-29
2687.0,9.8750600000000004e-29,-7.9818499999999997e-26,-7.9909700000000003e-26,-7.9833799999999998e-26,-1.84617e-29,1.05368e-29,2.03448e-29
2688.0,9.0650299999999998e-29,-7.98246e-26,-7.9905399999999998e-26,-7.9834999999999997e-26,-1.93517e-29,1.2607099999999999e-29,1.64944e-29
2689.0,1.2434199999999999e-28,-7.9809299999999999e-26,-7.9933000000000002e-26,-7.9824900000000006e-26,-1.42183e-30,-1.9467999999999999e-30,2.4630999999999999e-29
2690.0,1.2866e-28,-7.9804399999999995e-26,-7.9931700000000006e-26,-7.9822800000000002e-26,-4.7350199999999999e-30,-1.7536800000000001e-31,2.7571099999999998e-29
2691.0,1.32562e-28,-7.9800000000000004e-26,-7.9929600000000002e-26,-7.9821299999999998e-26,-9.4284700000000003e-30,2.4178599999999999e-30,3.0557800000000002e-29
2692.0,1.3409100000000001e-28,-7.9797499999999997e-26,-7.9925799999999999e-26,-7.9820199999999997e-26,-1.48626e-29,5.8570499999999998e-30,3.2455399999999998e-29
2693.0,1.3225699999999999e-28,-7.97979e-26,-7.9920299999999995e-26,-7.9819599999999998e-26,-2.02406e-29,9.6840299999999995e-30,3.25479e-29
2694.0,1.26932e-28,-7.9801499999999996e-26,-7.9914100000000005e-26,-7.9819400000000002e-26,-2.4521000000000001e-29,1.3407499999999999e-29,3.0507500000000001e-29
2695.0,1.1686199999999999e-28,-7.9808500000000004e-26,-7.9907e-26,-7.9821100000000002e-26,-2.69491e-29,1.61979e-29,2.6297300000000001e-29
2696.0,3.8448999999999998e-29,-7.9890599999999998e-26,-7.9925899999999997e-26,-7.9894900000000003e-26,-9.5834099999999993e-30,1.39247e-30,-5.3624199999999997e-30
2697.0,3.7177199999999997e-29,-7.9890599999999998e-26,-7.99246e-26,-7.9894900000000003e-26,-9.0078699999999994e-30,1.4389400000000001e-30,-5.9900400000000001e-30
2698.0,3.6177100000000002e-29,-7.9890400000000002e-26,-7.99229e-26,-7.9894699999999996e-26,-8.9178499999999998e-30,2.0868500000000001e-30,-6.4004900000000006e-30
2699.0,3.4631200000000002e-29,-7.9890800000000006e-26,-7.9921299999999998e-26,-7.9894400000000002e-26,-8.1024400000000003e-30,2.34687e-30,-7.0772499999999996e-30
2700.0,3.3584500000000002e-29,-7.9890800000000006e-26,-7.9919400000000002e-26,-7.9893800000000002e-26,-7.6641099999999999e-30,3.0686e-30,-7.7620199999999995e-30
2701.0,3.1876800000000001e-29,-7.9891699999999999e-26,-7.99178e-26,-7.9893499999999997e-26,-6.5015900000000002e-30,3.3812000000000003e-30,-8.5275200000000007e-30
2702.0,3.0983499999999997e-29,-7.9892299999999998e-26,-7.9916299999999995e-26,-7.9893200000000003e-26,-5.5603899999999998e-30,3.8622399999999997e-30,-9.4685299999999998e-30
2703.0,4.5621199999999999e-29,-7.9879100000000001e-26,-7.9924299999999994e-26,-7.9884200000000001e-26,-8.5111299999999998e-30,8.3492800000000005e-31,-2.7085800000000001e-30
2704.0,4.4623100000000001e-29,-7.9878799999999996e-26,-7.99229e-26,-7.9884200000000001e-26,-8.6049199999999998e-30,1.3417500000000001e-30,-2.9257599999999999e-30
2705.0,4.3546399999999998e-29,-7.9878500000000002e-26,-7.9921299999999998e-26,-7.9883799999999998e-26,-8.5778600000000007e-30,1.9289600000000001e-30,-3.23765e-30
2706.0,4.2300999999999999e-29,-7.9878199999999996e-26,-7.9919400000000002e-26,-7.9883299999999996e-26,-8.5237599999999996e-30,2.6046799999999999e-30,-3.6923899999999999e-30
2707.0,4.0676899999999998e-29,-7.9878300000000006e-26,-7.9917100000000002e-26,-7.9882400000000003e-26,-8.2270799999999997e-30,3.32724e-30,-4.2509399999999999e-30
2708.0,3.9061599999999998e-29,-7.9879000000000003e-26,-7.9915400000000002e-26,-7.9882400000000003e-26,-7.7131800000000003e-30,4.1242799999999998e-30,-5.1651500000000002e-30
2709.0,3.6279299999999998e-29,-7.9880000000000006e-26,-7.9912400000000005e-26,-7.9881800000000004e-26,-6.9358800000000007e-30,4.4591699999999999e-30,-6.2553399999999999e-30
2710.0,5.5667900000000006e-29,-7.9866899999999995e-26,-7.9923800000000005e-26,-7.9872999999999998e-26,-7.3747999999999993e-30,5.2171000000000003e-31,8.5477499999999992e-31
2711.0,5.48634e-29,-7.9866400000000005e-26,-7.9922399999999998e-26,-7.98729e-26,-7.9232400000000003e-30,1.16382e-30,8.3837800000000001e-31
2712.0,5.3912099999999997e-29,-7.9865599999999998e-26,-7.9920400000000004e-26,-7.9872399999999999e-26,-8.4642900000000006e-30,1.9543700000000001e-30,7.6481899999999998e-31
2713.0,5.27773e-29,-7.9864999999999999e-26,-7.9918200000000003e-26,-7.9871600000000003e-26,-8.9345800000000007e-30,2.86012e-30,5.3379399999999998e-31
2714.0,5.1214100000000003e-29,-7.9864999999999999e-26,-7.9915800000000006e-26,-7.9870799999999996e-26,-9.2636300000000006e-30,3.9302600000000001e-30,8.1291000000000002e-32
2715.0,4.8754e-29,-7.9865699999999996e-26,-7.9913100000000003e-26,-7.9870400000000005e-26,-9.23576e-30,4.9542100000000003e-30,-8.0250300000000005e-31
2716.0,4.5658199999999999e-29,-7.9867999999999996e-26,-7.9910999999999999e-26,-7.9870699999999998e-26,-8.6507000000000006e-30,5.7369800000000002e-30,-2.5004500000000001e-30
2717.0,6.8924599999999998e-29,-7.98536e-26,-7.9924500000000002e-26,-7.9860999999999999e-26,-6.3001100000000001e-30,2.96525e-31,5.0370299999999999e-30
2718.0,6.8304700000000004e-29,-7.9852699999999995e-26,-7.9922800000000002e-26,-7.9860800000000003e-26,-7.4157899999999998e-30,1.07888e-30,5.3782200000000003e-30
2719.0,6.7711499999999998e-29,-7.9851700000000004e-26,-7.9920699999999998e-26,-7.9860200000000004e-26,-8.5782400000000005e-30,2.1620599999999999e-30,5.7079200000000003e-30
2720.0,6.67339e-29,-7.9850899999999997e-26,-7.9918200000000003e-26,-7.9859399999999997e-26,-9.7996199999999996e-30,3.3876200000000001e-30,5.7276000000000001e-30
2721.0,6.5017900000000002e-29,-7.9850700000000001e-26,-7.9915099999999997e-26,-7.9858399999999994e-26,-1.08344e-29,4.7985400000000002e-30,5.3920699999999999e-30
2722.0,6.2285699999999996e-29,-7.98519e-26,-7.9912400000000005e-26,-7.9858199999999999e-26,-1.14684e-29,6.1645899999999998e-30,4.3443999999999999e-30
2723.0,5.7503399999999996e-29,-7.9853900000000005e-26,-7.9908199999999998e-26,-7.9858199999999999e-26,-1.1554800000000001e-29,7.1916299999999998e-30,2.64694e-30
2724.0,8.5055899999999996e-29,-7.9839700000000005e-26,-7.9926600000000005e-26,-7.9848699999999995e-26,-5.4173700000000001e-30,3.3714500000000001e-32,9.9029500000000004e-30
2725.0,8.4977700000000001e-29,-7.9838499999999995e-26,-7.9925000000000003e-26,-7.9848300000000003e-26,-7.1353999999999999e-30,1.1290300000000001e-30,1.0726900000000001e-29
2726.0,8.4999000000000003e-29,-7.9837000000000002e-26,-7.9922700000000004e-26,-7.9847399999999999e-26,-9.1408300000000005e-30,2.4848799999999999e-30,1.15164e-29
2727.0,8.4356599999999995e-29,-7.9835900000000001e-26,-7.9919699999999996e-26,-7.9846399999999996e-26,-1.1234599999999999e-29,4.1421500000000002e-30,1.19838e-29
2728.0,8.2651100000000005e-29,-7.9835900000000001e-26,-7.9916299999999995e-26,-7.9845699999999999e-26,-1.3177500000000001e-29,5.9793299999999999e-30,1.1854399999999999e-29
2729.0,7.9235200000000005e-29,-7.9837000000000002e-26,-7.99121e-26,-7.9845199999999997e-26,-1.4658e-29,7.7923200000000005e-30,1.07901e-29
2730.0,7.3774799999999999e-29,-7.98405e-26,-7.9908500000000004e-26,-7.9845899999999995e-26,-1.5155500000000001e-29,9.1855199999999996e-30,8.5200700000000003e-30
2731.0,1.0306399999999999e-28,-7.9825899999999997e-26,-7.9930000000000006e-26,-7.9836500000000001e-26,-4.7733700000000002e-30,-8.3018800000000003e-32,1.51922e-29
2732.0,1.0395300000000001e-28,-7.9824099999999999e-26,-7.9928500000000001e-26,-7.9835700000000005e-26,-7.09276e-30,1.1773e-30,1.66378e-29
2733.0,1.0516100000000001e-28,-7.9821700000000001e-26,-7.9926200000000002e-26,-7.9834299999999999e-26,-9.9646900000000004e-30,2.89896e-30,1.80981e-29
2734.0,1.05478e-28,-7.9820400000000005e-26,-7.9923200000000005e-26,-7.9833199999999999e-26,-1.32383e-29,5.06067e-30,1.9212200000000001e-29
2735.0,1.0396800000000001e-28,-7.9820199999999997e-26,-7.99189e-26,-7.9832199999999996e-26,-1.6354400000000001e-29,7.4766900000000006e-30,1.9391e-29
2736.0,1.00256e-28,-7.9822200000000003e-26,-7.9914399999999999e-26,-7.9832199999999996e-26,-1.8890599999999999e-29,9.8793499999999995e-30,1.8265599999999999e-29
2737.0,9.3498200000000004e-29,-7.9825500000000005e-26,-7.9908299999999996e-26,-7.9832500000000001e-26,-2.0456900000000001e-29,1.17563e-29,1.5822299999999999e-29
2738.0,1.19961e-28,-7.98138e-26,-7.9934000000000005e-26,-7.9825799999999999e-26,-4.4674499999999997e-30,-2.0360199999999998e-31,1.9771700000000001e-29
2739.0,1.22979e-28,-7.9811099999999997e-26,-7.9933199999999998e-26,-7.9824199999999997e-26,-7.1646100000000005e-30,1.1637599999999999e-30,2.2188899999999999e-29
2740.0,1.2616699999999999e-28,-7.9807599999999999e-26,-7.9931300000000002e-26,-7.9822100000000005e-26,-1.1017200000000001e-29,3.2955599999999999e-30,2.4586200000000001e-29
2741.0,1.27776e-28,-7.9805600000000005e-26,-7.9928099999999998e-26,-7.9820600000000001e-26,-1.56138e-29,5.9554500000000002e-30,2.6328100000000001e-29
2742.0,1.2684200000000001e-28,-7.9805600000000005e-26,-7.9923499999999999e-26,-7.98195e-26,-2.0162999999999999e-29,9.0447699999999995e-30,2.69325e-29
2743.0,1.22653e-28,-7.9807900000000005e-26,-7.9917600000000004e-26,-7.98195e-26,-2.3909300000000001e-29,1.2075e-29,2.5872499999999998e-29
2744.0,1.1524599999999999e-28,-7.9812500000000004e-26,-7.9910999999999999e-26,-7.9819900000000003e-26,-2.6266899999999999e-29,1.4387400000000001e-29,2.2861700000000001e-29
2745.0,1.51063e-28,-7.9792000000000005e-26,-7.9913100000000003e-26,-7.9803500000000002e-26,-3.6860499999999998e-29,2.0245899999999999e-29,3.6946900000000002e-29
2746.0,1.9299e-28,-7.9775600000000003e-26,-7.9923200000000005e-26,-7.97837e-26,-5.0942700000000001e-29,2.5320200000000002e-29,4.7925600000000001e-29
2747.0,2.4655799999999998e-28,-7.9758100000000001e-26,-7.9940400000000002e-26,-7.9755200000000002e-26,-7.04045e-29,2.8987099999999999e-29,5.6631700000000003e-29
2748.0,3.0662099999999999e-28,-7.9742499999999995e-26,-7.9964599999999995e-26,-7.9721299999999998e-26,-9.4738599999999998e-29,3.0037699999999998e-29,5.7403899999999998e-29
2749.0,3.6540499999999998e-28,-7.9730100000000004e-26,-7.9991500000000003e-26,-7.9685499999999998e-26,-1.2091299999999999e-28,2.42044e-29,4.4317399999999998e-29
2750.0,4.0825999999999999e-28,-7.9722999999999998e-26,-8.0012000000000002e-26,-7.9659499999999996e-26,-1.41168e-28,1.02076e-29,1.4584999999999999e-29
2751.0,4.2314799999999999e-28,-7.9720600000000001e-26,-8.0015699999999996e-26,-7.9653099999999999e-26,-1.47586e-28,-9.4996399999999995e-30,-2.5053799999999999e-29
2752.0,1.6264700000000001e-28,-7.9783399999999995e-26,-7.9922100000000004e-26,-7.9802699999999995e-26,-3.3130400000000002e-29,1.6970099999999999e-29,4.2285800000000001e-29
2753.0,2.0880900000000001e-28,-7.9763200000000001e-26,-7.9936599999999998e-26,-7.9780800000000001e-26,-4.4916700000000003e-29,2.0736100000000001e-29,5.4556200000000005e-29
2754.0,2.6694000000000002e-28,-7.9741299999999996e-26,-7.9960499999999998e-26,-7.9752099999999996e-26,-6.1160099999999999e-29,2.40209e-29,6.4608900000000003e-29
2755.0,3.3422099999999998e-28,-7.9718399999999999e-26,-7.9993700000000004e-26,-7.9714900000000001e-26,-8.1706899999999999e-29,2.4546099999999999e-29,6.5981999999999997e-29
2756.0,4.0024000000000002e-28,-7.9697999999999998e-26,-8.00314e-26,-7.9675999999999995e-26,-1.0353e-28,1.98933e-29,5.1140100000000004e-29
2757.0,4.4978700000000003e-28,-7.9684499999999996e-26,-8.00615e-26,-7.9647700000000005e-26,-1.21055e-28,8.2208899999999996e-30,1.64192e-29
2758.0,4.69467e-28,-7.9677599999999997e-26,-8.0067999999999995e-26,-7.9638700000000003e-26,-1.2711e-28,-7.5083899999999999e-30,-2.9663499999999999e-29
2759.0,1.69413e-28,-7.9778099999999998e-26,-7.9930800000000001e-26,-7.9802300000000003e-26,-2.6352999999999999e-29,1.2068e-29,4.4598000000000001e-29
2760.0,2.1621500000000001e-28,-7.9755999999999997e-26,-7.9948400000000001e-26,-7.9780700000000003e-26,-3.41974e-29,1.4315999999999999e-29,5.6957299999999999e-29
2761.0,2.7558399999999999e-28,-7.9730100000000004e-26,-7.9976100000000004e-26,-7.9750899999999997e-26,-4.4452200000000002e-29,1.59765e-29,6.6950400000000005e-29
2762.0,3.4330300000000002e-28,-7.9702900000000003e-26,-8.0014399999999999e-26,-7.9713999999999997e-26,-5.6828799999999997e-29,1.5946100000000001e-29,6.7653099999999995e-29
2763.0,4.0935799999999996e-28,-7.9677900000000003e-26,-8.0056900000000001e-26,-7.9675700000000001e-26,-6.9639999999999996e-29,1.28634e-29,5.1687300000000005e-29
2764.0,4.5879900000000003e-28,-7.9660599999999997e-26,-8.0091099999999999e-26,-7.9648300000000004e-26,-7.9411400000000001e-29,5.7648200000000003e-30,1.58335e-29
2765.0,4.8039700000000001e-28,-7.9651399999999999e-26,-8.0099699999999997e-26,-7.9638899999999999e-26,-8.3605499999999999e-29,-3.5479199999999999e-30,-3.16356e-29
2766.0,1.69725e-28,-7.9777699999999995e-26,-7.99371e-26,-7.9803299999999994e-26,-1.78805e-29,6.9401599999999996e-30,4.3608400000000002e-29
2767.0,2.1421299999999998e-28,-7.9755200000000002e-26,-7.9955399999999997e-26,-7.9781800000000004e-26,-2.0956399999999999e-29,7.5462799999999993e-30,5.4650600000000003e-29
2768.0,2.6842700000000002e-28,-7.9729899999999997e-26,-7.9982799999999995e-26,-7.9754100000000001e-26,-2.4134400000000001e-29,7.6030400000000006e-30,6.2494099999999995e-29
2769.0,3.2893700000000002e-28,-7.9703099999999999e-26,-8.0018800000000002e-26,-7.9720500000000003e-26,-2.7087399999999999e-29,7.1170399999999995e-30,6.1483400000000002e-29
2770.0,3.8705600000000001e-28,-7.9679199999999999e-26,-8.0058299999999996e-26,-7.9687100000000001e-26,-2.9577299999999998e-29,5.7327500000000003e-30,4.58703e-29
2771.0,4.3042399999999996e-28,-7.9662000000000003e-26,-8.0088600000000004e-26,-7.9662500000000004e-26,-3.1094799999999999e-29,3.5808399999999997e-30,1.2946199999999999e-29
2772.0,4.4906599999999996e-28,-7.9653299999999995e-26,-8.0096500000000005e-26,-7.9654100000000002e-26,-3.1538099999999999e-29,7.5463400000000003e-31,-2.9402800000000002e-29
2773.0,1.6472100000000001e-28,-7.9781499999999999e-26,-7.9940300000000004e-26,-7.9804999999999994e-26,-9.5952799999999995e-30,2.4721399999999999e-30,3.9943500000000002e-29
2774.0,2.03031e-28,-7.9761500000000001e-26,-7.9956700000000006e-26,-7.9785599999999996e-26,-8.5842499999999999e-30,1.8030899999999999e-30,4.8326200000000001e-29
2775.0,2.47986e-28,-7.9739700000000005e-26,-7.99797e-26,-7.9761199999999996e-26,-6.05482e-30,1.1378800000000001e-30,5.3128399999999995e-29
2776.0,2.9610200000000002e-28,-7.9718499999999997e-26,-8.0008799999999997e-26,-7.9733799999999998e-26,-2.0992299999999999e-30,6.0522799999999996e-31,5.0211399999999999e-29
2777.0,3.4127699999999998e-28,-7.9699299999999995e-26,-8.0038500000000006e-26,-7.9706900000000002e-26,2.85258e-30,7.4025500000000003e-31,3.6001299999999999e-29
2778.0,3.73968e-28,-7.9686400000000003e-26,-8.0060499999999997e-26,-7.96877e-26,6.9558599999999999e-30,2.18594e-30,9.1373899999999995e-30
2779.0,3.8777200000000001e-28,-7.9679799999999999e-26,-8.0065400000000002e-26,-7.9680800000000002e-26,8.1954900000000006e-30,3.6595600000000003e-30,-2.4406499999999999e-29
2780.0,1.5550799999999999e-28,-7.9788899999999998e-26,-7.9941000000000001e-26,-7.98087e-26,-2.9547099999999998e-30,-7.5365500000000004e-31,3.4767099999999999e-29
2781.0,1.85565e-28,-7.97729e-26,-7.9953599999999999e-26,-7.9791899999999995e-26,4.63041e-31,-1.7108099999999998e-30,4.0157999999999999e-29
2782.0,2.1910699999999999e-28,-7.9756900000000002e-26,-7.99706e-26,-7.9772300000000001e-26,5.8895200000000001e-30,-2.6516699999999999e-30,4.1993500000000001e-29
2783.0,2.5410199999999998e-28,-7.9742100000000003e-26,-7.9991000000000001e-26,-7.9751399999999998e-26,1.29321e-29,-2.8290999999999999e-30,3.7925999999999998e-29
2784.0,2.8514099999999998e-28,-7.9729700000000001e-26,-8.0010200000000004e-26,-7.9731900000000002e-26,2.04782e-29,-1.64432e-30,2.5649600000000002e-29
2785.0,3.07124e-28,-7.9721399999999996e-26,-8.0023499999999999e-26,-7.9718399999999999e-26,2.62083e-29,1.4687499999999999e-30,5.6848599999999999e-30
2786.0,3.1643500000000001e-28,-7.9717600000000004e-26,-8.00263e-26,-7.9713600000000005e-26,2.8777399999999999e-29,5.2298e-30,-1.84403e-29
2787.0,1.43979e-28,-7.9797700000000004e-26,-7.9939599999999995e-26,-7.9813899999999998e-26,1.01285e-30,-2.50793e-30,2.9402700000000001e-29
2788.0,1.6364500000000001e-28,-7.97877e-26,-7.9948099999999996e-26,-7.98019e-26,5.0146099999999997e-30,-3.3546099999999999e-30,3.1611200000000001e-29
2789.0,1.86676e-28,-7.9777400000000001e-26,-7.9959499999999995e-26,-7.97871e-26,1.09428e-29,-4.13297e-30,3.1334699999999999e-29
2790.0,2.1023900000000001e-28,-7.9767499999999995e-26,-7.9971999999999995e-26,-7.9771500000000006e-26,1.8024400000000001e-29,-3.6847300000000003e-30,2.6763599999999997e-29
2791.0,2.3025100000000002e-28,-7.9760200000000004e-26,-7.99831e-26,-7.9757599999999999e-26,2.4841200000000001e-29,-1.8507299999999999e-30,1.7009600000000001e-29
2792.0,2.4398899999999999e-28,-7.9755499999999996e-26,-7.9990300000000004e-26,-7.9748699999999996e-26,3.0140200000000003e-29,1.28769e-30,2.89645e-30
2793.0,2.4949100000000001e-28,-7.9753299999999995e-26,-7.9991000000000001e-26,-7.9745199999999997e-26,3.2181299999999998e-29,5.5069700000000001e-30,-1.3645899999999999e-29
2794.0,1.38636e-28,-7.9800399999999996e-26,-7.9914800000000003e-26,-7.9807400000000003e-26,-3.3548100000000002e-29,1.68913e-29,2.9695799999999998e-29
2795.0,1.65366e-28,-7.9789300000000002e-26,-7.9922800000000002e-26,-7.9791600000000001e-26,-4.20561e-29,1.8240499999999999e-29,3.4261300000000001e-29
2796.0,1.9807499999999999e-28,-7.9777699999999995e-26,-7.9934700000000002e-26,-7.9772800000000002e-26,-5.3556600000000004e-29,1.91064e-29,3.70162e-29
2797.0,2.3365300000000001e-28,-7.97661e-26,-7.9949699999999998e-26,-7.9750299999999998e-26,-6.6703000000000004e-29,1.7262900000000001e-29,3.4089099999999999e-29
2798.0,2.6424000000000001e-28,-7.9757099999999998e-26,-7.9964399999999999e-26,-7.9730800000000001e-26,-7.8744500000000004e-29,1.27195e-29,2.3519099999999999e-29
2799.0,2.85161e-28,-7.9751200000000002e-26,-7.9974199999999996e-26,-7.9717299999999999e-26,-8.7023199999999994e-29,4.7971800000000003e-30,5.5685200000000002e-30
2800.0,2.9377799999999998e-28,-7.9748400000000002e-26,-7.9975899999999996e-26,-7.9713299999999999e-26,-9.0292999999999998e-29,-4.2189099999999999e-30,-1.6512800000000001e-29
2801.0,1.4653300000000001e-28,-7.9795099999999999e-26,-7.9923499999999999e-26,-7.9806599999999997e-26,-2.9706799999999999e-29,1.3823100000000001e-29,3.2212900000000001e-29
2802.0,1.73369e-28,-7.9783199999999999e-26,-7.9933199999999998e-26,-7.9791799999999997e-26,-3.6509300000000002e-29,1.4946700000000001e-29,3.70487e-29
2803.0,2.0761899999999998e-28,-7.9768800000000003e-26,-7.99479e-26,-7.9771600000000004e-26,-4.5503400000000001e-29,1.5183200000000001e-29,3.9202000000000001e-29
2804.0,2.4403700000000001e-28,-7.9754600000000003e-26,-7.9966000000000001e-26,-7.97496e-26,-5.5615600000000001e-29,1.38597e-29,3.6118400000000002e-29
2805.0,2.77911e-28,-7.9742299999999999e-26,-7.9984499999999995e-26,-7.9728400000000004e-26,-6.5441400000000004e-29,1.01783e-29,2.49798e-29
2806.0,3.0238000000000001e-28,-7.9732900000000005e-26,-7.9997200000000002e-26,-7.9713100000000003e-26,-7.2492599999999998e-29,4.1802700000000001e-30,6.0308599999999999e-30
2807.0,3.1644899999999999e-28,-7.9728400000000004e-26,-8.0002699999999994e-26,-7.9707400000000004e-26,-7.6604899999999999e-29,-3.4343799999999997e-30,-1.8670399999999999e-29
2808.0,1.50439e-28,-7.9792399999999997e-26,-7.99303e-26,-7.9806900000000002e-26,-2.4453799999999999e-29,1.02039e-29,3.3137e-29
2809.0,1.77481e-28,-7.9779199999999999e-26,-7.9941199999999997e-26,-7.9791699999999999e-26,-2.91052e-29,1.08431e-29,3.7552500000000001e-29
2810.0,2.1100400000000002e-28,-7.9764099999999994e-26,-7.9957500000000001e-26,-7.9772399999999999e-26,-3.4998200000000002e-29,1.08295e-29,3.9304700000000002e-29
2811.0,2.4745499999999998e-28,-7.9747999999999998e-26,-7.9976999999999997e-26,-7.9750399999999996e-26,-4.1481499999999998e-29,9.8782800000000004e-30,3.58447e-29
2812.0,2.8152e-28,-7.9733899999999996e-26,-7.9997399999999998e-26,-7.9729799999999999e-26,-4.7471100000000003e-29,7.2076100000000004e-30,2.4677400000000001e-29
2813.0,3.0785399999999998e-28,-7.9722100000000005e-26,-8.00121e-26,-7.9713800000000001e-26,-5.1908600000000002e-29,3.2548299999999997e-30,5.4679599999999997e-30
2814.0,3.2411800000000002e-28,-7.9715300000000005e-26,-8.0019499999999999e-26,-7.9707099999999998e-26,-5.4112999999999995e-29,-1.8014199999999998e-30,-1.96243e-29
2815.0,1.5059299999999999e-28,-7.9792200000000001e-26,-7.9935499999999998e-26,-7.9808100000000001e-26,-1.80682e-29,6.5577699999999996e-30,3.1972099999999997e-29
2816.0,1.75894e-28,-7.9779399999999995e-26,-7.9946600000000003e-26,-7.9793900000000001e-26,-2.03115e-29,6.6670800000000007e-30,3.5645400000000001e-29
2817.0,2.0723e-28,-7.9763999999999996e-26,-7.9962400000000005e-26,-7.9775500000000005e-26,-2.2853500000000001e-29,6.5565900000000004e-30,3.6733e-29
2818.0,2.4095899999999998e-28,-7.97485e-26,-7.9981599999999996e-26,-7.9755399999999998e-26,-2.52382e-29,5.72193e-30,3.3024599999999998e-29
2819.0,2.7255199999999998e-28,-7.9734200000000002e-26,-8.0000799999999998e-26,-7.9736099999999998e-26,-2.6826e-29,4.3932699999999997e-30,2.2046699999999999e-29
2820.0,2.9669200000000002e-28,-7.9722800000000002e-26,-8.0014999999999998e-26,-7.97218e-26,-2.7481900000000001e-29,2.3509199999999999e-30,4.2749799999999997e-30
2821.0,3.1427900000000001e-28,-7.9714499999999998e-26,-8.0023200000000005e-26,-7.97144e-26,-2.7726500000000002e-29,-2.65933e-33,-1.9237599999999999e-29
2822.0,1.46788e-28,-7.9795299999999995e-26,-7.9938399999999997e-26,-7.9810700000000006e-26,-1.17528e-29,3.34554e-30,2.93519e-29
2823.0,1.6919199999999999e-28,-7.9783299999999997e-26,-7.9948400000000001e-26,-7.9797599999999995e-26,-1.17332e-29,3.2413200000000001e-30,3.20687e-29
2824.0,1.96339e-28,-7.9769900000000003e-26,-7.9962600000000001e-26,-7.9781499999999999e-26,-1.13327e-29,2.91423e-30,3.2299799999999998e-29
2825.0,2.25222e-28,-7.9755999999999997e-26,-7.9978900000000005e-26,-7.9763700000000002e-26,-1.00877e-29,2.40811e-30,2.8241199999999998e-29
2826.0,2.5150200000000001e-28,-7.9743999999999999e-26,-7.9994900000000003e-26,-7.9747599999999995e-26,-8.2033699999999999e-30,2.0180999999999999e-30,1.8207e-29
2827.0,2.72182e-28,-7.9734100000000004e-26,-8.0006599999999996e-26,-7.9735200000000004e-26,-6.0907100000000001e-30,1.76824e-30,2.7613600000000001e-30
2828.0,2.8680899999999998e-28,-7.97269e-26,-8.0012699999999999e-26,-7.9728199999999997e-26,-3.4416200000000002e-30,1.9308599999999999e-30,-1.7285100000000001e-29
2829.0,1.4055700000000001e-28,-7.9799900000000006e-26,-7.9939100000000005e-26,-7.9813899999999998e-26,-6.5966200000000007e-30,9.4883199999999995e-31,2.5906500000000002e-29
2830.0,1.58849e-28,-7.9790099999999997e-26,-7.99473e-26,-7.9802900000000002e-26,-4.9699799999999997e-30,5.3295299999999996e-31,2.7584099999999997e-29
2831.0,1.8090300000000001e-28,-7.9779399999999995e-26,-7.9958799999999998e-26,-7.97894e-26,-2.4345900000000001e-30,2.35497e-31,2.71462e-29
2832.0,2.0385800000000001e-28,-7.9768399999999999e-26,-7.9971500000000005e-26,-7.9774799999999996e-26,9.4546300000000004e-31,5.6899400000000004e-32,2.2871e-29
2833.0,2.2468600000000002e-28,-7.9758899999999996e-26,-7.9983500000000004e-26,-7.9761699999999997e-26,4.8121300000000002e-30,6.1532600000000002e-31,1.4252700000000001e-29
2834.0,2.4060999999999999e-28,-7.9751800000000002e-26,-7.9991799999999997e-26,-7.9751499999999996e-26,8.5602099999999994e-30,1.59828e-30,1.3825899999999999e-30
2835.0,2.51491e-28,-7.97462e-26,-7.9995400000000004e-26,-7.9745799999999997e-26,1.13966e-29,3.2143499999999999e-30,-1.4817600000000001e-29
2836.0,1.33432e-28,-7.9805100000000004e-26,-7.9938299999999999e-26,-7.9817399999999996e-26,-3.2981099999999998e-30,-3.4977800000000001e-31,2.25545e-29
2837.0,1.47212e-28,-7.9798300000000004e-26,-7.9944800000000005e-26,-7.9808799999999998e-26,-9.7592799999999999e-31,-8.0593100000000003e-31,2.3306499999999999e-29
2838.0,1.6424499999999999e-28,-7.9790099999999997e-26,-7.9953599999999999e-26,-7.9797999999999998e-26,2.4144500000000001e-30,-1.1187e-30,2.2021300000000001e-29
2839.0,1.8211300000000001e-28,-7.9781800000000004e-26,-7.9963000000000005e-26,-7.9786099999999998e-26,6.7513400000000006e-30,-9.5958800000000008e-31,1.80668e-29
2840.0,1.9829200000000001e-28,-7.97746e-26,-7.9971500000000005e-26,-7.9775600000000003e-26,1.12302e-29,4.9554300000000004e-32,1.07253e-29
2841.0,2.1028600000000002e-28,-7.97695e-26,-7.9976999999999997e-26,-7.9767200000000001e-26,1.49799e-29,1.86976e-30,1.5969200000000001e-31
2842.0,2.1718900000000002e-28,-7.9766299999999996e-26,-7.9978400000000003e-26,-7.9763200000000001e-26,1.8389199999999999e-29,3.9473200000000003e-30,-1.2213e-29
2843.0,4.2340500000000001e-29,-7.9886900000000004e-26,-7.9926399999999998e-26,-7.9887299999999996e-26,-8.7732200000000005e-30,1.6305500000000001e-30,-1.2866199999999999e-30
2844.0,4.3873400000000003e-29,-7.9886099999999997e-26,-7.9927499999999999e-26,-7.9887199999999998e-26,-8.7772800000000003e-30,1.25058e-30,-2.2948100000000001e-30
2845.0,4.2299500000000001e-29,-7.9884200000000001e-26,-7.9923800000000005e-26,-7.9884200000000001e-26,-8.47651e-30,8.6191599999999992e-31,-1.5481999999999999e-30
2846.0,4.3341399999999999e-29,-7.9884299999999999e-26,-7.9924699999999998e-26,-7.9884999999999997e-26,-9.0237999999999995e-30,5.8642799999999999e-31,-2.9380999999999998e-30
2847.0,3.9207399999999998e-29,-7.98837e-26,-7.9919400000000002e-26,-7.9882400000000003e-26,-8.3519399999999996e-30,2.3629500000000002e-31,-1.35078e-30
2848.0,4.03638e-29,-7.9885300000000002e-26,-7.9921399999999996e-26,-7.9884499999999995e-26,-9.1503899999999998e-30,1.521e-31,-3.8437199999999999e-30
2849.0,3.1292899999999997e-29,-7.9886400000000003e-26,-7.9912699999999999e-26,-7.9882099999999998e-26,-7.1163100000000004e-30,-6.2330599999999998e-31,-3.6418899999999999e-31
2850.0,4.3348199999999999e-29,-7.9887699999999999e-26,-7.9928599999999999e-26,-7.9888700000000002e-26,-8.6386699999999997e-30,1.39941e-30,-2.1580000000000001e-30
2851.0,4.3149399999999999e-29,-7.9885300000000002e-26,-7.9926200000000002e-26,-7.9886199999999995e-26,-8.3997299999999997e-30,1.1886000000000001e-30,-1.78929e-30
2852.0,4.3736799999999999e-29,-7.9885200000000004e-26,-7.99263e-26,-7.9885900000000001e-26,-8.6596399999999997e-30,9.5362700000000007e-31,-2.56851e-30
2853.0,4.1853099999999999e-29,-7.9883500000000004e-26,-7.9922700000000004e-26,-7.98837e-26,-8.36158e-30,8.3548199999999998e-31,-1.90918e-30
2854.0,4.1773600000000002e-29,-7.9884700000000003e-26,-7.9922800000000002e-26,-7.9884200000000001e-26,-8.9784300000000004e-30,7.7575e-31,-3.0917899999999999e-30
2855.0,3.6978800000000002e-29,-7.9884200000000001e-26,-7.99178e-26,-7.98831e-26,-7.9334500000000004e-30,2.8382100000000001e-31,-1.9943499999999999e-30
2856.0,3.7900899999999998e-29,-7.9884999999999997e-26,-7.9918700000000004e-26,-7.9883399999999994e-26,-8.12213e-30,1.3411499999999999e-30,-3.5920000000000001e-30
2857.0,4.2663700000000002e-29,-7.9887000000000002e-26,-7.9927599999999997e-26,-7.9888600000000004e-26,-8.4770000000000001e-30,1.21441e-30,-2.0679800000000001e-30
2858.0,4.3296200000000003e-29,-7.9886500000000001e-26,-7.9927499999999999e-26,-7.9887699999999999e-26,-8.5444000000000003e-30,1.0949e-30,-2.5123700000000001e-30
2859.0,4.2433400000000001e-29,-7.9884700000000003e-26,-7.9925000000000003e-26,-7.9885900000000001e-26,-8.2793200000000002e-30,1.1246e-30,-2.1517900000000001e-30
2860.0,4.2341700000000002e-29,-7.9885099999999994e-26,-7.9924500000000002e-26,-7.9885499999999998e-26,-8.7470200000000006e-30,1.15393e-30,-2.78647e-30
2861.0,3.9574999999999998e-29,-7.9884299999999999e-26,-7.9921000000000004e-26,-7.9884299999999999e-26,-8.1577800000000004e-30,1.02577e-30,-2.40508e-30
2862.0,3.9079899999999999e-29,-7.9885099999999994e-26,-7.9920299999999995e-26,-7.9884299999999999e-26,-8.4978500000000006e-30,1.6992e-30,-3.3410499999999998e-30
2863.0,3.3740899999999999e-29,-7.9886300000000005e-26,-7.9915699999999996e-26,-7.9883799999999998e-26,-7.4067299999999998e-30,1.07217e-30,-2.8172699999999999e-30
2864.0,4.2240200000000001e-29,-7.9888299999999999e-26,-7.9928199999999996e-26,-7.9889999999999999e-26,-8.6740599999999997e-30,9.9877300000000006e-31,-2.8732299999999999e-30
2865.0,4.1883500000000001e-29,-7.9886400000000003e-26,-7.9926399999999998e-26,-7.9888499999999995e-26,-8.4130300000000002e-30,1.16551e-30,-2.52707e-30
2866.0,4.1822799999999998e-29,-7.9886300000000005e-26,-7.9925700000000001e-26,-7.9887600000000001e-26,-8.5672999999999999e-30,1.24881e-30,-2.87816e-30
2867.0,4.0240599999999999e-29,-7.9885099999999994e-26,-7.9922999999999998e-26,-7.9886400000000003e-26,-8.2555299999999993e-30,1.383e-30,-2.7419299999999999e-30
2868.0,3.9479100000000002e-29,-7.9885700000000005e-26,-7.9921999999999995e-26,-7.9886099999999997e-26,-8.4927499999999995e-30,1.85717e-30,-3.3179500000000003e-30
2869.0,3.6172400000000001e-29,-7.9885999999999999e-26,-7.9918599999999995e-26,-7.9885200000000004e-26,-7.7195299999999997e-30,1.6669999999999999e-30,-3.2828599999999997e-30
2870.0,3.5345700000000001e-29,-7.9886699999999997e-26,-7.99178e-26,-7.9885300000000002e-26,-7.4090699999999999e-30,2.41472e-30,-4.21989e-30
2871.0,4.0903099999999997e-29,-7.9888200000000001e-26,-7.9927099999999995e-26,-7.98911e-26,-8.7814700000000003e-30,1.0875900000000001e-30,-3.1714600000000003e-30
2872.0,4.0820300000000001e-29,-7.9888000000000005e-26,-7.9926499999999996e-26,-7.9890099999999997e-26,-8.6836800000000002e-30,1.1541200000000001e-30,-3.3335099999999998e-30
2873.0,3.9775099999999999e-29,-7.9886799999999995e-26,-7.9924400000000004e-26,-7.9889100000000006e-26,-8.3868500000000003e-30,1.4730800000000001e-30,-3.24806e-30
2874.0,3.91393e-29,-7.9886900000000004e-26,-7.9923300000000003e-26,-7.9888399999999997e-26,-8.4853400000000003e-30,1.84021e-30,-3.5836000000000001e-30
2875.0,3.6925100000000001e-29,-7.9886799999999995e-26,-7.9920699999999998e-26,-7.9887600000000001e-26,-7.9077699999999997e-30,1.9797699999999999e-30,-3.7460200000000001e-30
2876.0,3.5839100000000001e-29,-7.9887199999999998e-26,-7.9919300000000004e-26,-7.9887400000000005e-26,-7.7975799999999995e-30,2.5874799999999999e-30,-4.3982999999999998e-30
2877.0,3.2151199999999999e-29,-7.9888200000000001e-26,-7.9916000000000001e-26,-7.9886799999999995e-26,-6.8057099999999998e-30,2.4695299999999999e-30,-4.6552600000000001e-30
2878.0,3.9951599999999998e-29,-7.9889599999999995e-26,-7.9926999999999997e-26,-7.9892399999999996e-26,-9.0257999999999995e-30,9.9557600000000002e-31,-4.0818199999999999e-30
2879.0,3.9052900000000002e-29,-7.9888499999999995e-26,-7.9925299999999997e-26,-7.9891699999999999e-26,-8.70654e-30,1.3796199999999999e-30,-3.9914099999999998e-30
2880.0,3.8451399999999999e-29,-7.9888399999999997e-26,-7.9924199999999996e-26,-7.9891000000000002e-26,-8.6409800000000006e-30,1.6895599999999999e-30,-4.1602400000000003e-30
2881.0,3.6838100000000002e-29,-7.9888100000000003e-26,-7.9922100000000004e-26,-7.9890300000000004e-26,-8.1316299999999996e-30,2.0142700000000001e-30,-4.4283299999999998e-30
2882.0,3.5806200000000002e-29,-7.9888100000000003e-26,-7.99206e-26,-7.9889800000000003e-26,-8.0008099999999994e-30,2.55256e-30,-4.9149700000000003e-30
2883.0,3.3301900000000002e-29,-7.9888899999999998e-26,-7.9918200000000003e-26,-7.9889200000000003e-26,-7.1161099999999999e-30,2.7043800000000002e-30,-5.3382800000000003e-30
2884.0,3.2317599999999999e-29,-7.9889399999999999e-26,-7.9917000000000004e-26,-7.9888999999999996e-26,-6.4710999999999993e-30,3.3083299999999998e-30,-6.16908e-30
2885.0,3.8571099999999999e-29,-7.9889800000000003e-26,-7.9925799999999999e-26,-7.9893800000000002e-26,-9.1226900000000006e-30,1.20209e-30,-4.7780099999999997e-30
2886.0,3.8066000000000002e-29,-7.9889800000000003e-26,-7.9924900000000005e-26,-7.9893200000000003e-26,-9.0301300000000003e-30,1.50233e-30,-4.8655799999999998e-30
2887.0,3.6741700000000001e-29,-7.9889499999999997e-26,-7.9923300000000003e-26,-7.9892899999999998e-26,-8.4974699999999994e-30,1.8053599999999998e-30,-5.2387900000000003e-30
2888.0,3.57604e-29,-7.9889399999999999e-26,-7.9921700000000001e-26,-7.9892299999999998e-26,-8.3387000000000002e-30,2.35315e-30,-5.6023599999999997e-30
2889.0,3.3893300000000001e-29,-7.9889900000000001e-26,-7.9919900000000003e-26,-7.9891899999999995e-26,-7.4943899999999995e-30,2.6973099999999999e-30,-6.1416199999999998e-30
2890.0,3.2819200000000001e-29,-7.9889999999999999e-26,-7.9918200000000003e-26,-7.9891500000000003e-26,-7.0530899999999996e-30,3.2489299999999998e-30,-6.8581899999999993e-30
2891.0,3.0248499999999998e-29,-7.98911e-26,-7.9915699999999996e-26,-7.9891000000000002e-26,-5.9096000000000003e-30,3.3787000000000002e-30,-7.4850799999999999e-30
2892.0,5.5515999999999997e-29,-7.9874000000000001e-26,-7.9928400000000003e-26,-7.9874900000000005e-26,-6.7905399999999994e-30,1.9436199999999998e-30,-2.4089699999999999e-30
2893.0,5.6239000000000002e-29,-7.9871000000000004e-26,-7.9925999999999995e-26,-7.9871600000000003e-26,-7.0455599999999995e-30,1.5193799999999999e-30,-2.35784e-30
2894.0,5.8107000000000004e-29,-7.9870099999999999e-26,-7.9926700000000003e-26,-7.9871100000000002e-26,-8.2692699999999994e-30,1.0150600000000001e-30,-2.9583999999999999e-30
2895.0,5.6959099999999995e-29,-7.9868300000000001e-26,-7.9923099999999996e-26,-7.9868499999999997e-26,-8.6918599999999997e-30,7.8436500000000002e-31,-2.5658800000000001e-30
2896.0,5.6664099999999996e-29,-7.9869199999999994e-26,-7.9922599999999994e-26,-7.9868999999999998e-26,-1.02941e-29,3.5933399999999999e-31,-3.3232000000000001e-30
2897.0,5.3035899999999999e-29,-7.9869099999999996e-26,-7.9918399999999999e-26,-7.98678e-26,-9.9432599999999995e-30,1.7717900000000001e-31,-2.5244899999999999e-30
2898.0,4.8842400000000001e-29,-7.9870000000000001e-26,-7.9914800000000003e-26,-7.9868700000000004e-26,-9.8133399999999998e-30,9.4838499999999999e-31,-3.0370099999999998e-30
2899.0,5.5096700000000003e-29,-7.9873300000000003e-26,-7.9927499999999999e-26,-7.9874299999999995e-26,-6.5678400000000003e-30,1.55544e-30,-1.7793499999999998e-30
2900.0,5.6539399999999997e-29,-7.9872300000000001e-26,-7.9927800000000004e-26,-7.9873300000000003e-26,-7.2617699999999998e-30,1.2416200000000001e-30,-1.94467e-30
2901.0,5.7154400000000005e-29,-7.9869800000000005e-26,-7.9925600000000003e-26,-7.9870799999999996e-26,-7.9022100000000005e-30,1.1338899999999999e-30,-1.9232199999999999e-30
2902.0,5.7193599999999998e-29,-7.9869900000000003e-26,-7.9924900000000005e-26,-7.9870199999999997e-26,-9.0767700000000004e-30,1.00173e-30,-2.15885e-30
2903.0,5.5612099999999995e-29,-7.9868800000000002e-26,-7.9921600000000003e-26,-7.9868599999999995e-26,-9.6368599999999996e-30,8.0443300000000005e-31,-2.0092099999999999e-30
2904.0,5.3439400000000005e-29,-7.9870299999999995e-26,-7.9919800000000005e-26,-7.9868999999999998e-26,-1.01942e-29,1.3263399999999999e-30,-2.6594699999999999e-30
2905.0,4.9084199999999997e-29,-7.9871700000000001e-26,-7.9915400000000002e-26,-7.9867999999999996e-26,-1.02888e-29,7.0694499999999996e-31,-1.35804e-30
2906.0,5.4378000000000001e-29,-7.9874699999999998e-26,-7.9928400000000003e-26,-7.9876100000000004e-26,-6.8060699999999997e-30,1.12344e-30,-1.3982799999999999e-30
2907.0,5.5280100000000002e-29,-7.9872399999999999e-26,-7.9926899999999999e-26,-7.9874000000000001e-26,-7.2634400000000005e-30,1.1422000000000001e-30,-1.41747e-30
2908.0,5.5876800000000003e-29,-7.9871700000000001e-26,-7.9926200000000002e-26,-7.9872800000000002e-26,-8.1229299999999995e-30,1.1822099999999999e-30,-1.3880099999999999e-30
2909.0,5.5564400000000002e-29,-7.9870099999999999e-26,-7.9923900000000003e-26,-7.9871000000000004e-26,-8.8118499999999996e-30,1.22196e-30,-1.4189e-30
2910.0,5.4371099999999995e-29,-7.9870600000000001e-26,-7.9922200000000002e-26,-7.9870600000000001e-26,-9.6301700000000002e-30,1.61555e-30,-1.7255499999999999e-30
2911.0,5.1577700000000004e-29,-7.9870899999999994e-26,-7.9918700000000004e-26,-7.9869599999999998e-26,-9.9262299999999999e-30,1.5146899999999999e-30,-1.5104600000000001e-30
2912.0,4.9491500000000002e-29,-7.9871999999999995e-26,-7.9916899999999995e-26,-7.9869800000000005e-26,-9.8918e-30,2.15869e-30,-2.6849400000000001e-30
2913.0,5.2745200000000003e-29,-7.9875100000000001e-26,-7.9927400000000001e-26,-7.9877400000000001e-26,-7.0689000000000001e-30,9.0666400000000006e-31,-1.2544899999999999e-30
2914.0,5.32748e-29,-7.9874299999999995e-26,-7.9926800000000001e-26,-7.98763e-26,-7.5848700000000001e-30,1.0796200000000001e-30,-1.11576e-30
2915.0,5.3597600000000003e-29,-7.9872499999999997e-26,-7.9925100000000001e-26,-7.9874500000000002e-26,-8.1687700000000001e-30,1.2700499999999999e-30,-1.1093899999999999e-30
2916.0,5.3070000000000004e-29,-7.9872399999999999e-26,-7.9923699999999995e-26,-7.9873699999999995e-26,-8.8295699999999999e-30,1.7005599999999999e-30,-1.15553e-30
2917.0,5.1701299999999997e-29,-7.9871700000000001e-26,-7.9921000000000004e-26,-7.9872300000000001e-26,-9.3269299999999997e-30,1.8922900000000001e-30,-1.247e-30
2918.0,4.97973e-29,-7.9872700000000004e-26,-7.9919099999999996e-26,-7.9872200000000003e-26,-9.60975e-30,2.4946199999999999e-30,-1.8662900000000001e-30
2919.0,4.6054500000000002e-29,-7.9873499999999999e-26,-7.9915099999999997e-26,-7.9871500000000005e-26,-9.5445100000000006e-30,2.51473e-30,-1.8137499999999998e-30
2920.0,5.0566900000000004e-29,-7.9876800000000001e-26,-7.9926899999999999e-26,-7.9879500000000004e-26,-7.5168200000000005e-30,7.7018899999999998e-31,-1.29192e-30
2921.0,5.0881300000000002e-29,-7.9875399999999995e-26,-7.9925700000000001e-26,-7.9878300000000006e-26,-7.86911e-30,1.10551e-30,-1.25468e-30
2922.0,5.0592299999999996e-29,-7.9874799999999996e-26,-7.9924400000000004e-26,-7.9877300000000003e-26,-8.3003899999999998e-30,1.53645e-30,-1.1733999999999999e-30
2923.0,4.99529e-29,-7.9873800000000005e-26,-7.99223e-26,-7.9875999999999995e-26,-8.7370099999999996e-30,1.9046400000000001e-30,-1.27254e-30
2924.0,4.8634500000000002e-29,-7.9874099999999999e-26,-7.9920500000000002e-26,-7.9875399999999995e-26,-9.0635400000000003e-30,2.5269299999999999e-30,-1.5876499999999999e-30
2925.0,4.6282900000000001e-29,-7.9874299999999995e-26,-7.9917500000000006e-26,-7.9874500000000002e-26,-9.1061400000000003e-30,2.84243e-30,-1.87965e-30
2926.0,4.4442099999999997e-29,-7.9875399999999995e-26,-7.9915900000000004e-26,-7.9874299999999995e-26,-8.7688000000000007e-30,3.4902099999999998e-30,-2.8113500000000001e-30
2927.0,4.8574800000000003e-29,-7.9877599999999997e-26,-7.9925799999999999e-26,-7.98814e-26,-7.9562799999999997e-30,8.4564000000000006e-31,-1.7238300000000001e-30
2928.0,4.8134800000000002e-29,-7.9877200000000005e-26,-7.9924699999999998e-26,-7.9880700000000003e-26,-8.1193999999999995e-30,1.2328100000000001e-30,-1.6003799999999999e-30
2929.0,4.7782600000000001e-29,-7.98763e-26,-7.9923200000000005e-26,-7.98797e-26,-8.4441799999999998e-30,1.6913600000000001e-30,-1.6490399999999999e-30
2930.0,4.6764500000000002e-29,-7.9876100000000004e-26,-7.9921500000000005e-26,-7.9879000000000003e-26,-8.6105999999999999e-30,2.3218400000000001e-30,-1.8149500000000001e-30
2931.0,4.5276800000000003e-29,-7.9875799999999999e-26,-7.9919099999999996e-26,-7.9878e-26,-8.7307300000000006e-30,2.7818699999999999e-30,-2.1461500000000001e-30
2932.0,4.35603e-29,-7.9876499999999996e-26,-7.99172e-26,-7.9877599999999997e-26,-8.60135e-30,3.45443e-30,-2.7791799999999999e-30
2933.0,4.0408699999999999e-29,-7.9877099999999995e-26,-7.99138e-26,-7.9876999999999997e-26,-8.2115699999999993e-30,3.8142900000000002e-30,-3.3379300000000002e-30
2934.0,4.6574899999999998e-29,-7.9878799999999996e-26,-7.9925000000000003e-26,-7.98831e-26,-8.2213e-30,9.2000900000000004e-31,-2.14426e-30
2935.0,4.6087500000000001e-29,-7.9878300000000006e-26,-7.9923800000000005e-26,-7.9882699999999997e-26,-8.4099500000000005e-30,1.3543199999999999e-30,-2.2452899999999999e-30
2936.0,4.5133600000000001e-29,-7.9877800000000004e-26,-7.9922200000000002e-26,-7.9882099999999998e-26,-8.4695000000000006e-30,1.8789299999999999e-30,-2.3811500000000001e-30
2937.0,4.3995700000000001e-29,-7.9877499999999999e-26,-7.9920199999999997e-26,-7.9881300000000002e-26,-8.5211199999999994e-30,2.46531e-30,-2.67479e-30
2938.0,4.2650699999999998e-29,-7.9877599999999997e-26,-7.9918399999999999e-26,-7.9880800000000001e-26,-8.4044000000000005e-30,3.2420299999999999e-30,-3.1769699999999997e-30
2939.0,4.0527400000000001e-29,-7.9877900000000002e-26,-7.9915800000000006e-26,-7.9880000000000006e-26,-8.1044000000000005e-30,3.7133699999999998e-30,-3.8226299999999997e-30
2940.0,3.8719699999999998e-29,-7.9879299999999997e-26,-7.9914399999999999e-26,-7.9879899999999996e-26,-7.3635400000000001e-30,4.3507000000000002e-30,-4.8601999999999999e-30
2941.0,7.1029899999999997e-29,-7.9858000000000003e-26,-7.9928500000000001e-26,-7.9858299999999997e-26,-3.7978700000000001e-30,2.2683699999999998e-30,-3.06549e-30
2942.0,7.4230899999999996e-29,-7.9855999999999997e-26,-7.9929799999999998e-26,-7.9857099999999998e-26,-5.5572399999999997e-30,1.6602400000000001e-30,-3.5148499999999999e-30
2943.0,7.6052900000000005e-29,-7.9852800000000004e-26,-7.9928e-26,-7.9853799999999996e-26,-7.2052700000000003e-30,1.33354e-30,-3.52607e-30
2944.0,7.68239e-29,-7.9852400000000001e-26,-7.9927300000000003e-26,-7.9853e-26,-9.80069e-30,7.2534500000000002e-31,-3.8310800000000002e-30
2945.0,7.5543199999999997e-29,-7.9851600000000006e-26,-7.9924099999999999e-26,-7.9851399999999998e-26,-1.14258e-29,5.3007299999999998e-31,-3.6487999999999997e-30
2946.0,7.1656600000000002e-29,-7.9853400000000004e-26,-7.9920400000000004e-26,-7.9851800000000002e-26,-1.2845399999999999e-29,3.7496899999999999e-31,-3.6439600000000003e-30
2947.0,6.6658799999999995e-29,-7.9857099999999998e-26,-7.9916600000000001e-26,-7.9852900000000002e-26,-1.41381e-29,-6.4023099999999998e-31,-3.3862800000000001e-30
2948.0,7.0743800000000002e-29,-7.9859399999999997e-26,-7.9930000000000006e-26,-7.9860099999999995e-26,-4.2029699999999999e-30,1.5513899999999999e-30,-1.6720499999999998e-30
2949.0,7.3223199999999999e-29,-7.9856200000000004e-26,-7.9929199999999999e-26,-7.9857400000000003e-26,-5.6128200000000002e-30,1.40536e-30,-1.77512e-30
2950.0,7.4952700000000001e-29,-7.9854799999999998e-26,-7.9929000000000003e-26,-7.9855800000000001e-26,-7.62315e-30,1.1904000000000001e-30,-1.75808e-30
2951.0,7.5670599999999995e-29,-7.9852599999999997e-26,-7.9926700000000003e-26,-7.9853400000000004e-26,-9.6058000000000004e-30,1.1020600000000001e-30,-1.7708699999999999e-30
2952.0,7.4256000000000002e-29,-7.9853400000000004e-26,-7.99246e-26,-7.9852900000000002e-26,-1.1516499999999999e-29,1.22209e-30,-1.8828799999999998e-30
2953.0,7.1495800000000001e-29,-7.9854000000000003e-26,-7.9920799999999996e-26,-7.9851999999999998e-26,-1.2982699999999999e-29,1.07167e-30,-1.58333e-30
2954.0,6.6656000000000002e-29,-7.9855999999999997e-26,-7.9916699999999999e-26,-7.9853e-26,-1.35116e-29,1.6280200000000001e-30,-2.1175600000000001e-30
2955.0,6.9128000000000004e-29,-7.9859999999999997e-26,-7.9929299999999997e-26,-7.9861400000000003e-26,-4.6455999999999998e-30,1.0941300000000001e-30,-4.5701000000000002e-31
2956.0,7.0931500000000005e-29,-7.9858399999999994e-26,-7.9929299999999997e-26,-7.9859899999999999e-26,-6.0966599999999997e-30,1.1210099999999999e-30,-2.4048199999999999e-31
2957.0,7.2542799999999998e-29,-7.9855899999999999e-26,-7.9927900000000002e-26,-7.9857599999999999e-26,-7.8076399999999996e-30,1.2593200000000001e-30,-2.1076000000000001e-31
2958.0,7.2768800000000002e-29,-7.9855200000000002e-26,-7.9926399999999998e-26,-7.9856099999999995e-26,-9.6745600000000005e-30,1.51445e-30,-7.7409599999999996e-32
2959.0,7.1806899999999995e-29,-7.9854600000000002e-26,-7.9923599999999997e-26,-7.9854600000000002e-26,-1.1319e-29,1.7379300000000001e-30,-6.1001899999999995e-32
2960.0,6.9190600000000003e-29,-7.9855800000000001e-26,-7.99206e-26,-7.9854399999999995e-26,-1.26344e-29,2.22958e-30,-4.4863200000000004e-31
2961.0,6.5405500000000004e-29,-7.9857599999999999e-26,-7.9916500000000003e-26,-7.9853799999999996e-26,-1.35554e-29,2.2575299999999999e-30,-1.63312e-31
2962.0,6.6427599999999997e-29,-7.9862000000000002e-26,-7.9928900000000005e-26,-7.9864200000000004e-26,-5.3595e-30,7.2892400000000002e-31,6.0430599999999997e-31
2963.0,6.7761699999999999e-29,-7.9859999999999997e-26,-7.9928e-26,-7.9862500000000003e-26,-6.6132700000000005e-30,1.02406e-30,6.6545100000000003e-31
2964.0,6.8647700000000004e-29,-7.98587e-26,-7.9926899999999999e-26,-7.9860900000000001e-26,-8.0794300000000004e-30,1.41161e-30,9.5474199999999997e-31
2965.0,6.8857600000000001e-29,-7.9857199999999996e-26,-7.9924799999999996e-26,-7.9859000000000005e-26,-9.6383099999999999e-30,1.8372999999999999e-30,1.0189999999999999e-30
2966.0,6.7648999999999994e-29,-7.9857400000000003e-26,-7.9922599999999994e-26,-7.9858199999999999e-26,-1.10013e-29,2.44526e-30,9.3796599999999992e-31
2967.0,6.5430300000000001e-29,-7.9857799999999995e-26,-7.9919099999999996e-26,-7.9857e-26,-1.21263e-29,2.8645999999999999e-30,8.0001799999999992e-31
2968.0,6.2342699999999996e-29,-7.9859299999999999e-26,-7.9916199999999997e-26,-7.9857e-26,-1.2556e-29,3.57122e-30,-1.0185700000000001e-31
2969.0,6.3190999999999995e-29,-7.9863499999999995e-26,-7.9927400000000001e-26,-7.9866899999999995e-26,-6.0855100000000001e-30,6.1562400000000002e-31,9.9711600000000008e-31
2970.0,6.3771600000000001e-29,-7.9862600000000001e-26,-7.9926600000000005e-26,-7.9865800000000006e-26,-7.1667699999999999e-30,1.0576299999999999e-30,1.2269800000000001e-30
2971.0,6.4305700000000003e-29,-7.9860999999999999e-26,-7.9925100000000001e-26,-7.9864200000000004e-26,-8.3486800000000006e-30,1.6066400000000001e-30,1.38007e-30
2972.0,6.3946900000000004e-29,-7.98604e-26,-7.9923300000000003e-26,-7.9863000000000005e-26,-9.5216299999999995e-30,2.25986e-30,1.51111e-30
2973.0,6.2852799999999998e-29,-7.9859899999999999e-26,-7.99206e-26,-7.9861699999999997e-26,-1.0582899999999999e-29,2.9134199999999999e-30,1.37722e-30
2974.0,6.0792800000000002e-29,-7.9860700000000005e-26,-7.9918100000000005e-26,-7.9861199999999995e-26,-1.13448e-29,3.6550400000000003e-30,8.8084799999999993e-31
2975.0,5.7425499999999998e-29,-7.9861500000000001e-26,-7.9914100000000005e-26,-7.9860300000000002e-26,-1.17495e-29,4.2040400000000003e-30,5.3913599999999999e-31
2976.0,5.9813899999999996e-29,-7.9865400000000002e-26,-7.9926100000000004e-26,-7.9869699999999996e-26,-6.7405100000000003e-30,5.9492499999999996e-31,1.15603e-30
2977.0,6.0127299999999996e-29,-7.98644e-26,-7.9925100000000001e-26,-7.9868800000000002e-26,-7.6334500000000004e-30,1.19026e-30,1.2313000000000001e-30
2978.0,5.98633e-29,-7.9863600000000004e-26,-7.9923499999999999e-26,-7.9867700000000002e-26,-8.4630500000000002e-30,1.8218200000000001e-30,1.41965e-30
2979.0,5.9366299999999999e-29,-7.9862799999999997e-26,-7.9921399999999996e-26,-7.9866500000000003e-26,-9.3680199999999998e-30,2.5890200000000002e-30,1.4107100000000001e-30
2980.0,5.8039499999999995e-29,-7.9862699999999999e-26,-7.9919099999999996e-26,-7.9865699999999996e-26,-1.00797e-29,3.3850499999999997e-30,1.1866700000000001e-30
2981.0,5.5866400000000002e-29,-7.9863000000000005e-26,-7.9916099999999999e-26,-7.9864599999999995e-26,-1.05646e-29,4.1539799999999998e-30,7.4566800000000004e-31
2982.0,5.3338500000000005e-29,-7.98644e-26,-7.99138e-26,-7.98644e-26,-1.05184e-29,4.9707999999999997e-30,-2.4935599999999999e-31
2983.0,5.7234099999999998e-29,-7.9866600000000001e-26,-7.9924799999999996e-26,-7.9871799999999999e-26,-7.3406200000000005e-30,7.0137800000000001e-31,8.6968899999999997e-31
2984.0,5.6716999999999995e-29,-7.9866000000000002e-26,-7.9923499999999999e-26,-7.9871299999999998e-26,-7.8729699999999993e-30,1.24067e-30,1.0280999999999999e-30
2985.0,5.6295700000000004e-29,-7.9865199999999995e-26,-7.9921899999999997e-26,-7.9870500000000003e-26,-8.5389400000000007e-30,1.9839699999999998e-30,1.08034e-30
2986.0,5.5322000000000005e-29,-7.9864800000000003e-26,-7.9919800000000005e-26,-7.9869699999999996e-26,-9.1295699999999999e-30,2.83219e-30,9.9654899999999992e-31
2987.0,5.3855099999999997e-29,-7.9864499999999997e-26,-7.9917299999999998e-26,-7.9868700000000004e-26,-9.5950099999999999e-30,3.7806699999999998e-30,6.2733500000000002e-31
2988.0,5.1874100000000005e-29,-7.9865099999999997e-26,-7.9914900000000001e-26,-7.9868200000000003e-26,-9.8330299999999995e-30,4.5851400000000001e-30,-9.8812900000000005e-32
2989.0,4.8354700000000001e-29,-7.98661e-26,-7.9911300000000005e-26,-7.9867700000000002e-26,-9.6765699999999999e-30,5.2868300000000001e-30,-1.03023e-30
2990.0,9.2100399999999998e-29,-7.9842100000000002e-26,-7.9933799999999998e-26,-7.98422e-26,-6.4253499999999996e-31,2.4747299999999999e-30,-4.3807700000000001e-30
2991.0,9.6538600000000004e-29,-7.9837400000000006e-26,-7.9933899999999996e-26,-7.9838499999999995e-26,-3.31165e-30,1.99752e-30,-4.6520500000000002e-30
2992.0,9.9846899999999999e-29,-7.9834999999999997e-26,-7.9934299999999999e-26,-7.9836099999999997e-26,-7.0187599999999993e-30,1.2798e-30,-4.9704599999999998e-30
2993.0,1.01687e-28,-7.9832500000000001e-26,-7.9932500000000001e-26,-7.9833299999999997e-26,-1.07247e-29,9.0773999999999998e-31,-5.0234499999999999e-30
2994.0,9.9756999999999994e-29,-7.9833399999999995e-26,-7.9929199999999999e-26,-7.9832599999999999e-26,-1.4389499999999999e-29,4.2593400000000004e-31,-4.9283099999999999e-30
2995.0,9.5977800000000003e-29,-7.9835900000000001e-26,-7.9925100000000001e-26,-7.9833000000000003e-26,-1.7570000000000001e-29,-8.0716299999999995e-32,-4.8276699999999998e-30
2996.0,8.9742899999999995e-29,-7.9838499999999995e-26,-7.9919300000000004e-26,-7.9834000000000005e-26,-1.8953800000000001e-29,4.0839200000000001e-31,-4.4659099999999998e-30
2997.0,9.0935000000000002e-29,-7.9842399999999996e-26,-7.9933600000000002e-26,-7.9842999999999996e-26,-1.15761e-30,1.69298e-30,-1.5657000000000001e-30
2998.0,9.4376300000000005e-29,-7.9839900000000001e-26,-7.9934399999999997e-26,-7.9840900000000004e-26,-4.1400499999999999e-30,1.44517e-30,-1.59759e-30
2999.0,9.7612399999999996e-29,-7.9836300000000005e-26,-7.99337e-26,-7.9837699999999999e-26,-7.4211899999999997e-30,1.3178699999999999e-30,-1.55713e-30
3000.0,9.8698399999999995e-29,-7.9835300000000002e-26,-7.9932300000000005e-26,-7.9835700000000005e-26,-1.0977899999999999e-29,1.2727000000000001e-30,-1.41902e-30
3001.0,9.8113100000000005e-29,-7.9834800000000001e-26,-7.9929199999999999e-26,-7.9834000000000005e-26,-1.444e-29,1.2733199999999999e-30,-1.2800000000000001e-30
3002.0,9.4109899999999996e-29,-7.9836900000000004e-26,-7.9924799999999996e-26,-7.9834100000000003e-26,-1.70859e-29,1.4049099999999999e-30,-1.33492e-30
3003.0,8.9540499999999999e-29,-7.9839999999999999e-26,-7.9920000000000001e-26,-7.9834399999999997e-26,-1.9393100000000001e-29,1.2133799999999999e-30,-1.30901e-30
3004.0,8.7839599999999999e-29,-7.9844800000000005e-26,-7.99331e-26,-7.9846000000000004e-26,-2.1911899999999998e-30,9.5514700000000003e-31,9.2594700000000005e-31
3005.0,9.0892500000000004e-29,-7.9841799999999997e-26,-7.9933199999999998e-26,-7.9843700000000005e-26,-4.9168400000000002e-30,1.16999e-30,9.8147500000000002e-31
3006.0,9.3185100000000001e-29,-7.9839599999999996e-26,-7.9932500000000001e-26,-7.9841199999999998e-26,-7.9210900000000002e-30,1.3557099999999999e-30,1.3421599999999999e-30
3007.0,9.45576e-29,-7.9837600000000002e-26,-7.9930700000000003e-26,-7.9838700000000002e-26,-1.10781e-29,1.7135699999999999e-30,1.5905899999999998e-30
3008.0,9.3547900000000005e-29,-7.9837799999999997e-26,-7.9927800000000004e-26,-7.9837400000000006e-26,-1.4142499999999999e-29,2.1470700000000002e-30,1.7097999999999999e-30
3009.0,9.0959399999999995e-29,-7.9838899999999998e-26,-7.9923800000000005e-26,-7.9836599999999999e-26,-1.66879e-29,2.6147200000000001e-30,1.7333200000000001e-30
3010.0,8.6310499999999996e-29,-7.9841000000000002e-26,-7.99189e-26,-7.9836799999999995e-26,-1.8311900000000001e-29,3.2784000000000001e-30,1.18543e-30
3011.0,8.3757300000000002e-29,-7.9846899999999997e-26,-7.9931499999999998e-26,-7.9849400000000004e-26,-3.42422e-30,5.7030700000000001e-31,2.6658399999999999e-30
3012.0,8.5814800000000001e-29,-7.9845000000000001e-26,-7.99314e-26,-7.9847800000000002e-26,-5.8001000000000001e-30,1.0380799999999999e-30,2.98069e-30
3013.0,8.7645299999999999e-29,-7.9842700000000002e-26,-7.9930200000000002e-26,-7.9845400000000005e-26,-8.4232899999999994e-30,1.53821e-30,3.3498200000000003e-30
3014.0,8.8347900000000005e-29,-7.9841500000000003e-26,-7.9928400000000003e-26,-7.9843499999999997e-26,-1.10525e-29,2.2083200000000001e-30,3.7499399999999999e-30
3015.0,8.77554e-29,-7.9840900000000004e-26,-7.9925399999999995e-26,-7.9841699999999999e-26,-1.3643399999999999e-29,2.9261300000000001e-30,3.85997e-30
3016.0,8.5156200000000002e-29,-7.98422e-26,-7.9921899999999997e-26,-7.9841199999999998e-26,-1.5701400000000001e-29,3.7168400000000001e-30,3.5968300000000002e-30
3017.0,8.1799599999999997e-29,-7.9843700000000005e-26,-7.9917299999999998e-26,-7.9840199999999995e-26,-1.7388000000000001e-29,4.3864600000000002e-30,3.4087700000000001e-30
3018.0,7.8967900000000005e-29,-7.9849699999999998e-26,-7.9929799999999998e-26,-7.9853500000000002e-26,-4.6399900000000001e-30,4.4984600000000001e-31,3.89304e-30
3019.0,8.0169200000000001e-29,-7.9848099999999996e-26,-7.9929000000000003e-26,-7.9852099999999996e-26,-6.6427900000000005e-30,1.06768e-30,4.1113399999999999e-30
3020.0,8.1213599999999995e-29,-7.9846500000000005e-26,-7.9927699999999995e-26,-7.9850299999999997e-26,-8.7445300000000004e-30,1.8106e-30,4.5811699999999998e-30
3021.0,8.1574400000000002e-29,-7.9845199999999997e-26,-7.9925500000000005e-26,-7.9848400000000001e-26,-1.0892000000000001e-29,2.6507399999999999e-30,4.9010199999999997e-30
3022.0,8.0664399999999996e-29,-7.9845099999999999e-26,-7.99229e-26,-7.9847200000000003e-26,-1.29213e-29,3.5975699999999999e-30,5.0040600000000003e-30
3023.0,7.8536400000000003e-29,-7.9845500000000003e-26,-7.9919200000000006e-26,-7.9846000000000004e-26,-1.4583499999999999e-29,4.5572400000000003e-30,4.7759200000000001e-30
3024.0,7.5304799999999995e-29,-7.9847100000000005e-26,-7.9915599999999998e-26,-7.9845600000000001e-26,-1.5651500000000001e-29,5.5275800000000002e-30,4.0304100000000002e-30
3025.0,7.4392500000000005e-29,-7.98519e-26,-7.9927699999999995e-26,-7.9857099999999998e-26,-5.6661900000000001e-30,4.8573799999999997e-31,4.4197499999999999e-30
3026.0,7.4832499999999995e-29,-7.9850899999999997e-26,-7.9926600000000005e-26,-7.9855999999999997e-26,-7.2470000000000005e-30,1.1775200000000001e-30,4.66839e-30
3027.0,7.5300200000000005e-29,-7.98496e-26,-7.9925100000000001e-26,-7.9854600000000002e-26,-8.9307500000000006e-30,2.0578699999999999e-30,5.0823599999999998e-30
3028.0,7.5083400000000003e-29,-7.9848699999999995e-26,-7.99229e-26,-7.9853300000000006e-26,-1.0576e-29,3.05602e-30,5.3660200000000001e-30
3029.0,7.4075300000000001e-29,-7.9848200000000005e-26,-7.9920000000000001e-26,-7.98519e-26,-1.2166200000000001e-29,4.11719e-30,5.34491e-30
3030.0,7.1876100000000003e-29,-7.9849000000000001e-26,-7.9917000000000004e-26,-7.9851200000000002e-26,-1.3390300000000001e-29,5.2073399999999999e-30,4.9010900000000001e-30
3031.0,6.83179e-29,-7.9850000000000004e-26,-7.9912600000000001e-26,-7.9850399999999995e-26,-1.41703e-29,6.2580799999999997e-30,4.2115199999999999e-30
3032.0,7.0597399999999997e-29,-7.9853699999999998e-26,-7.9925799999999999e-26,-7.9859899999999999e-26,-6.3290199999999999e-30,4.8048399999999996e-31,4.65195e-30
3033.0,7.0620800000000003e-29,-7.9852900000000002e-26,-7.9924699999999998e-26,-7.9859200000000001e-26,-7.5532599999999996e-30,1.3015499999999999e-30,4.9590800000000003e-30
3034.0,7.0466899999999997e-29,-7.9851700000000004e-26,-7.9922800000000002e-26,-7.9858199999999999e-26,-8.8717599999999996e-30,2.1966700000000001e-30,5.2771499999999999e-30
3035.0,6.9864900000000005e-29,-7.9850899999999997e-26,-7.9920400000000004e-26,-7.9857e-26,-1.02066e-29,3.3441800000000001e-30,5.4871200000000003e-30
3036.0,6.8571199999999997e-29,-7.9850700000000001e-26,-7.99178e-26,-7.9856200000000004e-26,-1.14072e-29,4.5839999999999999e-30,5.3388300000000001e-30
3037.0,6.6070900000000002e-29,-7.9850999999999995e-26,-7.9914200000000003e-26,-7.9855200000000002e-26,-1.23064e-29,5.7333000000000001e-30,4.7138200000000001e-30
3038.0,6.2544900000000001e-29,-7.9853199999999996e-26,-7.9911400000000003e-26,-7.98553e-26,-1.25325e-29,6.7649100000000007e-30,3.4235300000000001e-30
3039.0,1.1895399999999999e-28,-7.9822399999999999e-26,-7.9940599999999998e-26,-7.9822300000000001e-26,3.2357900000000001e-30,2.8734400000000001e-30,-5.9636099999999997e-30
3040.0,1.24645e-28,-7.9818300000000001e-26,-7.9942799999999999e-26,-7.9819199999999994e-26,-1.4616199999999999e-30,2.0673599999999998e-30,-6.4237500000000001e-30
3041.0,1.30591e-28,-7.9813100000000003e-26,-7.9943399999999999e-26,-7.9814700000000005e-26,-6.9559900000000001e-30,1.5128900000000001e-30,-6.7622099999999993e-30
3042.0,1.3262100000000001e-28,-7.9811599999999999e-26,-7.9941899999999995e-26,-7.9811900000000004e-26,-1.2996899999999999e-29,7.7832500000000002e-31,-6.7871700000000002e-30
3043.0,1.3218100000000001e-28,-7.9812000000000002e-26,-7.9938700000000002e-26,-7.9810599999999996e-26,-1.9143000000000001e-29,2.12383e-31,-6.7313900000000005e-30
3044.0,1.2678699999999999e-28,-7.9815099999999997e-26,-7.9932300000000005e-26,-7.9810800000000004e-26,-2.3819399999999999e-29,-8.8045399999999995e-32,-6.2641199999999997e-30
3045.0,1.1860799999999999e-28,-7.9821799999999999e-26,-7.9925600000000003e-26,-7.9813499999999995e-26,-2.73291e-29,-9.5021099999999993e-31,-5.89928e-30
3046.0,1.16118e-28,-7.9824900000000006e-26,-7.9941000000000001e-26,-7.9825100000000002e-26,1.8037100000000001e-30,1.7549299999999999e-30,-1.4544200000000001e-30
3047.0,1.2117099999999999e-28,-7.9820299999999995e-26,-7.9942000000000004e-26,-7.9821700000000001e-26,-2.6567199999999998e-30,1.5332400000000001e-30,-1.5512199999999999e-30
3048.0,1.25605e-28,-7.9817000000000005e-26,-7.9942399999999996e-26,-7.9818100000000005e-26,-7.7580199999999994e-30,1.37401e-30,-1.33829e-30
3049.0,1.2865099999999999e-28,-7.9814300000000002e-26,-7.9941000000000001e-26,-7.9814599999999996e-26,-1.3401e-29,1.35959e-30,-1.05838e-30
3050.0,1.2772199999999999e-28,-7.9814900000000001e-26,-7.9937500000000003e-26,-7.9813100000000003e-26,-1.8817999999999999e-29,1.44047e-30,-8.2684799999999999e-31
3051.0,1.2452400000000001e-28,-7.9817299999999998e-26,-7.9932400000000003e-26,-7.98127e-26,-2.3769499999999999e-29,1.553e-30,-7.3365099999999997e-31
3052.0,1.17457e-28,-7.9821299999999998e-26,-7.9925100000000001e-26,-7.9813700000000002e-26,-2.6805000000000001e-29,2.16279e-30,-6.8505800000000003e-31
3053.0,1.1168499999999999e-28,-7.9827099999999996e-26,-7.9939499999999997e-26,-7.9828699999999998e-26,2.5346700000000002e-31,9.7888100000000002e-31,2.3798100000000001e-30
3054.0,1.1527899999999999e-28,-7.9824199999999997e-26,-7.9939999999999999e-26,-7.9825999999999995e-26,-4.0213200000000003e-30,1.15837e-30,2.6424700000000001e-30
3055.0,1.1935999999999999e-28,-7.9820600000000001e-26,-7.9939800000000003e-26,-7.9822499999999997e-26,-8.5864999999999996e-30,1.53204e-30,3.16165e-30
3056.0,1.2154799999999999e-28,-7.9818700000000005e-26,-7.9938200000000001e-26,-7.98195e-26,-1.3541099999999999e-29,1.9849100000000001e-30,3.7513299999999997e-30
3057.0,1.2166700000000001e-28,-7.9818399999999999e-26,-7.9934999999999996e-26,-7.9817399999999996e-26,-1.8354199999999999e-29,2.6629500000000001e-30,4.1073299999999999e-30
3058.0,1.1838500000000001e-28,-7.9820299999999995e-26,-7.9929899999999996e-26,-7.9816899999999995e-26,-2.2623000000000001e-29,3.30695e-30,4.1152299999999998e-30
3059.0,1.1369399999999999e-28,-7.9823900000000003e-26,-7.9924099999999999e-26,-7.9816600000000001e-26,-2.5939699999999998e-29,3.9370099999999999e-30,3.9225400000000001e-30
3060.0,1.05278e-28,-7.9830800000000001e-26,-7.9937000000000002e-26,-7.98337e-26,-1.5561699999999999e-30,4.6771600000000001e-31,5.3857599999999997e-30
3061.0,1.0801500000000001e-28,-7.9828099999999998e-26,-7.9936900000000004e-26,-7.9831400000000001e-26,-5.3448500000000002e-30,1.0788999999999999e-30,5.7001899999999997e-30
3062.0,1.10977e-28,-7.9825600000000003e-26,-7.9936199999999995e-26,-7.9828500000000002e-26,-9.2267300000000006e-30,1.7708799999999998e-30,6.4512799999999994e-30
3063.0,1.12874e-28,-7.9823499999999999e-26,-7.9934200000000001e-26,-7.9825600000000003e-26,-1.34033e-29,2.6485100000000001e-30,7.1672499999999993e-30
3064.0,1.12559e-28,-7.9823400000000001e-26,-7.9931099999999995e-26,-7.9824000000000001e-26,-1.7452999999999999e-29,3.6634400000000002e-30,7.6154800000000005e-30
3065.0,1.1036e-28,-7.9824500000000002e-26,-7.9926499999999996e-26,-7.9822700000000004e-26,-2.1088299999999999e-29,4.78215e-30,7.6194300000000001e-30
3066.0,1.0581200000000001e-28,-7.9827099999999996e-26,-7.9920899999999994e-26,-7.9822599999999995e-26,-2.3728e-29,5.9588699999999999e-30,7.1706099999999993e-30
3067.0,9.8214199999999997e-29,-7.9834399999999997e-26,-7.9933799999999998e-26,-7.9838999999999996e-26,-3.3550800000000001e-30,3.3287799999999999e-31,7.2054099999999997e-30
3068.0,1.0006699999999999e-28,-7.9832599999999999e-26,-7.9933399999999994e-26,-7.9837199999999998e-26,-6.4712999999999999e-30,1.1588499999999999e-30,7.6245200000000005e-30
3069.0,1.0201999999999999e-28,-7.9830399999999998e-26,-7.9932e-26,-7.9834800000000001e-26,-9.6697900000000001e-30,2.1112199999999999e-30,8.3758899999999998e-30
3070.0,1.0319499999999999e-28,-7.9828900000000005e-26,-7.9930000000000006e-26,-7.9832699999999997e-26,-1.3058e-29,3.2184299999999997e-30,9.1266800000000001e-30
3071.0,1.0285700000000001e-28,-7.9828299999999994e-26,-7.9926700000000003e-26,-7.9830700000000003e-26,-1.6314200000000001e-29,4.50579e-30,9.4757700000000004e-30
3072.0,1.00566e-28,-7.9829500000000004e-26,-7.9922700000000004e-26,-7.9829899999999996e-26,-1.9199199999999999e-29,5.7969100000000001e-30,9.3930299999999998e-30
3073.0,9.7110199999999999e-29,-7.9831300000000003e-26,-7.9917500000000006e-26,-7.9828699999999998e-26,-2.1425000000000001e-29,7.1349499999999997e-30,8.9476199999999995e-30
3074.0,9.1858900000000004e-29,-7.9837699999999999e-26,-7.9930899999999999e-26,-7.9843800000000003e-26,-4.74188e-30,3.70445e-31,8.3432199999999996e-30
3075.0,9.2881100000000004e-29,-7.9836400000000003e-26,-7.9930000000000006e-26,-7.9842399999999996e-26,-7.1983299999999999e-30,1.33912e-30,8.7804799999999996e-30
3076.0,9.4094000000000002e-29,-7.9834600000000005e-26,-7.9928500000000001e-26,-7.9840599999999998e-26,-9.7770000000000002e-30,2.4055500000000001e-30,9.5102000000000002e-30
3077.0,9.4656300000000001e-29,-7.9833199999999999e-26,-7.9926100000000004e-26,-7.9838700000000002e-26,-1.251e-29,3.7098199999999999e-30,1.01717e-29
3078.0,9.3918699999999998e-29,-7.9833000000000003e-26,-7.9922999999999998e-26,-7.9837400000000006e-26,-1.51278e-29,5.1317199999999997e-30,1.04899e-29
3079.0,9.1717199999999995e-29,-7.9833500000000004e-26,-7.9918800000000002e-26,-7.9836099999999997e-26,-1.7376099999999999e-29,6.6209999999999997e-30,1.02273e-29
3080.0,8.7789199999999996e-29,-7.9835700000000005e-26,-7.9914399999999999e-26,-7.9835999999999999e-26,-1.8898500000000001e-29,8.0164600000000006e-30,9.4276400000000003e-30
3081.0,8.6885899999999995e-29,-7.9839999999999999e-26,-7.9928400000000003e-26,-7.9847300000000001e-26,-5.6483600000000003e-30,5.1139399999999998e-31,8.9172699999999994e-30
3082.0,8.7358300000000001e-29,-7.9838700000000002e-26,-7.9927099999999995e-26,-7.9846399999999996e-26,-7.5314399999999997e-30,1.3726e-30,9.4638200000000005e-30
3083.0,8.7896300000000002e-29,-7.9837299999999996e-26,-7.9925199999999999e-26,-7.9845000000000001e-26,-9.6267199999999999e-30,2.5928499999999999e-30,1.02734e-29
3084.0,8.7886800000000004e-29,-7.9836199999999995e-26,-7.9922700000000004e-26,-7.9843700000000005e-26,-1.18772e-29,4.0534599999999999e-30,1.0874199999999999e-29
3085.0,8.6783699999999998e-29,-7.9835700000000005e-26,-7.9919300000000004e-26,-7.9842399999999996e-26,-1.4011700000000001e-29,5.6798899999999997e-30,1.09486e-29
3086.0,8.4229100000000002e-29,-7.9836699999999997e-26,-7.9915699999999996e-26,-7.9841799999999997e-26,-1.5831099999999999e-29,7.2249400000000002e-30,1.0421499999999999e-29
3087.0,7.9538299999999999e-29,-7.9838499999999995e-26,-7.9910599999999996e-26,-7.9841400000000005e-26,-1.6905900000000001e-29,8.7037499999999998e-30,9.1261799999999993e-30
3088.0,1.5061099999999999e-28,-7.9802800000000004e-26,-7.9951999999999997e-26,-7.9802400000000001e-26,6.8474999999999998e-30,3.0002900000000001e-30,-8.0557000000000007e-30
3089.0,1.60072e-28,-7.9795400000000005e-26,-7.9955299999999999e-26,-7.9796700000000001e-26,4.3299399999999999e-31,2.3433499999999999e-30,-8.8124400000000006e-30
3090.0,1.6820999999999999e-28,-7.9789999999999999e-26,-7.9957500000000001e-26,-7.97911e-26,-7.18285e-30,1.40129e-30,-9.2162899999999993e-30
3091.0,1.74739e-28,-7.9786e-26,-7.9957699999999997e-26,-7.9786400000000003e-26,-1.6750499999999999e-29,6.2953299999999997e-31,-9.5788599999999994e-30
3092.0,1.7405699999999999e-28,-7.9787000000000002e-26,-7.9953e-26,-7.9784200000000001e-26,-2.6021899999999999e-29,-8.7449800000000004e-32,-9.3268500000000001e-30
3093.0,1.68355e-28,-7.9792600000000004e-26,-7.99456e-26,-7.9785099999999995e-26,-3.4091199999999998e-29,-8.7256599999999994e-31,-8.9066999999999994e-30
3094.0,1.57998e-28,-7.9799400000000004e-26,-7.9934999999999996e-26,-7.9787299999999996e-26,-3.9170399999999998e-29,-7.7871299999999999e-31,-7.9418500000000004e-30
3095.0,1.4649e-28,-7.9804899999999996e-26,-7.9951200000000002e-26,-7.9805200000000002e-26,4.84673e-30,1.8651800000000002e-30,-1.43648e-30
3096.0,1.53267e-28,-7.9800000000000004e-26,-7.9953699999999997e-26,-7.9800999999999995e-26,-1.3098e-30,1.56236e-30,-1.36248e-30
3097.0,1.61345e-28,-7.9794099999999997e-26,-7.9955299999999999e-26,-7.9795199999999997e-26,-8.5317900000000004e-30,1.49282e-30,-9.6436299999999994e-31
3098.0,1.6662799999999999e-28,-7.9791000000000002e-26,-7.9954899999999996e-26,-7.9790799999999994e-26,-1.6883700000000001e-29,1.51416e-30,-5.0224599999999998e-31
3099.0,1.68092e-28,-7.9790900000000004e-26,-7.99513e-26,-7.97877e-26,-2.5784600000000002e-29,1.6979599999999999e-30,-9.6089400000000001e-32
3100.0,1.63307e-28,-7.9795000000000001e-26,-7.9944099999999996e-26,-7.9787600000000002e-26,-3.3038700000000002e-29,1.9447699999999999e-30,3.00469e-31
3101.0,1.5583e-28,-7.98013e-26,-7.9935099999999994e-26,-7.9788700000000002e-26,-3.88874e-29,2.0771599999999999e-30,2.85213e-31
3102.0,1.3933200000000001e-28,-7.9808899999999996e-26,-7.9948800000000005e-26,-7.9810599999999996e-26,2.4467400000000002e-30,8.80663e-31,4.27457e-30
3103.0,1.4507399999999999e-28,-7.9804399999999995e-26,-7.9950199999999999e-26,-7.9806499999999999e-26,-3.20945e-30,1.2113199999999999e-30,4.7804500000000001e-30
3104.0,1.51516e-28,-7.9799900000000006e-26,-7.9950999999999994e-26,-7.9801700000000004e-26,-9.5896199999999993e-30,1.6333499999999999e-30,5.7730400000000003e-30
3105.0,1.5673499999999999e-28,-7.9796500000000005e-26,-7.9950199999999999e-26,-7.9797200000000003e-26,-1.6980600000000001e-29,2.4500699999999999e-30,6.8262299999999996e-30
3106.0,1.5753900000000001e-28,-7.9796500000000005e-26,-7.9946500000000005e-26,-7.9794699999999996e-26,-2.4682200000000001e-29,3.3068299999999998e-30,7.6025999999999996e-30
3107.0,1.54673e-28,-7.9799400000000004e-26,-7.9940400000000002e-26,-7.9793599999999995e-26,-3.1363199999999999e-29,4.5041299999999999e-30,7.7840900000000005e-30
3108.0,1.4822899999999999e-28,-7.9804100000000001e-26,-7.9931700000000006e-26,-7.9793900000000001e-26,-3.6561600000000001e-29,5.6651500000000003e-30,7.5533100000000001e-30
3109.0,1.30405e-28,-7.9813299999999999e-26,-7.9944599999999998e-26,-7.9816799999999997e-26,-1.0773300000000001e-31,3.8577699999999998e-31,8.5680999999999994e-30
3110.0,1.3457e-28,-7.9810099999999995e-26,-7.9945299999999995e-26,-7.9813899999999998e-26,-4.9998600000000003e-30,1.12541e-30,9.2490800000000004e-30
3111.0,1.3971999999999999e-28,-7.9806099999999995e-26,-7.9945000000000001e-26,-7.9809499999999995e-26,-1.05122e-29,2.0300299999999998e-30,1.05894e-29
3112.0,1.43566e-28,-7.9803500000000002e-26,-7.9943800000000002e-26,-7.9806099999999995e-26,-1.6653899999999999e-29,3.2840500000000003e-30,1.18916e-29
3113.0,1.4458799999999999e-28,-7.9802800000000004e-26,-7.9939999999999999e-26,-7.9803199999999996e-26,-2.3039299999999999e-29,4.79472e-30,1.27067e-29
3114.0,1.41788e-28,-7.98053e-26,-7.9934399999999997e-26,-7.9802499999999999e-26,-2.8557999999999998e-29,6.31943e-30,1.29509e-29
3115.0,1.37527e-28,-7.9808899999999996e-26,-7.9927200000000005e-26,-7.9801499999999996e-26,-3.3248400000000002e-29,7.8340099999999995e-30,1.25619e-29
3116.0,1.2041000000000001e-28,-7.9818599999999995e-26,-7.9939999999999999e-26,-7.9824199999999997e-26,-2.3105200000000001e-30,3.2592e-31,1.13292e-29
3117.0,1.2334900000000001e-28,-7.9816000000000002e-26,-7.9939700000000005e-26,-7.9821500000000005e-26,-6.4622700000000004e-30,1.2640200000000001e-30,1.20731e-29
3118.0,1.27157e-28,-7.9812899999999996e-26,-7.9939100000000005e-26,-7.9818399999999999e-26,-1.09281e-29,2.5293499999999999e-30,1.3412200000000001e-29
3119.0,1.2992e-28,-7.98104e-26,-7.9936900000000004e-26,-7.9815199999999995e-26,-1.5915999999999999e-29,4.0138799999999998e-30,1.4684999999999999e-29
3120.0,1.30362e-28,-7.9810300000000002e-26,-7.9933500000000004e-26,-7.9813200000000001e-26,-2.1053500000000001e-29,5.7357199999999999e-30,1.5609100000000001e-29
3121.0,1.28172e-28,-7.9811599999999999e-26,-7.9928099999999998e-26,-7.9811799999999995e-26,-2.5515000000000001e-29,7.6733900000000004e-30,1.5698899999999999e-29
3122.0,1.2347599999999999e-28,-7.9814800000000003e-26,-7.9921600000000003e-26,-7.9811799999999995e-26,-2.9071299999999998e-29,9.5253499999999993e-30,1.52155e-29
3123.0,1.1134499999999999e-28,-7.9823099999999996e-26,-7.99354e-26,-7.98303e-26,-4.1261399999999998e-30,3.5864999999999999e-31,1.2757500000000001e-29
3124.0,1.1350200000000001e-28,-7.9821000000000004e-26,-7.9934899999999998e-26,-7.9828500000000002e-26,-7.2843299999999995e-30,1.5182e-30,1.3533300000000001e-29
3125.0,1.16141e-28,-7.9818499999999997e-26,-7.9933500000000004e-26,-7.9825799999999999e-26,-1.09871e-29,2.8255799999999999e-30,1.48127e-29
3126.0,1.1789500000000001e-28,-7.9816799999999997e-26,-7.99314e-26,-7.9823699999999995e-26,-1.5029300000000001e-29,4.5239399999999999e-30,1.6054400000000001e-29
3127.0,1.17818e-28,-7.98161e-26,-7.9927499999999999e-26,-7.9821700000000001e-26,-1.9133800000000001e-29,6.4401999999999994e-30,1.67121e-29
3128.0,1.1519799999999999e-28,-7.98178e-26,-7.9922700000000004e-26,-7.9821000000000004e-26,-2.2674300000000001e-29,8.4322600000000005e-30,1.66705e-29
3129.0,1.1089000000000001e-28,-7.9820199999999997e-26,-7.9916600000000001e-26,-7.9820099999999999e-26,-2.5352999999999999e-29,1.0374499999999999e-29,1.5690899999999999e-29
3130.0,1.04741e-28,-7.9826399999999998e-26,-7.9932199999999996e-26,-7.9835200000000004e-26,-5.1227400000000001e-30,5.5782599999999998e-31,1.3602800000000001e-29
3131.0,1.06405e-28,-7.9824500000000002e-26,-7.9931099999999995e-26,-7.9833500000000004e-26,-7.6366000000000005e-30,1.5466899999999999e-30,1.4687799999999999e-29
3132.0,1.083e-28,-7.9822399999999999e-26,-7.9929600000000002e-26,-7.9831699999999994e-26,-1.07093e-29,3.1097600000000001e-30,1.6079700000000001e-29
3133.0,1.0918699999999999e-28,-7.9820600000000001e-26,-7.9926700000000003e-26,-7.98297e-26,-1.4088999999999999e-29,4.9575499999999997e-30,1.7154199999999999e-29
3134.0,1.08528e-28,-7.9820500000000003e-26,-7.9923200000000005e-26,-7.98286e-26,-1.7500800000000001e-29,7.0861300000000004e-30,1.7664600000000001e-29
3135.0,1.0562999999999999e-28,-7.9821399999999996e-26,-7.9917999999999996e-26,-7.9827599999999997e-26,-2.03984e-29,9.1586599999999996e-30,1.7125699999999999e-29
3136.0,1.0024700000000001e-28,-7.9824699999999998e-26,-7.9912699999999999e-26,-7.9828e-26,-2.2256399999999999e-29,1.0957100000000001e-29,1.5723000000000001e-29
3137.0,1.8524199999999999e-28,-7.9782199999999996e-26,-7.9965300000000004e-26,-7.9781800000000004e-26,1.06374e-29,3.5059999999999998e-30,-1.0497400000000001e-29
3138.0,2.0030000000000001e-28,-7.9772599999999995e-26,-7.9971999999999995e-26,-7.9772999999999998e-26,4.0648899999999998e-30,2.58922e-30,-1.13399e-29
3139.0,2.1847300000000001e-28,-7.9761500000000001e-26,-7.9979399999999995e-26,-7.9763299999999999e-26,-7.2713799999999996e-30,1.66957e-30,-1.2675200000000001e-29
3140.0,2.3002900000000001e-28,-7.9755700000000003e-26,-7.99814e-26,-7.9755499999999996e-26,-2.13614e-29,4.9632799999999998e-31,-1.3225900000000001e-29
3141.0,2.3394599999999999e-28,-7.9756300000000003e-26,-7.9977900000000002e-26,-7.9751800000000002e-26,-3.69854e-29,-7.7830099999999998e-31,-1.3216899999999999e-29
3142.0,2.2686700000000001e-28,-7.9763600000000004e-26,-7.9966000000000001e-26,-7.9751700000000004e-26,-4.9918200000000001e-29,-1.7071300000000001e-30,-1.24527e-29
3143.0,2.117e-28,-7.9777300000000003e-26,-7.9951100000000004e-26,-7.9756499999999999e-26,-5.8257900000000003e-29,-2.7986800000000001e-30,-1.1283599999999999e-29
3144.0,1.7810699999999999e-28,-7.9786500000000001e-26,-7.9963899999999998e-26,-7.9786199999999996e-26,8.11241e-30,1.8811400000000001e-30,-1.0429099999999999e-30
3145.0,1.91979e-28,-7.9777300000000003e-26,-7.9969599999999997e-26,-7.9778e-26,1.49059e-30,1.59576e-30,-7.0685600000000002e-31
3146.0,2.0752700000000002e-28,-7.9767899999999998e-26,-7.9975299999999997e-26,-7.9768700000000005e-26,-8.5155400000000003e-30,1.52482e-30,-8.2054400000000005e-32
3147.0,2.1945399999999998e-28,-7.9761799999999995e-26,-7.9977599999999997e-26,-7.9761099999999998e-26,-2.18468e-29,1.7160200000000002e-30,7.4788799999999997e-31
3148.0,2.2314199999999999e-28,-7.9761900000000004e-26,-7.9973599999999997e-26,-7.9756800000000004e-26,-3.5789799999999998e-29,2.1016100000000001e-30,1.45939e-30
3149.0,2.1917600000000001e-28,-7.9767999999999996e-26,-7.9964100000000005e-26,-7.9756099999999995e-26,-4.8456200000000002e-29,2.51439e-30,1.8415799999999999e-30
3150.0,2.0713300000000002e-28,-7.9778400000000004e-26,-7.99496e-26,-7.9758199999999999e-26,-5.68525e-29,3.42994e-30,2.0306400000000001e-30
3151.0,1.6857099999999999e-28,-7.9791000000000002e-26,-7.99598e-26,-7.97928e-26,5.0388799999999999e-30,7.9521400000000005e-31,6.6679700000000005e-30
3152.0,1.80094e-28,-7.9783399999999995e-26,-7.9963899999999998e-26,-7.97854e-26,-1.19155e-30,1.04143e-30,8.1357599999999999e-30
3153.0,1.93692e-28,-7.9774900000000006e-26,-7.9968200000000003e-26,-7.9777400000000001e-26,-1.02079e-29,1.89459e-30,1.01077e-29
3154.0,2.03525e-28,-7.9769800000000005e-26,-7.9968999999999998e-26,-7.9770500000000003e-26,-2.1707000000000001e-29,3.1075499999999999e-30,1.19241e-29
3155.0,2.07767e-28,-7.9769199999999995e-26,-7.9965599999999998e-26,-7.9766199999999998e-26,-3.3817199999999998e-29,4.7035700000000002e-30,1.3113199999999999e-29
3156.0,2.0442700000000001e-28,-7.9773900000000003e-26,-7.9956599999999996e-26,-7.9764999999999999e-26,-4.4823100000000001e-29,6.2631400000000003e-30,1.36782e-29
3157.0,1.95557e-28,-7.9783000000000003e-26,-7.9944699999999996e-26,-7.9765900000000004e-26,-5.2708800000000004e-29,7.83959e-30,1.3194000000000001e-29
3158.0,1.5631099999999999e-28,-7.9796999999999995e-26,-7.9953799999999995e-26,-7.9800999999999995e-26,1.72704e-30,2.2735400000000001e-31,1.2343400000000001e-29
3159.0,1.6552400000000001e-28,-7.9790699999999996e-26,-7.9956499999999998e-26,-7.9795400000000005e-26,-3.6346699999999999e-30,1.0019300000000001e-30,1.4457299999999999e-29
3160.0,1.76306e-28,-7.9783799999999998e-26,-7.9958799999999998e-26,-7.9788499999999995e-26,-1.1308399999999999e-29,2.36799e-30,1.69429e-29
3161.0,1.84434e-28,-7.9779299999999997e-26,-7.9958600000000002e-26,-7.9782799999999995e-26,-2.0784000000000001e-29,4.3320600000000003e-30,1.9394200000000001e-29
3162.0,1.8745200000000001e-28,-7.9778900000000005e-26,-7.9954799999999998e-26,-7.9779500000000005e-26,-3.0780500000000001e-29,6.5678499999999996e-30,2.1040400000000001e-29
3163.0,1.8504399999999999e-28,-7.9782500000000001e-26,-7.9946999999999995e-26,-7.9778e-26,-3.9896299999999998e-29,9.0229699999999994e-30,2.1446999999999999e-29
3164.0,1.7720699999999999e-28,-7.97894e-26,-7.9936199999999995e-26,-7.9778699999999998e-26,-4.6454199999999999e-29,1.1484300000000001e-29,2.08044e-29
3165.0,1.42782e-28,-7.9803699999999998e-26,-7.9946999999999995e-26,-7.98104e-26,-1.1287299999999999e-30,1.8476799999999999e-31,1.5913100000000001e-29
3166.0,1.4989e-28,-7.97985e-26,-7.9948099999999996e-26,-7.9805399999999998e-26,-5.74727e-30,1.1486600000000001e-30,1.7889799999999999e-29
3167.0,1.5779699999999999e-28,-7.9793100000000005e-26,-7.9948900000000002e-26,-7.9800500000000005e-26,-1.1913200000000001e-29,2.8580900000000001e-30,2.06357e-29
3168.0,1.6346099999999999e-28,-7.9789700000000005e-26,-7.9947499999999996e-26,-7.9796299999999998e-26,-1.9481799999999999e-29,5.08098e-30,2.31163e-29
3169.0,1.6530900000000001e-28,-7.9788999999999996e-26,-7.9943300000000001e-26,-7.9793599999999995e-26,-2.71867e-29,7.7970899999999995e-30,2.45593e-29
3170.0,1.62702e-28,-7.9791899999999995e-26,-7.9936300000000005e-26,-7.9792600000000004e-26,-3.4259399999999999e-29,1.04473e-29,2.48821e-29
3171.0,1.5677100000000001e-28,-7.9797100000000005e-26,-7.9927499999999999e-26,-7.9792100000000003e-26,-3.9500200000000002e-29,1.3093799999999999e-29,2.3836699999999999e-29
3172.0,1.30589e-28,-7.9809700000000003e-26,-7.9940699999999996e-26,-7.9818399999999999e-26,-3.4012000000000002e-30,2.15704e-31,1.74736e-29
3173.0,1.3561000000000001e-28,-7.9806099999999995e-26,-7.9941099999999999e-26,-7.9815199999999995e-26,-7.0293900000000005e-30,1.6388500000000001e-30,1.9584000000000001e-29
3174.0,1.41019e-28,-7.9801700000000004e-26,-7.9940400000000002e-26,-7.9811500000000001e-26,-1.20583e-29,3.2334300000000001e-30,2.1809300000000001e-29
3175.0,1.4460700000000001e-28,-7.9799099999999999e-26,-7.9938100000000003e-26,-7.9808299999999997e-26,-1.7912599999999999e-29,5.6113699999999999e-30,2.39642e-29
3176.0,1.45269e-28,-7.9798800000000005e-26,-7.9934000000000005e-26,-7.9806499999999999e-26,-2.3806799999999999e-29,8.2948199999999999e-30,2.5138100000000001e-29
3177.0,1.4282199999999999e-28,-7.9800500000000005e-26,-7.9927699999999995e-26,-7.98053e-26,-2.9216500000000002e-29,1.10612e-29,2.5050600000000001e-29
3178.0,1.3629099999999999e-28,-7.9805200000000002e-26,-7.9919699999999996e-26,-7.9805999999999997e-26,-3.3036499999999997e-29,1.3702300000000001e-29,2.3965499999999999e-29
3179.0,1.2102900000000001e-28,-7.9815099999999997e-26,-7.9936099999999997e-26,-7.9824900000000006e-26,-4.7683600000000001e-30,7.0230199999999997e-31,1.83725e-29
3180.0,1.2483099999999999e-28,-7.9811400000000003e-26,-7.9935700000000005e-26,-7.9822200000000003e-26,-7.6748600000000005e-30,1.7210700000000001e-30,1.9788299999999999e-29
3181.0,1.2859999999999999e-28,-7.9808299999999997e-26,-7.9934499999999995e-26,-7.98195e-26,-1.1827600000000001e-29,3.5555300000000003e-30,2.2001300000000001e-29
3182.0,1.3082600000000001e-28,-7.9806200000000005e-26,-7.9931700000000006e-26,-7.9817299999999998e-26,-1.6587499999999999e-29,5.9160000000000002e-30,2.38736e-29
3183.0,1.30573e-28,-7.9805800000000001e-26,-7.9927300000000003e-26,-7.9815799999999994e-26,-2.11876e-29,8.6778199999999995e-30,2.4655700000000001e-29
3184.0,1.27567e-28,-7.9807599999999999e-26,-7.9921600000000003e-26,-7.9815400000000002e-26,-2.5466100000000002e-29,1.12633e-29,2.43018e-29
3185.0,1.21333e-28,-7.9811500000000001e-26,-7.9914399999999999e-26,-7.9814999999999999e-26,-2.8356199999999997e-29,1.3775599999999999e-29,2.2406700000000001e-29
3186.0,1.8548599999999999e-28,-7.9790900000000004e-26,-7.9929299999999997e-26,-7.9767100000000003e-26,-5.7794699999999998e-29,-8.3978399999999999e-30,-1.97107e-29
3187.0,1.3912000000000001e-28,-7.9811799999999995e-26,-7.9921500000000005e-26,-7.97962e-26,-3.96925e-29,-5.2015900000000001e-30,-1.3791199999999999e-29
3188.0,1.06323e-28,-7.98269e-26,-7.99155e-26,-7.9817499999999994e-26,-2.7337399999999997e-29,-3.1974700000000003e-30,-9.2360899999999993e-30
3189.0,7.9003400000000001e-29,-7.9846000000000004e-26,-7.9912899999999995e-26,-7.9838899999999998e-26,-1.913e-29,-2.2769099999999999e-30,-6.8020000000000006e-30
3190.0,6.0657999999999998e-29,-7.9857500000000001e-26,-7.9910800000000003e-26,-7.9853799999999996e-26,-1.3785799999999999e-29,-1.09998e-30,-4.4014499999999999e-30
3191.0,4.0876299999999997e-29,-7.9876600000000006e-26,-7.9911599999999999e-26,-7.9872300000000001e-26,-8.9934200000000002e-30,-1.8075199999999999e-30,-3.04319e-30
3192.0,3.3616300000000001e-29,-7.9880200000000002e-26,-7.9906300000000002e-26,-7.9880100000000004e-26,-1.10956e-29,1.69375e-30,-4.8166099999999997e-30
3193.0,1.58081e-28,-7.9808199999999999e-26,-7.99138e-26,-7.9778400000000004e-26,-5.4276899999999999e-29,-8.0407299999999994e-30,-1.5941300000000001e-29
3194.0,1.2221599999999999e-28,-7.9819599999999998e-26,-7.9910099999999994e-26,-7.9800999999999995e-26,-3.7709599999999999e-29,-5.1841799999999999e-30,-1.10988e-29
3195.0,9.2613499999999995e-29,-7.9836699999999997e-26,-7.9908500000000004e-26,-7.9823499999999999e-26,-2.6255800000000002e-29,-3.3586699999999998e-30,-8.1276000000000003e-30
3196.0,7.1590499999999997e-29,-7.98479e-26,-7.9906700000000006e-26,-7.9839800000000003e-26,-1.8437899999999999e-29,-2.1500799999999998e-30,-5.5505099999999997e-30
3197.0,5.1822900000000005e-29,-7.9864800000000003e-26,-7.99081e-26,-7.9858299999999997e-26,-1.19755e-29,-1.7327300000000001e-30,-4.0154500000000003e-30
3198.0,3.9858000000000002e-29,-7.9873200000000005e-26,-7.9906499999999998e-26,-7.9869800000000005e-26,-1.03407e-29,-5.77269e-31,-3.2873299999999999e-30
3199.0,2.8517200000000001e-29,-7.9888000000000005e-26,-7.9914800000000003e-26,-7.98871e-26,-4.7361899999999999e-30,-7.9222300000000007e-31,-6.28214e-31
3200.0,1.3213300000000001e-28,-7.9818499999999997e-26,-7.9900700000000001e-26,-7.9787500000000004e-26,-4.6883099999999997e-29,-7.08755e-30,-1.20688e-29
3201.0,1.0316399999999999e-28,-7.9831599999999996e-26,-7.9901899999999999e-26,-7.9809899999999999e-26,-3.3621500000000001e-29,-4.6837099999999998e-30,-9.0600599999999994e-30
3202.0,8.0622300000000002e-29,-7.9840900000000004e-26,-7.99013e-26,-7.98269e-26,-2.3531299999999999e-29,-3.0649800000000001e-30,-6.4821599999999994e-30
3203.0,6.0694899999999997e-29,-7.9855800000000001e-26,-7.9903300000000006e-26,-7.9845400000000005e-26,-1.5728700000000001e-29,-2.19594e-30,-4.8096100000000002e-30
3204.0,4.6569100000000003e-29,-7.9864999999999999e-26,-7.9902900000000002e-26,-7.9858299999999997e-26,-1.13802e-29,-1.3275199999999999e-30,-3.5275100000000003e-30
3205.0,3.3945999999999999e-29,-7.9878699999999998e-26,-7.9908500000000004e-26,-7.9874500000000002e-26,-6.0297199999999997e-30,-1.0154699999999999e-30,-2.1026200000000001e-30
3206.0,2.2187e-29,-7.9888700000000002e-26,-7.9906800000000004e-26,-7.9884399999999997e-26,-4.1631500000000001e-30,-9.4312799999999998e-31,-2.16096e-30
3207.0,1.0765499999999999e-28,-7.9830899999999999e-26,-7.9892999999999996e-26,-7.9799500000000002e-26,-3.8483799999999998e-29,-5.8004300000000001e-30,-9.3489999999999993e-30
3208.0,8.6201299999999998e-29,-7.9837400000000006e-26,-7.9894400000000002e-26,-7.9816000000000002e-26,-2.7754900000000001e-29,-3.9548499999999997e-30,-7.0234899999999999e-30
3209.0,6.7038500000000003e-29,-7.9849799999999996e-26,-7.9897499999999996e-26,-7.9834200000000001e-26,-1.9333899999999999e-29,-2.77246e-30,-5.3364099999999997e-30
3210.0,5.2036599999999994e-29,-7.9858100000000001e-26,-7.9897999999999998e-26,-7.9847399999999999e-26,-1.3172699999999999e-29,-1.8000599999999999e-30,-4.0201099999999997e-30
3211.0,3.9201199999999998e-29,-7.9870699999999998e-26,-7.9902900000000002e-26,-7.9863200000000001e-26,-7.6791399999999995e-30,-1.2899000000000001e-30,-2.83907e-30
3212.0,2.79211e-29,-7.9879799999999998e-26,-7.9902599999999997e-26,-7.9873800000000005e-26,-4.7433500000000001e-30,-1.00934e-30,-2.2660099999999999e-30
3213.0,2.01639e-29,-7.9891299999999995e-26,-7.9909299999999999e-26,-7.9888000000000005e-26,-1.65003e-30,-4.4928299999999998e-31,-1.1402300000000001e-30
3214.0,8.7048599999999998e-29,-7.9836900000000004e-26,-7.9886900000000004e-26,-7.9808299999999997e-26,-2.9580000000000002e-29,-4.5644299999999997e-30,-7.05786e-30
3215.0,7.0312700000000005e-29,-7.9846500000000005e-26,-7.9891199999999998e-26,-7.98252e-26,-2.1715999999999999e-29,-3.2119400000000002e-30,-5.5594600000000002e-30
3216.0,5.5703600000000004e-29,-7.9853300000000006e-26,-7.9892600000000004e-26,-7.9838000000000005e-26,-1.4770999999999999e-29,-2.1430299999999999e-30,-4.3685999999999998e-30
3217.0,4.3307000000000002e-29,-7.9864300000000002e-26,-7.9897399999999999e-26,-7.9853300000000006e-26,-9.2050699999999999e-30,-1.5287399999999999e-30,-3.2719299999999998e-30
3218.0,3.22863e-29,-7.9872499999999997e-26,-7.9897999999999998e-26,-7.9864100000000006e-26,-5.2096200000000002e-30,-1.04797e-30,-2.5835700000000002e-30
3219.0,2.4593e-29,-7.9883199999999998e-26,-7.9904199999999999e-26,-7.9877800000000004e-26,-1.72823e-30,-5.7956600000000002e-31,-1.8164e-30
3220.0,1.60403e-29,-7.9892100000000002e-26,-7.9904600000000002e-26,-7.9886900000000004e-26,5.1343399999999996e-31,-7.2381899999999996e-31,-1.521e-30
3221.0,7.0474199999999996e-29,-7.9845099999999999e-26,-7.9885099999999994e-26,-7.9818700000000005e-26,-2.2275e-29,-3.4916100000000003e-30,-5.4843499999999999e-30
3222.0,5.7956400000000002e-29,-7.9849900000000006e-26,-7.9887299999999996e-26,-7.9830200000000002e-26,-1.5808200000000001e-29,-2.4218200000000002e-30,-4.5908799999999999e-30
3223.0,4.6508700000000003e-29,-7.9859200000000001e-26,-7.98922e-26,-7.98445e-26,-1.04485e-29,-1.7509799999999999e-30,-3.5648499999999999e-30
3224.0,3.5692499999999999e-29,-7.9866400000000005e-26,-7.9893200000000003e-26,-7.9855100000000004e-26,-5.65665e-30,-1.12166e-30,-2.9020300000000002e-30
3225.0,2.8208199999999999e-29,-7.9876200000000002e-26,-7.9899299999999995e-26,-7.9868499999999997e-26,-1.90532e-30,-6.6689500000000001e-31,-2.20021e-30
3226.0,2.0270399999999999e-29,-7.9884299999999999e-26,-7.9900100000000001e-26,-7.9877599999999997e-26,7.9903199999999997e-31,-5.5701300000000003e-31,-1.7251900000000001e-30
3227.0,1.5902299999999999e-29,-7.9893999999999998e-26,-7.99064e-26,-7.9889800000000003e-26,2.8363999999999999e-30,-6.2557399999999998e-32,-1.18916e-30
3228.0,5.9237400000000003e-29,-7.9847700000000004e-26,-7.9882799999999995e-26,-7.9824000000000001e-26,-1.6341899999999999e-29,-2.6054499999999999e-30,-4.6921199999999997e-30
3229.0,4.9658699999999999e-29,-7.9854799999999998e-26,-7.98871e-26,-7.9836099999999997e-26,-1.16992e-29,-2.0264799999999999e-30,-3.8149800000000001e-30
3230.0,3.9074099999999998e-29,-7.9860999999999999e-26,-7.9888299999999999e-26,-7.98462e-26,-6.3838199999999994e-30,-1.2412400000000001e-30,-3.1620299999999998e-30
3231.0,3.16026e-29,-7.9869800000000005e-26,-7.9894300000000004e-26,-7.9859399999999997e-26,-2.2748199999999999e-30,-7.3666299999999998e-31,-2.5079000000000002e-30
3232.0,2.4122e-29,-7.9877099999999995e-26,-7.9895500000000002e-26,-7.9868599999999995e-26,1.05593e-30,-4.41288e-31,-2.01145e-30
3233.0,2.01531e-29,-7.9886400000000003e-26,-7.9901899999999999e-26,-7.9880700000000003e-26,3.5646999999999999e-30,-9.5165199999999998e-33,-1.6102799999999999e-30
3234.0,1.5882300000000001e-29,-7.9894199999999994e-26,-7.9903300000000006e-26,-7.9888999999999996e-26,5.4379199999999998e-30,-1.1987899999999999e-31,-1.31562e-30
3235.0,1.7262099999999999e-28,-7.9795400000000005e-26,-7.9923200000000005e-26,-7.9778199999999996e-26,-5.2310000000000005e-29,-1.2965899999999999e-29,-2.74288e-29
3236.0,1.31978e-28,-7.9812000000000002e-26,-7.9916600000000001e-26,-7.9800799999999999e-26,-3.6266500000000001e-29,-8.2115900000000006e-30,-1.8459500000000001e-29
3237.0,9.9911699999999997e-29,-7.9830700000000003e-26,-7.9913200000000001e-26,-7.9823499999999999e-26,-2.5504700000000001e-29,-5.6656600000000002e-30,-1.2685200000000001e-29
3238.0,7.6638199999999995e-29,-7.98445e-26,-7.9910200000000004e-26,-7.9839700000000005e-26,-1.8044700000000001e-29,-3.5896200000000002e-30,-8.3055700000000006e-30
3239.0,5.59089e-29,-7.9862199999999998e-26,-7.9910800000000003e-26,-7.98587e-26,-1.2555099999999999e-29,-3.1110099999999998e-30,-5.1182699999999998e-30
3240.0,4.2831800000000002e-29,-7.9871600000000003e-26,-7.9908899999999996e-26,-7.9869699999999996e-26,-1.02164e-29,-1.2762e-30,-4.1065500000000003e-30
3241.0,2.9896300000000003e-29,-7.9891000000000002e-26,-7.9917000000000004e-26,-7.9886300000000005e-26,-4.4602800000000002e-30,-2.12923e-30,-4.6775399999999996e-31
3242.0,1.47877e-28,-7.9808399999999995e-26,-7.9909600000000005e-26,-7.9786e-26,-4.8466900000000001e-29,-1.22943e-29,-2.1251299999999999e-29
3243.0,1.14094e-28,-7.9823599999999997e-26,-7.9908299999999996e-26,-7.9808799999999998e-26,-3.4194499999999999e-29,-8.1268100000000001e-30,-1.4835000000000001e-29
3244.0,8.8407900000000001e-29,-7.9836199999999995e-26,-7.9905999999999997e-26,-7.9826399999999998e-26,-2.4163799999999999e-29,-5.5974799999999998e-30,-1.01663e-29
3245.0,6.6689099999999996e-29,-7.98519e-26,-7.9906800000000004e-26,-7.9845099999999999e-26,-1.6683499999999999e-29,-3.9700899999999998e-30,-6.7957299999999995e-30
3246.0,5.0841199999999995e-29,-7.9862699999999999e-26,-7.9905600000000005e-26,-7.9858100000000001e-26,-1.21156e-29,-2.76977e-30,-4.4936800000000001e-30
3247.0,3.6711000000000002e-29,-7.9877900000000002e-26,-7.9909899999999998e-26,-7.9874400000000004e-26,-7.6028299999999993e-30,-1.9635300000000001e-30,-2.36976e-30
3248.0,2.5414899999999997e-29,-7.9886400000000003e-26,-7.9907699999999997e-26,-7.9884000000000005e-26,-6.3866299999999996e-30,-7.2333099999999997e-31,-1.7497700000000001e-30
3249.0,1.23565e-28,-7.9821500000000005e-26,-7.9899900000000005e-26,-7.9796000000000004e-26,-4.2220099999999999e-29,-1.0736599999999999e-29,-1.6032499999999999e-29
3250.0,9.7755699999999998e-29,-7.9831200000000005e-26,-7.9900000000000003e-26,-7.9814100000000006e-26,-3.04664e-29,-7.3497000000000005e-30,-1.14787e-29
3251.0,7.5589100000000006e-29,-7.9844599999999998e-26,-7.9901600000000005e-26,-7.9832599999999999e-26,-2.13203e-29,-5.19087e-30,-8.0159099999999994e-30
3252.0,5.8368099999999999e-29,-7.9854799999999998e-26,-7.99013e-26,-7.9846700000000001e-26,-1.49181e-29,-3.7504899999999997e-30,-5.3957300000000001e-30
3253.0,4.3666000000000003e-29,-7.9868399999999999e-26,-7.9904799999999998e-26,-7.9862699999999999e-26,-9.6826400000000004e-30,-2.6376800000000002e-30,-3.4103699999999997e-30
3254.0,3.1931000000000002e-29,-7.9877499999999999e-26,-7.99047e-26,-7.9873499999999999e-26,-6.6730799999999995e-30,-1.8987999999999999e-30,-1.89652e-30
3255.0,2.22653e-29,-7.9890599999999998e-26,-7.9910800000000003e-26,-7.9888399999999997e-26,-3.1762200000000001e-30,-1.69333e-30,2.7991599999999999e-33
3256.0,1.0198799999999999e-28,-7.9829999999999994e-26,-7.98922e-26,-7.9804399999999995e-26,-3.481e-29,-8.8768199999999994e-30,-1.18577e-29
3257.0,8.1347800000000003e-29,-7.98405e-26,-7.9895299999999995e-26,-7.9822200000000003e-26,-2.5319899999999999e-29,-6.3465599999999995e-30,-8.6551000000000004e-30
3258.0,6.4122199999999997e-29,-7.9849099999999999e-26,-7.9896299999999998e-26,-7.9836400000000003e-26,-1.78001e-29,-4.5792500000000002e-30,-6.14223e-30
3259.0,4.9295500000000002e-29,-7.9860999999999999e-26,-7.9899699999999998e-26,-7.9851999999999998e-26,-1.17906e-29,-3.3034699999999998e-30,-4.1523900000000002e-30
3260.0,3.7268800000000002e-29,-7.9869800000000005e-26,-7.9900500000000005e-26,-7.9863399999999997e-26,-7.5927900000000006e-30,-2.4732500000000002e-30,-2.52589e-30
3261.0,2.7151400000000001e-29,-7.9881800000000004e-26,-7.9905399999999998e-26,-7.9877499999999999e-26,-3.8544200000000001e-30,-1.8505599999999999e-30,-1.19977e-30
3262.0,1.79295e-29,-7.9890599999999998e-26,-7.9905700000000003e-26,-7.9886599999999999e-26,-1.6927499999999999e-30,-1.4983299999999999e-30,-5.7576000000000003e-31
3263.0,8.2766299999999995e-29,-7.9839200000000004e-26,-7.9888299999999999e-26,-7.98144e-26,-2.7269099999999998e-29,-7.1827399999999998e-30,-8.6727500000000003e-30
3264.0,6.7408400000000004e-29,-7.9845699999999999e-26,-7.9890699999999996e-26,-7.9827800000000004e-26,-1.98659e-29,-5.2306000000000002e-30,-6.5006899999999998e-30
3265.0,5.3355800000000001e-29,-7.9855700000000003e-26,-7.98945e-26,-7.9842600000000004e-26,-1.36386e-29,-3.8619300000000002e-30,-4.6546999999999997e-30
3266.0,4.1400400000000002e-29,-7.9863700000000002e-26,-7.9895899999999994e-26,-7.9854199999999999e-26,-8.6545700000000006e-30,-2.8652100000000001e-30,-3.1111800000000002e-30
3267.0,3.1394899999999997e-29,-7.9874400000000004e-26,-7.9900399999999995e-26,-7.9867600000000004e-26,-4.5573599999999998e-30,-2.1270200000000001e-30,-1.8815199999999999e-30
3268.0,2.26779e-29,-7.9882500000000001e-26,-7.9901700000000003e-26,-7.9877300000000003e-26,-1.73368e-30,-1.64996e-30,-8.96512e-31
3269.0,1.6066900000000001e-29,-7.9892999999999996e-26,-7.9907099999999998e-26,-7.9889900000000001e-26,6.6035300000000002e-31,-1.15124e-30,2.2040300000000001e-31
3270.0,6.7778400000000001e-29,-7.9844199999999994e-26,-7.9885300000000002e-26,-7.9821600000000003e-26,-2.04095e-29,-5.6808599999999998e-30,-6.4701099999999999e-30
3271.0,5.5979299999999997e-29,-7.98519e-26,-7.9889300000000001e-26,-7.9834700000000003e-26,-1.4931099999999999e-29,-4.2923300000000002e-30,-4.9214899999999997e-30
3272.0,4.4713499999999999e-29,-7.9858600000000002e-26,-7.9891299999999995e-26,-7.9845699999999999e-26,-9.6699000000000004e-30,-3.1782899999999998e-30,-3.5667900000000002e-30
3273.0,3.4949499999999999e-29,-7.9868100000000005e-26,-7.98956e-26,-7.9858600000000002e-26,-5.2716099999999999e-30,-2.3717600000000001e-30,-2.3609699999999999e-30
3274.0,2.6552700000000002e-29,-7.9875600000000003e-26,-7.9897399999999999e-26,-7.9868499999999997e-26,-1.8347199999999999e-30,-1.7503999999999999e-30,-1.36638e-30
3275.0,2.01981e-29,-7.9885300000000002e-26,-7.9902400000000001e-26,-7.9880499999999996e-26,9.3139299999999994e-31,-1.23841e-30,-4.9751600000000003e-31
3276.0,1.4614500000000001e-29,-7.9893200000000003e-26,-7.9904100000000001e-26,-7.9888899999999998e-26,2.9922899999999999e-30,-1.06172e-30,1.05393e-33
3277.0,5.7465900000000003e-29,-7.9849299999999995e-26,-7.9884600000000005e-26,-7.9828299999999994e-26,-1.56238e-29,-4.7058900000000003e-30,-5.0610599999999998e-30
3278.0,4.7842400000000001e-29,-7.9854299999999997e-26,-7.9886599999999999e-26,-7.9837699999999999e-26,-1.0753e-29,-3.5735000000000003e-30,-3.96769e-30
3279.0,3.8418000000000001e-29,-7.9862400000000005e-26,-7.9890599999999998e-26,-7.9849699999999998e-26,-6.1574300000000003e-30,-2.7101499999999999e-30,-2.8167699999999999e-30
3280.0,3.0151199999999999e-29,-7.9869300000000004e-26,-7.9892899999999998e-26,-7.9859700000000003e-26,-2.10257e-30,-1.9275400000000001e-30,-1.8179299999999999e-30
3281.0,2.3951200000000001e-29,-7.9878199999999996e-26,-7.9897800000000002e-26,-7.9871399999999996e-26,1.0852400000000001e-30,-1.34473e-30,-9.5462299999999997e-31
3282.0,1.87412e-29,-7.9885599999999996e-26,-7.9899900000000005e-26,-7.9880200000000002e-26,3.5115599999999997e-30,-9.6038600000000001e-31,-2.7289500000000001e-31
3283.0,1.5531600000000001e-29,-7.9894800000000005e-26,-7.9905200000000002e-26,-7.9891299999999995e-26,5.2747899999999999e-30,-4.6938699999999999e-31,4.58951e-31
3284.0,1.55892e-28,-7.9798599999999997e-26,-7.9914800000000003e-26,-7.9788999999999996e-26,-4.4661599999999999e-29,-1.5491799999999999e-29,-3.1061199999999999e-29
3285.0,1.2024299999999999e-28,-7.98172e-26,-7.9912199999999998e-26,-7.9811099999999997e-26,-3.2105300000000002e-29,-1.06174e-29,-2.1537500000000001e-29
3286.0,9.3026200000000002e-29,-7.9831499999999999e-26,-7.9908899999999996e-26,-7.9827300000000003e-26,-2.2792599999999999e-29,-7.0748600000000005e-30,-1.4278399999999999e-29
3287.0,7.0081899999999999e-29,-7.9849199999999997e-26,-7.9909200000000001e-26,-7.9846399999999996e-26,-1.6300299999999999e-29,-5.46287e-30,-9.0689200000000002e-30
3288.0,5.3704300000000005e-29,-7.98604e-26,-7.9907500000000001e-26,-7.9858600000000002e-26,-1.21399e-29,-3.5151100000000003e-30,-5.7887599999999998e-30
3289.0,3.8975599999999999e-29,-7.9877599999999997e-26,-7.9912199999999998e-26,-7.9875199999999999e-26,-7.9067800000000004e-30,-3.3115099999999999e-30,-1.8688499999999999e-30
3290.0,2.7297900000000001e-29,-7.9885200000000004e-26,-7.9909000000000005e-26,-7.9886099999999997e-26,-7.7320299999999993e-30,-2.2766699999999999e-30,-5.1356400000000003e-31
3291.0,1.33791e-28,-7.9812500000000004e-26,-7.9905700000000003e-26,-7.97979e-26,-4.1719799999999999e-29,-1.47486e-29,-2.42542e-29
3292.0,1.05133e-28,-7.9824799999999996e-26,-7.9904299999999997e-26,-7.9814999999999999e-26,-3.00072e-29,-1.0149400000000001e-29,-1.6792599999999999e-29
3293.0,8.1217500000000005e-29,-7.9840099999999997e-26,-7.9905000000000006e-26,-7.9833600000000002e-26,-2.1452600000000001e-29,-7.2522100000000005e-30,-1.1361799999999999e-29
3294.0,6.2633099999999995e-29,-7.9851700000000004e-26,-7.9903900000000005e-26,-7.9847100000000005e-26,-1.5232499999999999e-29,-5.2950300000000002e-30,-7.2905799999999993e-30
3295.0,4.6942499999999999e-29,-7.9866500000000003e-26,-7.9907e-26,-7.9863399999999997e-26,-1.05533e-29,-3.9350099999999999e-30,-4.1061599999999998e-30
3296.0,3.4522699999999999e-29,-7.9876100000000004e-26,-7.9906300000000002e-26,-7.9873800000000005e-26,-7.5337700000000004e-30,-2.9030299999999999e-30,-1.94617e-30
3297.0,2.42636e-29,-7.9891299999999995e-26,-7.9912500000000003e-26,-7.9888700000000002e-26,-4.1486399999999997e-30,-2.9395299999999998e-30,6.1766800000000003e-31
3298.0,1.13442e-28,-7.9822300000000001e-26,-7.9897200000000003e-26,-7.9804100000000001e-26,-3.6706400000000002e-29,-1.3111799999999999e-29,-1.82534e-29
3299.0,9.0195999999999996e-29,-7.9834499999999995e-26,-7.9899500000000002e-26,-7.9821899999999997e-26,-2.6824900000000001e-29,-9.3548000000000004e-30,-1.2906800000000001e-29
3300.0,7.0538499999999995e-29,-7.9844900000000003e-26,-7.9899400000000004e-26,-7.9836199999999995e-26,-1.9036799999999999e-29,-6.8494000000000003e-30,-8.7121800000000003e-30
3301.0,5.42907e-29,-7.9858000000000003e-26,-7.9902200000000005e-26,-7.9851999999999998e-26,-1.3244700000000001e-29,-5.0293399999999998e-30,-5.5345399999999999e-30
3302.0,4.1020900000000002e-29,-7.9867700000000002e-26,-7.9902400000000001e-26,-7.9863399999999997e-26,-8.9104400000000006e-30,-3.8532899999999999e-30,-2.9779299999999999e-30
3303.0,2.9810700000000001e-29,-7.9880800000000001e-26,-7.9906900000000002e-26,-7.9877900000000002e-26,-5.5463700000000002e-30,-2.9632499999999999e-30,-9.5663000000000007e-31
3304.0,2.0115999999999999e-29,-7.9889100000000006e-26,-7.9906599999999996e-26,-7.9886799999999995e-26,-3.6221900000000001e-30,-2.0694700000000001e-30,2.5742099999999998e-31
3305.0,9.4604300000000005e-29,-7.9832300000000005e-26,-7.9892399999999996e-26,-7.9812500000000004e-26,-3.07348e-29,-1.11428e-29,-1.34423e-29
3306.0,7.6131100000000001e-29,-7.9840699999999996e-26,-7.9894099999999996e-26,-7.9826600000000006e-26,-2.2519300000000001e-29,-8.1663999999999995e-30,-9.5798399999999995e-30
3307.0,6.0067099999999998e-29,-7.98519e-26,-7.9897200000000003e-26,-7.9841899999999995e-26,-1.59058e-29,-6.0659699999999997e-30,-6.5056300000000002e-30
3308.0,4.6431999999999999e-29,-7.9860800000000003e-26,-7.9898099999999996e-26,-7.9853799999999996e-26,-1.06298e-29,-4.6551000000000001e-30,-3.9196800000000001e-30
3309.0,3.5044300000000001e-29,-7.9872499999999997e-26,-7.9902099999999995e-26,-7.9867600000000004e-26,-6.6507800000000001e-30,-3.5072600000000001e-30,-1.9955299999999999e-30
3310.0,2.5477699999999999e-29,-7.9880800000000001e-26,-7.9903e-26,-7.9877200000000005e-26,-3.6818800000000003e-30,-2.7790399999999998e-30,-3.1712399999999999e-31
3311.0,1.7763200000000001e-29,-7.9892399999999996e-26,-7.9908399999999994e-26,-7.9890400000000002e-26,-1.13651e-30,-2.37328e-30,1.34597e-30
3312.0,7.7878600000000001e-29,-7.9839100000000006e-26,-7.9888000000000005e-26,-7.9819400000000002e-26,-2.4397600000000001e-29,-9.1568899999999993e-30,-9.6889899999999998e-30
3313.0,6.3710400000000004e-29,-7.98479e-26,-7.9892000000000004e-26,-7.9833399999999995e-26,-1.7954600000000001e-29,-6.9082599999999997e-30,-7.0092999999999996e-30
3314.0,5.0546199999999996e-29,-7.9855600000000005e-26,-7.9893700000000004e-26,-7.9845099999999999e-26,-1.22663e-29,-5.2865599999999998e-30,-4.6225100000000003e-30
3315.0,3.9337399999999998e-29,-7.9865900000000004e-26,-7.9897499999999996e-26,-7.9858299999999997e-26,-7.7712699999999994e-30,-4.0198000000000003e-30,-2.74837e-30
3316.0,2.9736000000000001e-29,-7.9873800000000005e-26,-7.9899000000000001e-26,-7.9868399999999999e-26,-4.1311999999999997e-30,-3.1727299999999999e-30,-1.0496999999999999e-30
3317.0,2.1839800000000001e-29,-7.9884299999999999e-26,-7.9903599999999999e-26,-7.9880700000000003e-26,-1.2942999999999999e-30,-2.4753700000000001e-30,2.4598800000000002e-31
3318.0,1.50777e-29,-7.9892100000000002e-26,-7.99047e-26,-7.9888899999999998e-26,7.6592800000000004e-31,-2.02152e-30,1.14479e-30
3319.0,6.4536600000000004e-29,-7.9845799999999997e-26,-7.9886699999999997e-26,-7.98269e-26,-1.8694000000000001e-29,-7.51558e-30,-7.0463699999999996e-30
3320.0,5.3476699999999997e-29,-7.9851800000000002e-26,-7.9889100000000006e-26,-7.9837500000000004e-26,-1.3506299999999999e-29,-5.8402299999999999e-30,-5.0859600000000002e-30
3321.0,4.2897800000000002e-29,-7.9860499999999998e-26,-7.9892899999999998e-26,-7.9849799999999996e-26,-8.8768800000000006e-30,-4.4984899999999997e-30,-3.3465300000000001e-30
3322.0,3.3398299999999997e-29,-7.9867700000000002e-26,-7.9894699999999996e-26,-7.9859899999999999e-26,-4.7498900000000002e-30,-3.51751e-30,-1.73485e-30
3323.0,2.5656499999999997e-29,-7.9877200000000005e-26,-7.9899000000000001e-26,-7.9871700000000001e-26,-1.4820200000000001e-30,-2.7132000000000001e-30,-4.51787e-31
3324.0,1.92437e-29,-7.9884600000000005e-26,-7.9900899999999997e-26,-7.9880399999999998e-26,1.02325e-30,-2.1412499999999999e-30,6.7456299999999997e-31
3325.0,1.4648e-29,-7.9894099999999996e-26,-7.9905800000000001e-26,-7.9891799999999997e-26,2.9938100000000002e-30,-1.5733400000000001e-30,1.7918299999999999e-30
3326.0,5.5082999999999997e-29,-7.9849099999999999e-26,-7.9884899999999999e-26,-7.9831400000000001e-26,-1.4168199999999999e-29,-6.33789e-30,-5.30028e-30
3327.0,4.6164099999999998e-29,-7.9855800000000001e-26,-7.9888200000000001e-26,-7.9841699999999999e-26,-1.00774e-29,-5.0549400000000001e-30,-3.8887900000000002e-30
3328.0,3.6922699999999999e-29,-7.98621e-26,-7.9890300000000004e-26,-7.9851399999999998e-26,-5.5653000000000003e-30,-3.9383699999999998e-30,-2.34779e-30
3329.0,2.92596e-29,-7.9870699999999998e-26,-7.98945e-26,-7.9862799999999997e-26,-1.84911e-30,-2.9935600000000002e-30,-1.02732e-30
3330.0,2.2942199999999999e-29,-7.9877699999999995e-26,-7.9896799999999999e-26,-7.9871999999999995e-26,1.1559099999999999e-30,-2.27262e-30,1.1929700000000001e-31
3331.0,1.8456900000000001e-29,-7.9886599999999999e-26,-7.9901499999999996e-26,-7.9882900000000005e-26,3.5059200000000001e-30,-1.66873e-30,1.0973200000000001e-30
3332.0,1.53802e-29,-7.98939e-26,-7.9903699999999997e-26,-7.9890699999999996e-26,5.3303499999999998e-30,-1.3223199999999999e-30,1.7214000000000001e-30
3333.0,1.35746e-28,-7.9806099999999995e-26,-7.9907799999999995e-26,-7.9804399999999995e-26,-3.6912799999999997e-29,-1.67198e-29,-3.1491600000000001e-29
3334.0,1.07238e-28,-7.9820400000000005e-26,-7.9906200000000004e-26,-7.9818900000000001e-26,-2.7145399999999998e-29,-1.15431e-29,-2.1602899999999999e-29
3335.0,8.2883000000000005e-29,-7.9837299999999996e-26,-7.9906599999999996e-26,-7.9836599999999999e-26,-1.9755899999999999e-29,-8.6193399999999998e-30,-1.4459200000000001e-29
3336.0,6.4238899999999996e-29,-7.98496e-26,-7.9905200000000002e-26,-7.9849099999999999e-26,-1.46418e-29,-6.0935899999999999e-30,-9.0909800000000006e-30
3337.0,4.8305200000000002e-29,-7.9865699999999996e-26,-7.9908600000000002e-26,-7.9864999999999999e-26,-1.03999e-29,-5.0687100000000001e-30,-4.4292600000000001e-30
3338.0,3.5544899999999999e-29,-7.9875199999999999e-26,-7.9907099999999998e-26,-7.9875799999999999e-26,-8.4692899999999993e-30,-3.7256700000000003e-30,-1.8200199999999999e-30
3339.0,2.5706699999999998e-29,-7.9891199999999998e-26,-7.9913700000000002e-26,-7.9889499999999997e-26,-5.1567500000000003e-30,-3.2577600000000001e-30,1.0314e-30
3340.0,1.1835300000000001e-28,-7.9815699999999996e-26,-7.9900500000000005e-26,-7.9808299999999997e-26,-3.4614600000000001e-29,-1.57574e-29,-2.4400200000000001e-29
3341.0,9.3848899999999996e-29,-7.9829899999999996e-26,-7.9902099999999995e-26,-7.9824900000000006e-26,-2.5482000000000002e-29,-1.13247e-29,-1.7106599999999999e-29
3342.0,7.3785200000000001e-29,-7.9841799999999997e-26,-7.9901700000000003e-26,-7.9838200000000001e-26,-1.85836e-29,-8.3933000000000007e-30,-1.1310800000000001e-29
3343.0,5.6829600000000004e-29,-7.9855899999999999e-26,-7.9904100000000001e-26,-7.9853699999999998e-26,-1.33158e-29,-6.3461900000000003e-30,-6.8791100000000002e-30
3344.0,4.3148099999999998e-29,-7.9866299999999996e-26,-7.9904000000000003e-26,-7.9864599999999995e-26,-9.4760599999999999e-30,-4.9364800000000001e-30,-3.4917800000000003e-30
3345.0,3.1787300000000001e-29,-7.9880200000000002e-26,-7.9908399999999994e-26,-7.9879000000000003e-26,-6.4851799999999994e-30,-4.12106e-30,-5.0544399999999996e-31
3346.0,2.2133200000000001e-29,-7.9888200000000001e-26,-7.9907699999999997e-26,-7.9888399999999997e-26,-5.1126400000000002e-30,-3.1428599999999999e-30,1.26643e-30
3347.0,1.0163500000000001e-28,-7.9825899999999997e-26,-7.9895699999999998e-26,-7.9814499999999998e-26,-3.0947400000000001e-29,-1.4305400000000001e-29,-1.8620499999999999e-29
3348.0,8.1757000000000004e-29,-7.9836099999999997e-26,-7.9896999999999995e-26,-7.9828199999999996e-26,-2.2947299999999999e-29,-1.0553100000000001e-29,-1.30814e-29
3349.0,6.4398600000000003e-29,-7.9848400000000001e-26,-7.9899500000000002e-26,-7.9842999999999996e-26,-1.6531099999999999e-29,-7.9288300000000001e-30,-8.6084400000000005e-30
3350.0,4.9925200000000003e-29,-7.9858500000000004e-26,-7.9900100000000001e-26,-7.98547e-26,-1.15297e-29,-6.1787700000000002e-30,-5.0254799999999998e-30
3351.0,3.7780099999999998e-29,-7.9870899999999994e-26,-7.9903599999999999e-26,-7.9868399999999999e-26,-7.8389699999999998e-30,-4.8162e-30,-2.20817e-30
3352.0,2.7749300000000002e-29,-7.98797e-26,-7.9904299999999997e-26,-7.9878e-26,-4.9995200000000003e-30,-3.8944499999999997e-30,4.1664799999999997e-32
3353.0,1.9780099999999999e-29,-7.9892399999999996e-26,-7.9909600000000005e-26,-7.98911e-26,-2.5379199999999999e-30,-3.5460300000000001e-30,2.21473e-30
3354.0,8.6109899999999995e-29,-7.9833500000000004e-26,-7.98911e-26,-7.9819699999999996e-26,-2.6315899999999999e-29,-1.24707e-29,-1.3790300000000001e-29
3355.0,6.9958699999999998e-29,-7.9843599999999995e-26,-7.9894599999999998e-26,-7.98337e-26,-1.95414e-29,-9.4020400000000007e-30,-9.7053799999999994e-30
3356.0,5.5474999999999997e-29,-7.9852599999999997e-26,-7.9896000000000004e-26,-7.9845600000000001e-26,-1.3805700000000001e-29,-7.27649e-30,-6.1992700000000001e-30
3357.0,4.3107099999999998e-29,-7.9863600000000004e-26,-7.9899199999999997e-26,-7.98587e-26,-9.3411700000000005e-30,-5.6344600000000002e-30,-3.4493500000000002e-30
3358.0,3.2744600000000001e-29,-7.9872200000000003e-26,-7.9900500000000005e-26,-7.98689e-26,-5.7523900000000003e-30,-4.55261e-30,-1.05752e-30
3359.0,2.39511e-29,-7.9883399999999994e-26,-7.99047e-26,-7.9881300000000002e-26,-3.0873e-30,-3.6641400000000001e-30,8.1344299999999991e-31
3360.0,1.6664399999999999e-29,-7.98911e-26,-7.9905499999999996e-26,-7.9889499999999997e-26,-1.20291e-30,-2.94847e-30,2.1981299999999999e-30
3361.0,7.2178300000000006e-29,-7.98411e-26,-7.9888999999999996e-26,-7.9826399999999998e-26,-2.1320499999999999e-29,-1.05717e-29,-9.9323000000000005e-30
3362.0,5.9229200000000001e-29,-7.9848599999999997e-26,-7.9891500000000003e-26,-7.9837699999999999e-26,-1.5689700000000001e-29,-8.1626999999999995e-30,-6.9399499999999998e-30
3363.0,4.7399999999999998e-29,-7.9857900000000005e-26,-7.9894900000000003e-26,-7.9850100000000001e-26,-1.08411e-29,-6.3763900000000003e-30,-4.3293599999999997e-30
3364.0,3.6975699999999999e-29,-7.9865900000000004e-26,-7.9896600000000003e-26,-7.98604e-26,-6.7402899999999998e-30,-5.1129700000000002e-30,-2.01925e-30
3365.0,2.8104100000000001e-29,-7.9875899999999997e-26,-7.9900299999999997e-26,-7.9872100000000005e-26,-3.55008e-30,-4.0660899999999997e-30,-2.1440700000000001e-31
3366.0,2.0995199999999999e-29,-7.9883500000000004e-26,-7.9901999999999997e-26,-7.9880899999999999e-26,-1.00149e-30,-3.36349e-30,1.4356700000000001e-30
3367.0,1.5588899999999999e-29,-7.9893599999999995e-26,-7.9906800000000004e-26,-7.9892399999999996e-26,1.04632e-30,-2.78495e-30,2.9682999999999998e-30
3368.0,6.04998e-29,-7.9846299999999998e-26,-7.9886799999999995e-26,-7.9831599999999996e-26,-1.6519900000000001e-29,-8.8827000000000001e-30,-7.0804700000000002e-30
3369.0,5.0536499999999996e-29,-7.98536e-26,-7.98905e-26,-7.9842499999999994e-26,-1.2072900000000001e-29,-7.0468199999999999e-30,-4.93986e-30
3370.0,4.0650299999999999e-29,-7.9860700000000005e-26,-7.9892600000000004e-26,-7.9852499999999999e-26,-7.8245400000000005e-30,-5.6317199999999997e-30,-2.82707e-30
3371.0,3.1848499999999998e-29,-7.98695e-26,-7.9896100000000002e-26,-7.9863600000000004e-26,-4.1617399999999997e-30,-4.48466e-30,-1.02368e-30
3372.0,2.4667199999999999e-29,-7.9876800000000001e-26,-7.9898200000000005e-26,-7.9872700000000004e-26,-1.15317e-30,-3.6242799999999998e-30,6.1350799999999998e-31
3373.0,1.8857899999999999e-29,-7.9885999999999999e-26,-7.9902400000000001e-26,-7.9883500000000004e-26,1.1957700000000001e-30,-2.8936999999999999e-30,1.9192799999999999e-30
3374.0,1.4741399999999999e-29,-7.9893200000000003e-26,-7.9904100000000001e-26,-7.98911e-26,3.0446199999999999e-30,-2.4210000000000001e-30,2.9018499999999999e-30
3375.0,5.2401500000000002e-29,-7.9850500000000005e-26,-7.9886300000000005e-26,-7.9836300000000005e-26,-1.2865800000000001e-29,-7.6865399999999994e-30,-5.2825399999999998e-30
3376.0,4.3995700000000001e-29,-7.9855899999999999e-26,-7.9888399999999997e-26,-7.9844699999999996e-26,-8.9274199999999997e-30,-6.3028499999999998e-30,-3.5301399999999998e-30
3377.0,3.5480700000000001e-29,-7.9863600000000004e-26,-7.9891699999999999e-26,-7.9855100000000004e-26,-4.9889800000000002e-30,-5.0209299999999999e-30,-1.7850900000000001e-30
3378.0,2.81889e-29,-7.9870500000000003e-26,-7.9894199999999994e-26,-7.9864499999999997e-26,-1.51614e-30,-3.9928200000000002e-30,-1.6567e-31
3379.0,2.2399600000000001e-29,-7.9879000000000003e-26,-7.9898099999999996e-26,-7.9874799999999996e-26,1.2841500000000001e-30,-3.1498e-30,1.2036899999999999e-30
3380.0,1.82899e-29,-7.9885900000000001e-26,-7.9900600000000003e-26,-7.98831e-26,3.4676300000000002e-30,-2.5050700000000001e-30,2.3883700000000001e-30
3381.0,1.57808e-29,-7.98945e-26,-7.9905100000000004e-26,-7.9893499999999997e-26,5.0831300000000001e-30,-1.82797e-30,3.5314200000000001e-30
3382.0,1.1567199999999999e-28,-7.9812199999999998e-26,-7.9901100000000004e-26,-7.9815799999999994e-26,-2.9411800000000001e-29,-1.6199199999999999e-29,-2.8273099999999998e-29
3383.0,9.2650599999999995e-29,-7.9827699999999995e-26,-7.9902699999999995e-26,-7.9830499999999996e-26,-2.2442e-29,-1.2191999999999999e-29,-2.0054600000000001e-29
3384.0,7.3378699999999998e-29,-7.9839900000000001e-26,-7.9902200000000005e-26,-7.9841799999999997e-26,-1.68885e-29,-8.9899300000000001e-30,-1.3155000000000001e-29
3385.0,5.6662700000000005e-29,-7.9855399999999998e-26,-7.9905100000000004e-26,-7.9856699999999994e-26,-1.24611e-29,-7.2684699999999998e-30,-7.6670199999999996e-30
3386.0,4.32065e-29,-7.9865599999999998e-26,-7.9904399999999995e-26,-7.9867100000000002e-26,-9.7346499999999998e-30,-5.5902000000000001e-30,-3.6937099999999999e-30
3387.0,3.2696999999999998e-29,-7.9880499999999996e-26,-7.99098e-26,-7.9880600000000005e-26,-6.9241800000000005e-30,-4.77678e-30,-5.67895e-32
3388.0,2.3641800000000001e-29,-7.9888399999999997e-26,-7.9908600000000002e-26,-7.9890300000000004e-26,-6.2723399999999997e-30,-4.0835700000000003e-30,2.34383e-30
3389.0,1.0218e-28,-7.9821899999999997e-26,-7.9897499999999996e-26,-7.9820600000000001e-26,-2.7971599999999998e-29,-1.57386e-29,-2.2571199999999999e-29
3390.0,8.2816499999999995e-29,-7.9833100000000001e-26,-7.9898499999999999e-26,-7.9832e-26,-2.1227099999999999e-29,-1.1835299999999999e-29,-1.5739699999999999e-29
3391.0,6.5627599999999997e-29,-7.9846399999999996e-26,-7.9900899999999997e-26,-7.9846000000000004e-26,-1.5793700000000001e-29,-9.0997000000000006e-30,-1.0324499999999999e-29
3392.0,5.1131999999999997e-29,-7.9857099999999998e-26,-7.9901200000000002e-26,-7.9856800000000004e-26,-1.1488700000000001e-29,-7.2038700000000006e-30,-5.8606400000000002e-30
3393.0,3.9071000000000001e-29,-7.9870199999999997e-26,-7.9904899999999996e-26,-7.9870299999999995e-26,-8.3253000000000001e-30,-5.8776899999999998e-30,-2.1795400000000001e-30
3394.0,2.9003099999999999e-29,-7.9879199999999999e-26,-7.9905200000000002e-26,-7.98797e-26,-6.0067299999999997e-30,-4.7803699999999997e-30,4.9284299999999999e-31
3395.0,2.14106e-29,-7.9892700000000002e-26,-7.9910700000000005e-26,-7.98922e-26,-3.7725899999999999e-30,-4.2699399999999998e-30,2.9903699999999998e-30
3396.0,8.95189e-29,-7.9829100000000001e-26,-7.9893300000000001e-26,-7.9823400000000001e-26,-2.54277e-29,-1.4577200000000001e-29,-1.7428799999999999e-29
3397.0,7.3001499999999998e-29,-7.9840199999999995e-26,-7.9896399999999996e-26,-7.9836300000000005e-26,-1.9267700000000001e-29,-1.11525e-29,-1.21555e-29
3398.0,5.8155699999999995e-29,-7.9850199999999999e-26,-7.9897499999999996e-26,-7.9847399999999999e-26,-1.4020500000000001e-29,-8.7757500000000004e-30,-7.7373600000000002e-30
3399.0,4.5382899999999998e-29,-7.9861799999999995e-26,-7.9900600000000003e-26,-7.9860300000000002e-26,-1.00029e-29,-6.9853200000000002e-30,-4.0995600000000001e-30
3400.0,3.46669e-29,-7.9871100000000002e-26,-7.9901700000000003e-26,-7.9870099999999999e-26,-6.6808699999999999e-30,-5.7401500000000003e-30,-1.07746e-30
3401.0,2.5903799999999998e-29,-7.9882900000000005e-26,-7.9905899999999999e-26,-7.9882500000000001e-26,-4.3545700000000002e-30,-4.8316599999999999e-30,1.46193e-30
3402.0,1.8747599999999999e-29,-7.98905e-26,-7.99064e-26,-7.9890900000000004e-26,-2.791e-30,-3.9955999999999998e-30,3.2965699999999999e-30
3403.0,7.72341e-29,-7.9836699999999997e-26,-7.98911e-26,-7.9828299999999994e-26,-2.2000200000000001e-29,-1.3043699999999999e-29,-1.3039399999999999e-29
3404.0,6.3396199999999996e-29,-7.9845199999999997e-26,-7.9893399999999999e-26,-7.9839200000000004e-26,-1.6551200000000001e-29,-1.0186599999999999e-29,-8.9674199999999995e-30
3405.0,5.0831600000000001e-29,-7.9855399999999998e-26,-7.9896500000000005e-26,-7.98513e-26,-1.18678e-29,-8.0732499999999996e-30,-5.5108899999999998e-30
3406.0,3.9768199999999999e-29,-7.9864200000000004e-26,-7.9897999999999998e-26,-7.9861400000000003e-26,-7.9180500000000003e-30,-6.6031799999999999e-30,-2.48479e-30
3407.0,3.0417799999999998e-29,-7.9874699999999998e-26,-7.9901499999999996e-26,-7.9873099999999996e-26,-4.9820800000000003e-30,-5.4019699999999999e-30,-2.0004699999999999e-32
3408.0,2.2950000000000001e-29,-7.9882599999999999e-26,-7.9903e-26,-7.9881800000000004e-26,-2.5206299999999999e-30,-4.5670599999999999e-30,2.0911200000000001e-30
3409.0,1.7408200000000001e-29,-7.9893599999999995e-26,-7.9907799999999995e-26,-7.9893300000000001e-26,-5.5717700000000001e-31,-4.00678e-30,4.0239799999999997e-30
3410.0,6.5796899999999997e-29,-7.9842600000000004e-26,-7.98888e-26,-7.9832599999999999e-26,-1.8121999999999999e-29,-1.13332e-29,-9.4410800000000002e-30
3411.0,5.4686800000000001e-29,-7.9850899999999997e-26,-7.9892299999999998e-26,-7.9843499999999997e-26,-1.3520599999999999e-29,-9.0230399999999998e-30,-6.38587e-30
3412.0,4.4053699999999999e-29,-7.98587e-26,-7.9894300000000004e-26,-7.9853500000000002e-26,-9.3004299999999997e-30,-7.3071699999999994e-30,-3.5975899999999999e-30
3413.0,3.4623900000000003e-29,-7.9867999999999996e-26,-7.9897499999999996e-26,-7.9864499999999997e-26,-5.8227400000000001e-30,-5.9446900000000002e-30,-1.2204e-30
3414.0,2.6782900000000002e-29,-7.9875700000000001e-26,-7.9899400000000004e-26,-7.9873599999999997e-26,-2.8617900000000001e-30,-4.9676600000000002e-30,9.4782000000000007e-31
3415.0,2.0367499999999999e-29,-7.98854e-26,-7.9903300000000006e-26,-7.9884399999999997e-26,-6.7319499999999997e-31,-4.10528e-30,2.6802899999999999e-30
3416.0,1.5706500000000001e-29,-7.9892399999999996e-26,-7.99047e-26,-7.9891899999999995e-26,1.0167400000000001e-30,-3.5300900000000001e-30,4.0733200000000003e-30
3417.0,5.6311300000000001e-29,-7.9847999999999998e-26,-7.9887899999999995e-26,-7.9837299999999996e-26,-1.4298899999999999e-29,-9.84231e-30,-6.6897599999999999e-30
3418.0,4.7336199999999999e-29,-7.9854399999999995e-26,-7.98905e-26,-7.9846299999999998e-26,-1.0499400000000001e-29,-7.9964000000000003e-30,-4.4070800000000002e-30
3419.0,3.8429000000000003e-29,-7.9862299999999996e-26,-7.9893599999999995e-26,-7.98564e-26,-6.8051900000000006e-30,-6.5496600000000006e-30,-2.1741800000000001e-30
3420.0,3.0466600000000002e-29,-7.9869599999999998e-26,-7.9895699999999998e-26,-7.9865599999999998e-26,-3.4909199999999997e-30,-5.4075599999999997e-30,-1.12452e-31
3421.0,2.38061e-29,-7.9878300000000006e-26,-7.9899199999999997e-26,-7.9875799999999999e-26,-8.1814300000000008e-31,-4.44958e-30,1.6253099999999999e-30
3422.0,1.90514e-29,-7.9885300000000002e-26,-7.9901399999999998e-26,-7.9883899999999996e-26,1.3574800000000001e-30,-3.7567200000000003e-30,3.21366e-30
3423.0,1.5962699999999999e-29,-7.9894199999999994e-26,-7.9905800000000001e-26,-7.9894199999999994e-26,3.0640099999999999e-30,-3.0353e-30,4.6614200000000003e-30
3424.0,4.9330300000000002e-29,-7.98513e-26,-7.9886799999999995e-26,-7.9840599999999998e-26,-1.12556e-29,-8.6801399999999996e-30,-4.8150100000000001e-30
3425.0,4.1853400000000002e-29,-7.9857400000000003e-26,-7.9889599999999995e-26,-7.9849000000000001e-26,-7.8989399999999995e-30,-7.2489300000000002e-30,-3.0300399999999999e-30
3426.0,3.4067100000000001e-29,-7.98638e-26,-7.9891799999999997e-26,-7.9857699999999997e-26,-4.3612600000000003e-30,-5.9810499999999998e-30,-1.06983e-30
3427.0,2.7320700000000001e-29,-7.9871700000000001e-26,-7.9895199999999997e-26,-7.9867499999999994e-26,-1.2190100000000001e-30,-4.8819400000000002e-30,7.3145499999999999e-31
3428.0,2.2177400000000001e-29,-7.98786e-26,-7.9897700000000004e-26,-7.9876100000000004e-26,1.36726e-30,-3.98799e-30,2.3431799999999999e-30
3429.0,1.84916e-29,-7.9886900000000004e-26,-7.9901700000000003e-26,-7.9885800000000003e-26,3.3731400000000003e-30,-3.2037200000000001e-30,3.6659900000000001e-30
3430.0,1.6492300000000001e-29,-7.9893700000000004e-26,-7.9903799999999995e-26,-7.9892999999999996e-26,4.9645899999999997e-30,-2.7572199999999999e-30,4.6736099999999999e-30
3431.0,9.7613799999999998e-29,-7.9820899999999995e-26,-7.9897700000000004e-26,-7.9828500000000002e-26,-2.3542399999999999e-29,-1.5549099999999999e-29,-2.4295300000000001e-29
3432.0,8.0514300000000004e-29,-7.9831699999999994e-26,-7.9898499999999999e-26,-7.9837000000000002e-26,-1.86189e-29,-1.1955800000000001e-29,-1.7103999999999999e-29
3433.0,6.4007300000000004e-29,-7.9846100000000002e-26,-7.99013e-26,-7.9850199999999999e-26,-1.4180999999999999e-29,-9.7232299999999998e-30,-1.11486e-29
3434.0,5.0056700000000001e-29,-7.9856599999999996e-26,-7.9901200000000002e-26,-7.9859899999999999e-26,-1.10708e-29,-7.7089999999999995e-30,-6.0552400000000003e-30
3435.0,3.8895000000000002e-29,-7.9870699999999998e-26,-7.9905899999999999e-26,-7.9872700000000004e-26,-8.2240700000000004e-30,-6.5219099999999994e-30,-1.7811400000000001e-30
3436.0,2.9327299999999999e-29,-7.9879500000000004e-26,-7.9905499999999996e-26,-7.9881900000000002e-26,-6.8512399999999996e-30,-5.5194599999999998e-30,1.3199e-30
3437.0,2.2761700000000001e-29,-7.9893300000000001e-26,-7.9911799999999995e-26,-7.9893800000000002e-26,-4.8389099999999998e-30,-4.7545099999999998e-30,3.9196800000000001e-30
3438.0,8.81605e-29,-7.9826600000000006e-26,-7.9894300000000004e-26,-7.9829100000000001e-26,-2.2595900000000001e-29,-1.51796e-29,-1.9395999999999999e-29
3439.0,7.2846200000000001e-29,-7.9838200000000001e-26,-7.9897200000000003e-26,-7.9840400000000002e-26,-1.7735600000000001e-29,-1.20012e-29,-1.3844700000000001e-29
3440.0,5.8475599999999997e-29,-7.9848499999999999e-26,-7.9897999999999998e-26,-7.9850199999999999e-26,-1.3384399999999999e-29,-9.6990600000000005e-30,-8.7141299999999999e-30
3441.0,4.5919699999999999e-29,-7.9860999999999999e-26,-7.99013e-26,-7.9862699999999999e-26,-9.9708600000000006e-30,-7.96611e-30,-4.3677900000000003e-30
3442.0,3.5377299999999998e-29,-7.9870500000000003e-26,-7.9902200000000005e-26,-7.9871999999999995e-26,-7.23925e-30,-6.6111200000000004e-30,-8.3885299999999996e-31
3443.0,2.7256400000000002e-29,-7.9883000000000002e-26,-7.9906900000000002e-26,-7.9884000000000005e-26,-5.1905899999999998e-30,-5.71606e-30,2.2033299999999999e-30
3444.0,2.08098e-29,-7.9890599999999998e-26,-7.9907300000000005e-26,-7.9892600000000004e-26,-4.0550099999999997e-30,-4.9618699999999999e-30,4.49523e-30
3445.0,7.8460599999999997e-29,-7.9833600000000002e-26,-7.9892500000000006e-26,-7.9832500000000001e-26,-2.08218e-29,-1.43469e-29,-1.52617e-29
3446.0,6.5249699999999995e-29,-7.9842499999999994e-26,-7.98945e-26,-7.9841799999999997e-26,-1.6117600000000001e-29,-1.15607e-29,-1.06357e-29
3447.0,5.2541500000000001e-29,-7.9853300000000006e-26,-7.9897300000000001e-26,-7.9853300000000006e-26,-1.2020199999999999e-29,-9.4004899999999994e-30,-6.4806700000000007e-30
3448.0,4.1318300000000001e-29,-7.9862699999999999e-26,-7.9898699999999995e-26,-7.9862899999999995e-26,-8.43087e-30,-7.81894e-30,-2.7995400000000001e-30
3449.0,3.20476e-29,-7.9873800000000005e-26,-7.9902300000000003e-26,-7.98746e-26,-5.8473399999999997e-30,-6.5982100000000003e-30,3.4168399999999999e-31
3450.0,2.45665e-29,-7.9882099999999998e-26,-7.9903699999999997e-26,-7.98831e-26,-3.6757000000000002e-30,-5.6236599999999998e-30,2.8132100000000001e-30
3451.0,1.9350999999999999e-29,-7.9893800000000002e-26,-7.9908600000000002e-26,-7.9894400000000002e-26,-1.8997e-30,-5.0237799999999999e-30,5.0621500000000001e-30
3452.0,6.8795500000000001e-29,-7.9839300000000002e-26,-7.9890199999999995e-26,-7.9835099999999995e-26,-1.82075e-29,-1.3162999999999999e-29,-1.15223e-29
3453.0,5.7605400000000002e-29,-7.9848099999999996e-26,-7.9893499999999997e-26,-7.9845199999999997e-26,-1.40395e-29,-1.06565e-29,-7.8553899999999999e-30
3454.0,4.6571999999999997e-29,-7.9856499999999998e-26,-7.9895199999999997e-26,-7.98547e-26,-1.00472e-29,-8.83944e-30,-4.4285099999999997e-30
3455.0,3.67547e-29,-7.9866400000000005e-26,-7.9898400000000001e-26,-7.9865699999999996e-26,-6.8094200000000005e-30,-7.3545900000000004e-30,-1.37494e-30
3456.0,2.8703700000000002e-29,-7.9874699999999998e-26,-7.9900199999999999e-26,-7.98746e-26,-4.0143699999999999e-30,-6.2371099999999997e-30,1.2917500000000001e-30
3457.0,2.2295900000000001e-29,-7.9884899999999999e-26,-7.9904100000000001e-26,-7.98854e-26,-2.0563699999999998e-30,-5.3509899999999998e-30,3.5353199999999999e-30
3458.0,1.7818299999999999e-29,-7.9892000000000004e-26,-7.9905399999999998e-26,-7.9893200000000003e-26,-6.1377100000000003e-31,-4.6686099999999997e-30,5.3387599999999997e-30
3459.0,5.9867600000000003e-29,-7.9845099999999999e-26,-7.9889300000000001e-26,-7.9838999999999996e-26,-1.5260999999999999e-29,-1.17472e-29,-8.3389800000000005e-30
3460.0,5.0435100000000002e-29,-7.9851999999999998e-26,-7.9891699999999999e-26,-7.9847499999999997e-26,-1.1521199999999999e-29,-9.7024400000000004e-30,-5.4786000000000001e-30
3461.0,4.1088100000000001e-29,-7.9860499999999998e-26,-7.9894699999999996e-26,-7.9857599999999999e-26,-7.9859400000000005e-30,-8.0842499999999999e-30,-2.7380699999999999e-30
3462.0,3.2692300000000003e-29,-7.9868200000000003e-26,-7.9896700000000001e-26,-7.9866600000000001e-26,-4.7775300000000003e-30,-6.8401500000000004e-30,-1.1721599999999999e-31
3463.0,2.5700700000000001e-29,-7.9877300000000003e-26,-7.9900100000000001e-26,-7.9876800000000001e-26,-2.3137399999999999e-30,-5.7654700000000003e-30,2.0902100000000001e-30
3464.0,2.0646100000000001e-29,-7.9884600000000005e-26,-7.9902099999999995e-26,-7.9884800000000001e-26,-1.94579e-31,-5.0013099999999999e-30,4.0344600000000001e-30
3465.0,1.74588e-29,-7.9894300000000004e-26,-7.9906599999999996e-26,-7.9895099999999999e-26,1.4579699999999999e-30,-4.3119700000000001e-30,5.8010500000000003e-30
3466.0,5.21209e-29,-7.9849299999999995e-26,-7.9888100000000003e-26,-7.9842100000000002e-26,-1.22704e-29,-1.03775e-29,-5.9443400000000003e-30
3467.0,4.4497800000000002e-29,-7.9855899999999999e-26,-7.98911e-26,-7.9850399999999995e-26,-9.0980800000000004e-30,-8.7527800000000003e-30,-3.6756800000000003e-30
3468.0,3.65005e-29,-7.9862600000000001e-26,-7.9893300000000001e-26,-7.9859000000000005e-26,-5.8118999999999998e-30,-7.3809800000000002e-30,-1.3565899999999999e-30
3469.0,2.9269500000000002e-29,-7.9870699999999998e-26,-7.9896299999999998e-26,-7.9868599999999995e-26,-2.9020999999999999e-30,-6.19978e-30,8.1864499999999998e-31
3470.0,2.36639e-29,-7.9877900000000002e-26,-7.9898699999999995e-26,-7.9876999999999997e-26,-3.7277499999999999e-31,-5.2545399999999997e-30,2.8217399999999998e-30
3471.0,1.93337e-29,-7.9886400000000003e-26,-7.9902300000000003e-26,-7.9886699999999997e-26,1.49658e-30,-4.4105800000000003e-30,4.4446400000000003e-30
3472.0,1.6945299999999999e-29,-7.9893200000000003e-26,-7.9904199999999999e-26,-7.98939e-26,2.99067e-30,-3.8978400000000002e-30,5.7915899999999999e-30
3473.0,4.6700199999999997e-29,-7.9852499999999999e-26,-7.9887799999999997e-26,-7.9844900000000003e-26,-9.8422399999999996e-30,-9.3768199999999995e-30,-4.26887e-30
3474.0,3.9983599999999999e-29,-7.9857799999999995e-26,-7.9889700000000005e-26,-7.98519e-26,-6.9260300000000005e-30,-8.08272e-30,-2.39132e-30
3475.0,3.3002200000000002e-29,-7.9864800000000003e-26,-7.9892600000000004e-26,-7.9860599999999996e-26,-3.8065900000000001e-30,-6.8226300000000007e-30,-3.2528699999999999e-31
3476.0,2.69285e-29,-7.9871500000000005e-26,-7.9895099999999999e-26,-7.9869099999999996e-26,-9.0253000000000002e-31,-5.7076200000000002e-30,1.6556099999999998e-30
3477.0,2.2183499999999999e-29,-7.9879399999999995e-26,-7.9898499999999999e-26,-7.9878400000000004e-26,1.41281e-30,-4.7598000000000001e-30,3.3314000000000002e-30
3478.0,1.9381499999999999e-29,-7.9886199999999995e-26,-7.9900999999999995e-26,-7.9886199999999995e-26,3.3285100000000003e-30,-4.0681700000000001e-30,4.9072600000000002e-30
3479.0,1.7978399999999999e-29,-7.9894400000000002e-26,-7.99053e-26,-7.9895899999999994e-26,4.7009799999999998e-30,-3.21366e-30,6.3360599999999999e-30
3480.0,8.5347499999999995e-29,-7.9825299999999998e-26,-7.9894599999999998e-26,-7.9834299999999999e-26,-1.96463e-29,-1.4570900000000001e-29,-2.0294899999999999e-29
3481.0,7.1155799999999997e-29,-7.9837299999999996e-26,-7.9897100000000005e-26,-7.9844599999999998e-26,-1.5809199999999999e-29,-1.2388000000000001e-29,-1.4774300000000001e-29
3482.0,5.7055200000000004e-29,-7.9847499999999997e-26,-7.9897499999999996e-26,-7.9853400000000004e-26,-1.25121e-29,-1.00895e-29,-9.0087199999999994e-30
3483.0,4.5109e-29,-7.9861099999999997e-26,-7.9901800000000001e-26,-7.9865199999999995e-26,-9.4315100000000002e-30,-8.5427499999999995e-30,-4.0325600000000003e-30
3484.0,3.5039399999999998e-29,-7.9870600000000001e-26,-7.9902099999999995e-26,-7.9874199999999997e-26,-7.6578900000000006e-30,-7.2957299999999995e-30,-9.1574700000000003e-32
3485.0,2.8056900000000002e-29,-7.9883799999999998e-26,-7.9907900000000004e-26,-7.9885800000000003e-26,-5.7902599999999998e-30,-6.3428300000000003e-30,3.2277899999999998e-30
3486.0,2.2703600000000001e-29,-7.9891600000000001e-26,-7.9908000000000002e-26,-7.9894400000000002e-26,-5.2202999999999997e-30,-5.7899700000000003e-30,5.8169800000000003e-30
3487.0,7.8007100000000003e-29,-7.9831599999999996e-26,-7.9893300000000001e-26,-7.9836900000000004e-26,-1.8983700000000001e-29,-1.4705700000000001e-29,-1.6825099999999999e-29
3488.0,6.5437800000000002e-29,-7.9840300000000004e-26,-7.9894400000000002e-26,-7.9844599999999998e-26,-1.5172e-29,-1.23798e-29,-1.18281e-29
3489.0,5.2858599999999998e-29,-7.9851700000000004e-26,-7.9897300000000001e-26,-7.9855600000000005e-26,-1.1620200000000001e-29,-1.03862e-29,-7.0024299999999995e-30
3490.0,4.1791499999999998e-29,-7.9861500000000001e-26,-7.9898699999999995e-26,-7.9864700000000005e-26,-8.5844700000000004e-30,-8.7333699999999994e-30,-2.7238600000000001e-30
3491.0,3.3003999999999997e-29,-7.9873400000000001e-26,-7.9902900000000002e-26,-7.9876100000000004e-26,-6.3074199999999997e-30,-7.5457900000000007e-30,9.3162300000000003e-31
3492.0,2.5938599999999998e-29,-7.9882e-26,-7.9904100000000001e-26,-7.9884700000000003e-26,-4.61468e-30,-6.56037e-30,3.8143200000000001e-30
3493.0,2.1363200000000001e-29,-7.9894400000000002e-26,-7.9909499999999995e-26,-7.9895799999999996e-26,-3.0844099999999998e-30,-5.8592900000000002e-30,6.2262800000000001e-30
3494.0,7.0315299999999997e-29,-7.9836699999999997e-26,-7.98911e-26,-7.9837899999999995e-26,-1.75369e-29,-1.4149800000000001e-29,-1.32127e-29
3495.0,5.9344299999999995e-29,-7.9845299999999995e-26,-7.9893599999999995e-26,-7.9846999999999995e-26,-1.3947099999999999e-29,-1.1971900000000001e-29,-9.1914200000000002e-30
3496.0,4.8033099999999999e-29,-7.9854299999999997e-26,-7.9895299999999995e-26,-7.9856099999999995e-26,-1.0269799999999999e-29,-1.01095e-29,-5.0277300000000002e-30
3497.0,3.8228099999999999e-29,-7.9864800000000003e-26,-7.9898599999999997e-26,-7.9866899999999995e-26,-7.3139900000000003e-30,-8.6029100000000005e-30,-1.2816800000000001e-30
3498.0,3.0127099999999997e-29,-7.9873699999999995e-26,-7.9900500000000005e-26,-7.9875799999999999e-26,-4.8148799999999999e-30,-7.34546e-30,1.8142600000000002e-30
3499.0,2.42223e-29,-7.9884600000000005e-26,-7.9904799999999998e-26,-7.9886500000000001e-26,-3.04528e-30,-6.4600400000000007e-30,4.5449900000000003e-30
3500.0,2.0315000000000001e-29,-7.98922e-26,-7.9906300000000002e-26,-7.9894800000000005e-26,-1.89367e-30,-5.7377699999999997e-30,6.6943000000000005e-30
3501.0,6.2575799999999997e-29,-7.9842100000000002e-26,-7.9890099999999997e-26,-7.9840599999999998e-26,-1.5472300000000001e-29,-1.3176300000000001e-29,-1.00209e-29
3502.0,5.3071700000000003e-29,-7.9849099999999999e-26,-7.9891899999999995e-26,-7.9848499999999999e-26,-1.20636e-29,-1.13481e-29,-6.6651600000000003e-30
3503.0,4.32042e-29,-7.9858100000000001e-26,-7.9894800000000005e-26,-7.9858399999999994e-26,-8.6328700000000001e-30,-9.6267e-30,-3.2189199999999997e-30
3504.0,3.4577299999999998e-29,-7.9866600000000001e-26,-7.9896899999999997e-26,-7.9867399999999996e-26,-5.5993800000000003e-30,-8.2296800000000001e-30,-3.27541e-32
3505.0,2.7614999999999999e-29,-7.9876200000000002e-26,-7.9900399999999995e-26,-7.9877599999999997e-26,-3.28261e-30,-7.12934e-30,2.7350699999999999e-30
3506.0,2.2540100000000001e-29,-7.9884100000000003e-26,-7.9902499999999999e-26,-7.9885800000000003e-26,-1.36102e-30,-6.2139399999999998e-30,5.0129500000000003e-30
3507.0,1.9565200000000001e-29,-7.98945e-26,-7.9907199999999996e-26,-7.98962e-26,1.7109000000000001e-31,-5.5706499999999997e-30,7.0176199999999999e-30
3508.0,5.5160000000000003e-29,-7.9846799999999999e-26,-7.9888999999999996e-26,-7.9843200000000003e-26,-1.30307e-29,-1.1997400000000001e-29,-7.2581699999999994e-30
3509.0,4.7180500000000003e-29,-7.9853300000000006e-26,-7.9891500000000003e-26,-7.9851100000000004e-26,-9.9867299999999995e-30,-1.03489e-29,-4.55244e-30
3510.0,3.8700999999999999e-29,-7.9860800000000003e-26,-7.9893599999999995e-26,-7.9859700000000003e-26,-6.7360999999999998e-30,-8.9055900000000005e-30,-1.6515599999999999e-30
3511.0,3.12459e-29,-7.9869199999999994e-26,-7.9896700000000001e-26,-7.9869400000000002e-26,-3.9168699999999999e-30,-7.6248699999999998e-30,1.03147e-30
3512.0,2.5397299999999998e-29,-7.9876899999999999e-26,-7.9899099999999999e-26,-7.9877800000000004e-26,-1.51228e-30,-6.5946899999999996e-30,3.4289699999999998e-30
3513.0,2.1231300000000001e-29,-7.9885900000000001e-26,-7.9902900000000002e-26,-7.9887600000000001e-26,2.4216e-31,-5.7425799999999999e-30,5.4803699999999998e-30
3514.0,1.8915300000000001e-29,-7.9892899999999998e-26,-7.9904799999999998e-26,-7.9895199999999997e-26,1.49651e-30,-5.0946600000000003e-30,7.1678899999999995e-30
3515.0,4.9053400000000003e-29,-7.9850600000000003e-26,-7.9888499999999995e-26,-7.9845799999999997e-26,-1.06513e-29,-1.07691e-29,-5.0443500000000002e-30
3516.0,4.22236e-29,-7.9856300000000002e-26,-7.98905e-26,-7.9852900000000002e-26,-7.9316800000000001e-30,-9.4515999999999997e-30,-2.9297899999999999e-30
3517.0,3.50202e-29,-7.9863299999999999e-26,-7.9893200000000003e-26,-7.9861500000000001e-26,-4.8831699999999999e-30,-8.1503499999999999e-30,-4.7442000000000001e-31
3518.0,2.8659e-29,-7.9870600000000001e-26,-7.9895799999999996e-26,-7.9870000000000001e-26,-2.1626800000000001e-30,-6.9669399999999999e-30,1.8654500000000001e-30
3519.0,2.35932e-29,-7.98786e-26,-7.9899000000000001e-26,-7.9879199999999999e-26,5.8851499999999999e-32,-5.9857800000000003e-30,3.9191900000000001e-30
3520.0,2.0576399999999999e-29,-7.9885700000000005e-26,-7.9901600000000005e-26,-7.9887000000000002e-26,1.92839e-30,-5.1891700000000001e-30,5.7423400000000002e-30
3521.0,1.90796e-29,-7.98945e-26,-7.9905800000000001e-26,-7.9896600000000003e-26,3.3556499999999998e-30,-4.4665599999999999e-30,7.35301e-30
3522.0,4.4515000000000003e-29,-7.9853699999999998e-26,-7.9888100000000003e-26,-7.9848099999999996e-26,-8.88642e-30,-9.8796400000000004e-30,-3.8085199999999998e-30
3523.0,3.8807999999999998e-29,-7.9858399999999994e-26,-7.9890199999999995e-26,-7.9854500000000004e-26,-6.1403700000000001e-30,-8.7557899999999997e-30,-1.74047e-30
3524.0,3.2391599999999999e-29,-7.9864700000000005e-26,-7.9892600000000004e-26,-7.9862400000000005e-26,-3.3270300000000002e-30,-7.4835400000000007e-30,3.8849199999999999e-31
3525.0,2.67946e-29,-7.9871999999999995e-26,-7.9895500000000002e-26,-7.9871100000000002e-26,-6.9300699999999999e-31,-6.3877e-30,2.4035899999999999e-30
3526.0,2.2792599999999999e-29,-7.9878900000000005e-26,-7.9898200000000005e-26,-7.9879299999999997e-26,1.57046e-30,-5.46218e-30,4.3772100000000002e-30
3527.0,2.0096899999999999e-29,-7.9886799999999995e-26,-7.9901700000000003e-26,-7.9888299999999999e-26,3.2606599999999999e-30,-4.5824000000000003e-30,5.9228099999999998e-30
3528.0,1.9019600000000001e-29,-7.9893499999999997e-26,-7.9904000000000003e-26,-7.9895400000000004e-26,4.5474899999999997e-30,-4.1356400000000001e-30,7.1929199999999993e-30
3529.0,1.84375e-29,-7.98956e-26,-7.9905100000000004e-26,-7.9891299999999995e-26,7.8465300000000004e-30,5.5595100000000002e-31,-1.1343200000000001e-30
3530.0,2.16255e-29,-7.9894699999999996e-26,-7.9903500000000002e-26,-7.9890400000000002e-26,1.0481899999999999e-29,5.9293599999999998e-31,-1.19445e-30
3531.0,2.0102899999999999e-29,-7.9886199999999995e-26,-7.9898900000000003e-26,-7.9880000000000006e-26,6.29208e-30,8.7429599999999996e-32,-1.4761000000000001e-30
3532.0,2.29961e-29,-7.9887500000000003e-26,-7.9900600000000003e-26,-7.9882099999999998e-26,9.1137500000000001e-30,7.2600600000000001e-31,-1.36193e-30
3533.0,2.4079e-29,-7.9879000000000003e-26,-7.9896999999999995e-26,-7.9871399999999996e-26,4.0558099999999999e-30,1.6066800000000001e-32,-1.8901599999999999e-30
3534.0,2.4480599999999999e-29,-7.9877800000000004e-26,-7.9894199999999994e-26,-7.9870199999999997e-26,6.8377999999999997e-30,1.5822399999999999e-31,-1.6170099999999999e-30
3535.0,2.8133599999999999e-29,-7.9870000000000001e-26,-7.9890599999999998e-26,-7.9859000000000005e-26,8.4794099999999995e-31,-4.8931099999999996e-31,-2.2861599999999998e-30
3536.0,2.8179900000000001e-29,-7.9871000000000004e-26,-7.9891400000000005e-26,-7.9860800000000003e-26,4.0837099999999997e-30,-7.35675e-32,-2.1005900000000002e-30
3537.0,3.56817e-29,-7.9863100000000003e-26,-7.9888999999999996e-26,-7.9849299999999995e-26,-3.1639400000000002e-30,-9.3668700000000004e-31,-2.8688300000000001e-30
3538.0,3.2802800000000002e-29,-7.9862400000000005e-26,-7.9885099999999994e-26,-7.98479e-26,-5.41756e-31,-7.9172800000000003e-31,-2.4720499999999999e-30
3539.0,4.3699500000000002e-29,-7.9855600000000005e-26,-7.9883299999999996e-26,-7.9836500000000001e-26,-8.1807599999999998e-30,-1.60524e-30,-3.4772699999999999e-30
3540.0,4.1720899999999999e-29,-7.9855600000000005e-26,-7.9883000000000002e-26,-7.9837000000000002e-26,-5.4308799999999997e-30,-1.4656899999999999e-30,-3.3031499999999997e-30
3541.0,5.4704099999999997e-29,-7.98496e-26,-7.9882300000000005e-26,-7.9826499999999996e-26,-1.3712800000000001e-29,-2.4536899999999999e-30,-4.1821499999999999e-30
3542.0,5.2529399999999999e-29,-7.9849299999999995e-26,-7.9877800000000004e-26,-7.9823400000000001e-26,-1.25019e-29,-2.4931500000000001e-30,-3.99757e-30
3543.0,1.7758999999999999e-29,-7.98945e-26,-7.9903400000000004e-26,-7.9890599999999998e-26,7.8440099999999997e-30,-2.99399e-31,4.1455899999999998e-31
3544.0,2.10317e-29,-7.9895500000000002e-26,-7.9904799999999998e-26,-7.9892299999999998e-26,1.0231e-29,3.8210699999999998e-31,9.4106300000000002e-31
3545.0,1.9754399999999999e-29,-7.98871e-26,-7.9900700000000001e-26,-7.9882300000000005e-26,6.16557e-30,-4.9437100000000002e-31,4.3728500000000003e-32
3546.0,2.22745e-29,-7.9886199999999995e-26,-7.9899299999999995e-26,-7.9881599999999996e-26,8.9972700000000002e-30,-1.6888100000000001e-31,3.9085599999999998e-31
3547.0,2.27793e-29,-7.9878099999999998e-26,-7.9895400000000004e-26,-7.9871100000000002e-26,3.8854500000000001e-30,-9.9522000000000008e-31,-6.06305e-31
3548.0,2.4217000000000001e-29,-7.9878799999999996e-26,-7.9895799999999996e-26,-7.9872399999999999e-26,6.9842299999999999e-30,-5.9577000000000002e-31,-1.6793e-31
3549.0,2.7838600000000001e-29,-7.9871000000000004e-26,-7.9892700000000002e-26,-7.9861699999999997e-26,8.8061400000000007e-31,-1.57939e-30,-1.3494999999999999e-30
3550.0,2.7126099999999998e-29,-7.9870000000000001e-26,-7.9890199999999995e-26,-7.9860700000000005e-26,3.8485799999999999e-30,-1.27355e-30,-8.8517700000000004e-31
3551.0,3.43536e-29,-7.9862699999999999e-26,-7.9887899999999995e-26,-7.9850000000000004e-26,-3.0504099999999999e-30,-2.3198799999999999e-30,-2.2662200000000001e-30
3552.0,3.2546599999999999e-29,-7.9863000000000005e-26,-7.9886799999999995e-26,-7.9850199999999999e-26,-2.5399599999999999e-33,-2.1477999999999999e-30,-1.7727999999999999e-30
3553.0,4.3036900000000002e-29,-7.9856300000000002e-26,-7.98854e-26,-7.9839700000000005e-26,-7.7408799999999995e-30,-3.3492999999999997e-30,-3.3254e-30
3554.0,4.0276499999999999e-29,-7.9855499999999996e-26,-7.9882099999999998e-26,-7.9838000000000005e-26,-5.3067299999999997e-30,-3.2568399999999997e-30,-2.8542300000000001e-30
3555.0,5.2499099999999998e-29,-7.9850100000000001e-26,-7.9882099999999998e-26,-7.9829000000000003e-26,-1.2781800000000001e-29,-4.4112500000000003e-30,-4.4683100000000003e-30
3556.0,5.1672300000000004e-29,-7.9848699999999995e-26,-7.9879500000000004e-26,-7.9826200000000002e-26,-1.15006e-29,-4.6958200000000003e-30,-4.2679099999999998e-30
3557.0,1.75301e-29,-7.9895000000000001e-26,-7.99047e-26,-7.98928e-26,7.5330900000000005e-30,-7.1303500000000001e-31,2.3483199999999999e-30
3558.0,2.0902599999999999e-29,-7.9894199999999994e-26,-7.9903599999999999e-26,-7.9892100000000002e-26,1.00737e-29,-3.63142e-31,2.52958e-30
3559.0,1.9213600000000001e-29,-7.9886300000000005e-26,-7.9899699999999998e-26,-7.9882300000000005e-26,6.0341500000000001e-30,-1.2805900000000001e-30,1.48916e-30
3560.0,2.1954000000000001e-29,-7.9887000000000002e-26,-7.9900399999999995e-26,-7.98837e-26,8.7944499999999994e-30,-7.6730700000000003e-31,2.0366299999999999e-30
3561.0,2.23747e-29,-7.9879100000000001e-26,-7.9896899999999997e-26,-7.9873699999999995e-26,3.9113999999999997e-30,-1.8675199999999999e-30,6.65714e-31
3562.0,2.35266e-29,-7.9878099999999998e-26,-7.9895099999999999e-26,-7.9872800000000002e-26,6.74074e-30,-1.446e-30,1.22776e-30
3563.0,2.6855399999999998e-29,-7.9870600000000001e-26,-7.98922e-26,-7.9862699999999999e-26,9.5885599999999992e-31,-2.6194599999999999e-30,-4.0323000000000003e-31
3564.0,2.66767e-29,-7.9870799999999996e-26,-7.9891600000000001e-26,-7.9863200000000001e-26,3.97962e-30,-2.32756e-30,2.7435899999999999e-31
3565.0,3.3460499999999998e-29,-7.98638e-26,-7.9889499999999997e-26,-7.9853099999999998e-26,-2.7028900000000001e-30,-3.6135499999999998e-30,-1.6196400000000001e-30
3566.0,3.15365e-29,-7.9862600000000001e-26,-7.9886599999999999e-26,-7.9851600000000006e-26,1.1925e-31,-3.3802100000000002e-30,-9.8355300000000003e-31
3567.0,4.1536699999999997e-29,-7.9856200000000004e-26,-7.98854e-26,-7.9841899999999995e-26,-7.0898999999999993e-30,-4.7715899999999999e-30,-3.0708300000000002e-30
3568.0,3.9243399999999999e-29,-7.9855999999999997e-26,-7.9883500000000004e-26,-7.98411e-26,-4.6204800000000003e-30,-4.8266599999999998e-30,-2.4300999999999999e-30
3569.0,5.0701199999999996e-29,-7.9850600000000003e-26,-7.9883299999999996e-26,-7.9832699999999997e-26,-1.1772199999999999e-29,-6.1231e-30,-4.5462699999999998e-30
3570.0,4.9652e-29,-7.9849099999999999e-26,-7.9879899999999996e-26,-7.9829399999999995e-26,-1.05263e-29,-6.5724800000000006e-30,-4.3332700000000002e-30
3571.0,1.7829099999999999e-29,-7.9894099999999996e-26,-7.9903500000000002e-26,-7.9892500000000006e-26,7.3739900000000006e-30,-1.5125e-30,3.6786499999999998e-30
3572.0,2.0821099999999999e-29,-7.9894800000000005e-26,-7.99047e-26,-7.9894300000000004e-26,9.4577800000000005e-30,-8.5483299999999996e-31,4.4837299999999997e-30
3573.0,1.91671e-29,-7.9887000000000002e-26,-7.9900899999999997e-26,-7.9884800000000001e-26,5.8178099999999997e-30,-1.9998999999999999e-30,2.94663e-30
3574.0,2.1645299999999999e-29,-7.9886099999999997e-26,-7.9899699999999998e-26,-7.9884200000000001e-26,8.3522399999999997e-30,-1.4807099999999999e-30,3.5650299999999999e-30
3575.0,2.1872099999999999e-29,-7.9878699999999998e-26,-7.9896500000000005e-26,-7.9874699999999998e-26,3.7586599999999999e-30,-2.6812099999999999e-30,1.8432200000000001e-30
3576.0,2.3269499999999999e-29,-7.9878799999999996e-26,-7.98962e-26,-7.9875199999999999e-26,6.5339400000000003e-30,-2.30492e-30,2.6061999999999999e-30
3577.0,2.6236699999999999e-29,-7.9871600000000003e-26,-7.9893499999999997e-26,-7.9865599999999998e-26,1.10234e-30,-3.5992100000000001e-30,6.1753400000000001e-31
3578.0,2.6005299999999998e-29,-7.9870600000000001e-26,-7.9891500000000003e-26,-7.9864700000000005e-26,3.8321399999999999e-30,-3.2713000000000003e-30,1.32372e-30
3579.0,3.22641e-29,-7.98638e-26,-7.9889499999999997e-26,-7.98553e-26,-2.3529700000000001e-30,-4.6822199999999997e-30,-9.3480800000000004e-31
3580.0,3.0825699999999998e-29,-7.9863399999999997e-26,-7.9887899999999995e-26,-7.9854799999999998e-26,3.80477e-31,-4.5351899999999999e-30,-9.7520800000000002e-32
3581.0,3.9984199999999999e-29,-7.9857300000000005e-26,-7.9886799999999995e-26,-7.9845799999999997e-26,-6.3915300000000002e-30,-6.0321300000000002e-30,-2.6239899999999999e-30
3582.0,3.7777600000000001e-29,-7.9856099999999995e-26,-7.9883799999999998e-26,-7.98439e-26,-4.0088299999999999e-30,-6.0755900000000001e-30,-1.96622e-30
3583.0,4.8384400000000002e-29,-7.9850999999999995e-26,-7.9884000000000005e-26,-7.9836500000000001e-26,-1.05619e-29,-7.46475e-30,-4.4065399999999997e-30
3584.0,4.7428599999999999e-29,-7.9849400000000004e-26,-7.9880999999999997e-26,-7.9833500000000004e-26,-9.3146500000000006e-30,-8.0164499999999999e-30,-4.0486700000000003e-30
3585.0,1.8443500000000001e-29,-7.98945e-26,-7.9904799999999998e-26,-7.9895199999999997e-26,6.8003200000000006e-30,-2.08594e-30,5.4540800000000002e-30
3586.0,2.1098899999999999e-29,-7.9893700000000004e-26,-7.9903699999999997e-26,-7.9894300000000004e-26,8.96645e-30,-1.5855599999999998e-30,5.8354800000000002e-30
3587.0,1.9413900000000001e-29,-7.9886400000000003e-26,-7.9900299999999997e-26,-7.98854e-26,5.4794200000000002e-30,-2.8156200000000002e-30,4.2443300000000002e-30
3588.0,2.18098e-29,-7.9886599999999999e-26,-7.9900700000000001e-26,-7.9886500000000001e-26,7.8236999999999998e-30,-2.28109e-30,5.0682599999999998e-30
3589.0,2.1810499999999999e-29,-7.9879399999999995e-26,-7.9897499999999996e-26,-7.9877200000000005e-26,3.6099899999999999e-30,-3.5762899999999998e-30,3.0181099999999999e-30
3590.0,2.3002799999999999e-29,-7.9878400000000004e-26,-7.9896000000000004e-26,-7.9876600000000006e-26,6.06389e-30,-3.0984999999999999e-30,3.85175e-30
3591.0,2.5759199999999999e-29,-7.9871500000000005e-26,-7.9893599999999995e-26,-7.9867499999999994e-26,1.0938800000000001e-30,-4.4756e-30,1.5183400000000001e-30
3592.0,2.5643200000000001e-29,-7.98712e-26,-7.9892399999999996e-26,-7.9867499999999994e-26,3.6724499999999997e-30,-4.2125299999999999e-30,2.4616700000000002e-30
3593.0,3.1374200000000001e-29,-7.9864700000000005e-26,-7.9890599999999998e-26,-7.9858399999999994e-26,-1.97597e-30,-5.6864700000000002e-30,-1.04509e-31
3594.0,3.0024400000000002e-29,-7.9863600000000004e-26,-7.9888399999999997e-26,-7.9857400000000003e-26,4.5014200000000004e-31,-5.5206599999999997e-30,6.53288e-31
3595.0,3.8389199999999998e-29,-7.9857599999999999e-26,-7.9887299999999996e-26,-7.9848900000000003e-26,-5.6552099999999997e-30,-7.0710399999999996e-30,-2.10299e-30
3596.0,3.6547199999999999e-29,-7.9856800000000004e-26,-7.9885099999999994e-26,-7.9847700000000004e-26,-3.4701300000000003e-30,-7.1504600000000001e-30,-1.2211500000000001e-30
3597.0,4.6034500000000001e-29,-7.98519e-26,-7.9885099999999994e-26,-7.9840900000000004e-26,-9.3632600000000001e-30,-8.5557600000000005e-30,-3.9459199999999999e-30
3598.0,4.5170700000000001e-29,-7.9850000000000004e-26,-7.9882e-26,-7.9838000000000005e-26,-8.0844399999999998e-30,-9.1479199999999996e-30,-3.6610399999999997e-30
3599.0,1.9311600000000001e-29,-7.9893800000000002e-26,-7.9903799999999995e-26,-7.9894699999999996e-26,6.4806000000000003e-30,-3.0963400000000001e-30,6.5057600000000003e-30
3600.0,2.1659700000000001e-29,-7.98939e-26,-7.99047e-26,-7.9896899999999997e-26,7.9563500000000001e-30,-2.5119999999999998e-30,7.4632299999999993e-30
3601.0,2.00901e-29,-7.9886900000000004e-26,-7.9901200000000002e-26,-7.9887600000000001e-26,5.10313e-30,-3.5901200000000002e-30,5.5037700000000001e-30
3602.0,2.20257e-29,-7.9885999999999999e-26,-7.9900299999999997e-26,-7.9887299999999996e-26,7.0621000000000005e-30,-3.1159399999999999e-30,6.2902100000000001e-30
3603.0,2.20881e-29,-7.9879000000000003e-26,-7.9897300000000001e-26,-7.9878400000000004e-26,3.3000799999999999e-30,-4.3886500000000001e-30,4.0696099999999997e-30
3604.0,2.3320499999999999e-29,-7.9878699999999998e-26,-7.9896899999999997e-26,-7.9878900000000005e-26,5.5361200000000003e-30,-4.0459699999999996e-30,5.0523800000000003e-30
3605.0,2.5694699999999998e-29,-7.9872100000000005e-26,-7.9894400000000002e-26,-7.9869800000000005e-26,1.0352000000000001e-30,-5.3944e-30,2.4494300000000001e-30
3606.0,2.5575599999999998e-29,-7.9871000000000004e-26,-7.9892700000000002e-26,-7.9869400000000002e-26,3.26601e-30,-5.1574200000000003e-30,3.3663200000000001e-30
3607.0,3.0843899999999997e-29,-7.9864700000000005e-26,-7.9891000000000002e-26,-7.9860599999999996e-26,-1.7983400000000001e-30,-6.5454900000000005e-30,5.2980299999999997e-31
3608.0,2.9755199999999999e-29,-7.9863999999999996e-26,-7.9889300000000001e-26,-7.9860200000000004e-26,3.55108e-31,-6.5090199999999993e-30,1.54203e-30
3609.0,3.7266500000000001e-29,-7.9858299999999997e-26,-7.9888299999999999e-26,-7.9852200000000005e-26,-5.0563699999999997e-30,-7.9497400000000003e-30,-1.39889e-30
3610.0,3.5739000000000003e-29,-7.9857e-26,-7.9885900000000001e-26,-7.9850899999999997e-26,-3.1283000000000001e-30,-8.1457800000000001e-30,-7.20278e-31
3611.0,4.3936799999999999e-29,-7.9852699999999995e-26,-7.9885900000000001e-26,-7.9844800000000005e-26,-8.2171600000000005e-30,-9.3961999999999998e-30,-3.4297000000000003e-30
3612.0,4.3251299999999998e-29,-7.9850799999999999e-26,-7.9883199999999998e-26,-7.9842499999999994e-26,-7.1631800000000002e-30,-9.9697500000000003e-30,-3.0303599999999999e-30
3613.0,2.04571e-29,-7.9893800000000002e-26,-7.9904799999999998e-26,-7.9897100000000005e-26,5.73351e-30,-3.4580600000000003e-30,7.9374100000000007e-30
3614.0,2.2221800000000001e-29,-7.9893499999999997e-26,-7.9904000000000003e-26,-7.9896600000000003e-26,7.2122900000000004e-30,-3.5182099999999999e-30,8.4443200000000006e-30
3615.0,2.0964699999999999e-29,-7.9886400000000003e-26,-7.9900899999999997e-26,-7.9888000000000005e-26,4.6903300000000001e-30,-4.3839500000000001e-30,6.4758200000000006e-30
3616.0,2.28098e-29,-7.9885900000000001e-26,-7.9900899999999997e-26,-7.9889100000000006e-26,6.1546200000000001e-30,-4.1932699999999997e-30,7.4529700000000001e-30
3617.0,2.2746e-29,-7.9879199999999999e-26,-7.9897800000000002e-26,-7.9879899999999996e-26,3.0447400000000001e-30,-5.21386e-30,4.9397199999999999e-30
3618.0,2.3793600000000001e-29,-7.9878199999999996e-26,-7.9896899999999997e-26,-7.9880000000000006e-26,4.6498399999999997e-30,-5.0697599999999999e-30,5.9135999999999998e-30
3619.0,2.6001999999999999e-29,-7.9871799999999999e-26,-7.9894400000000002e-26,-7.9871000000000004e-26,8.5282799999999993e-31,-6.1761100000000001e-30,3.1192099999999999e-30
3620.0,2.6221100000000002e-29,-7.9870899999999994e-26,-7.9893399999999999e-26,-7.9871100000000002e-26,2.5593199999999998e-30,-6.2067199999999998e-30,4.2039200000000001e-30
3621.0,3.0878799999999999e-29,-7.9864900000000001e-26,-7.9891400000000005e-26,-7.9862500000000003e-26,-1.7956999999999999e-30,-7.3949100000000002e-30,1.16235e-30
3622.0,3.0161899999999998e-29,-7.9863600000000004e-26,-7.9889700000000005e-26,-7.9862000000000002e-26,-1.0586900000000001e-31,-7.5545500000000005e-30,2.0130200000000001e-30
3623.0,3.6867899999999998e-29,-7.9858500000000004e-26,-7.9888700000000002e-26,-7.9854199999999999e-26,-4.7538499999999997e-30,-8.6790900000000005e-30,-1.0922399999999999e-30
3624.0,3.5694799999999999e-29,-7.9856900000000002e-26,-7.9886500000000001e-26,-7.9853300000000006e-26,-3.3429800000000002e-30,-9.1139099999999994e-30,-1.9973000000000001e-31
3625.0,4.2631399999999999e-29,-7.9853400000000004e-26,-7.9886699999999997e-26,-7.9847599999999995e-26,-7.4961099999999994e-30,-9.8416899999999998e-30,-2.7703200000000002e-30
3626.0,4.2109399999999998e-29,-7.98513e-26,-7.9884000000000005e-26,-7.9845899999999995e-26,-6.5767500000000002e-30,-1.08093e-29,-2.7063799999999999e-30
3627.0,6.9678900000000003e-29,-7.9841500000000003e-26,-7.9876700000000004e-26,-7.9809600000000005e-26,-2.11366e-29,-4.0233500000000002e-30,-5.4256899999999997e-30
3628.0,8.9575100000000004e-29,-7.9837600000000002e-26,-7.9875100000000001e-26,-7.9795699999999999e-26,-3.1736000000000001e-29,-5.7395300000000001e-30,-7.5051600000000001e-30
3629.0,1.1873799999999999e-28,-7.9829199999999999e-26,-7.9875700000000001e-26,-7.9777900000000003e-26,-4.60304e-29,-8.7205800000000003e-30,-1.0388599999999999e-29
3630.0,1.55423e-28,-7.9823400000000001e-26,-7.9881499999999998e-26,-7.9760499999999998e-26,-6.3337999999999995e-29,-1.23295e-29,-1.51694e-29
3631.0,2.04663e-28,-7.9810499999999998e-26,-7.9891699999999999e-26,-7.9738000000000005e-26,-8.5274199999999997e-29,-1.71386e-29,-2.1985e-29
3632.0,2.6536100000000001e-28,-7.9792499999999994e-26,-7.9914100000000005e-26,-7.9715599999999999e-26,-1.09147e-28,-2.2042999999999999e-29,-3.2457400000000001e-29
3633.0,3.3533000000000001e-28,-7.9760300000000002e-26,-7.9947700000000004e-26,-7.9689300000000002e-26,-1.3001000000000001e-28,-2.6241799999999999e-29,-4.5432200000000001e-29
3634.0,6.6094900000000003e-29,-7.9845299999999995e-26,-7.9880100000000004e-26,-7.9816400000000005e-26,-2.0005e-29,-3.4160399999999999e-30,-5.1709899999999997e-30
3635.0,8.1863500000000004e-29,-7.9838299999999999e-26,-7.9880200000000002e-26,-7.98053e-26,-2.7570800000000001e-29,-4.7056599999999999e-30,-6.5450899999999993e-30
3636.0,1.0318200000000001e-28,-7.98337e-26,-7.98831e-26,-7.9794300000000004e-26,-3.8126400000000002e-29,-6.3145999999999998e-30,-8.7410400000000003e-30
3637.0,1.3191399999999999e-28,-7.9822800000000002e-26,-7.9888100000000003e-26,-7.9779000000000003e-26,-5.0674900000000001e-29,-8.6280399999999999e-30,-1.1892700000000001e-29
3638.0,1.6560099999999999e-28,-7.9812799999999998e-26,-7.9899500000000002e-26,-7.9765400000000003e-26,-6.4182900000000005e-29,-1.0881600000000001e-29,-1.66087e-29
3639.0,2.0446599999999998e-28,-7.9794900000000003e-26,-7.9915099999999997e-26,-7.9748599999999998e-26,-7.6654199999999996e-29,-1.3308599999999999e-29,-2.2352300000000001e-29
3640.0,2.47017e-28,-7.9776100000000004e-26,-7.9939999999999999e-26,-7.9735099999999995e-26,-8.6456299999999995e-29,-1.47702e-29,-2.9860800000000001e-29
3641.0,6.6386099999999998e-29,-7.98428e-26,-7.9876700000000004e-26,-7.9813499999999995e-26,-1.9600899999999999e-29,-6.6376899999999994e-30,-6.3079700000000002e-30
3642.0,8.6286199999999998e-29,-7.9835599999999996e-26,-7.9875100000000001e-26,-7.9799500000000002e-26,-2.9613500000000001e-29,-9.4622200000000002e-30,-9.2539199999999998e-30
3643.0,1.1178599999999999e-28,-7.9829899999999996e-26,-7.9876399999999998e-26,-7.9785800000000004e-26,-4.1846799999999999e-29,-1.33138e-29,-1.3563500000000001e-29
3644.0,1.4560200000000001e-28,-7.9820600000000001e-26,-7.98797e-26,-7.9769199999999995e-26,-5.7175300000000003e-29,-1.83919e-29,-2.0103300000000001e-29
3645.0,1.88254e-28,-7.9809600000000005e-26,-7.9889200000000003e-26,-7.9753099999999999e-26,-7.5089799999999998e-29,-2.4719800000000001e-29,-2.9846899999999999e-29
3646.0,2.4036699999999999e-28,-7.9790099999999997e-26,-7.9905000000000006e-26,-7.9734499999999996e-26,-9.4013700000000002e-29,-3.1174300000000002e-29,-4.3391499999999998e-29
3647.0,2.99269e-28,-7.9764099999999994e-26,-7.9932199999999996e-26,-7.9718300000000001e-26,-1.09916e-28,-3.6907500000000001e-29,-6.1087099999999999e-29
3648.0,6.4059599999999997e-29,-7.98445e-26,-7.9880999999999997e-26,-7.9819400000000002e-26,-1.84873e-29,-5.7102700000000003e-30,-5.9271499999999999e-30
3649.0,7.7930399999999994e-29,-7.9840300000000004e-26,-7.9881499999999998e-26,-7.9811099999999997e-26,-2.5571799999999999e-29,-7.4137400000000007e-30,-7.8952300000000003e-30
3650.0,9.8071200000000002e-29,-7.9832300000000005e-26,-7.98831e-26,-7.9799299999999995e-26,-3.4769600000000001e-29,-9.7429500000000001e-30,-1.10778e-29
3651.0,1.23224e-28,-7.9824699999999998e-26,-7.9888499999999995e-26,-7.9788200000000001e-26,-4.5553799999999998e-29,-1.27509e-29,-1.56551e-29
3652.0,1.53821e-28,-7.9811900000000004e-26,-7.9896600000000003e-26,-7.9774699999999998e-26,-5.6934400000000004e-29,-1.5921600000000001e-29,-2.20628e-29
3653.0,1.8754299999999999e-28,-7.9797999999999998e-26,-7.9910499999999998e-26,-7.9763200000000001e-26,-6.7253299999999997e-29,-1.9053899999999999e-29,-3.0207099999999999e-29
3654.0,2.2632200000000001e-28,-7.9777499999999999e-26,-7.9928599999999999e-26,-7.9749299999999995e-26,-7.5457000000000001e-29,-2.12058e-29,-4.0445500000000003e-29
3655.0,6.3538999999999999e-29,-7.98422e-26,-7.9877400000000001e-26,-7.9817600000000004e-26,-1.77796e-29,-8.8934900000000006e-30,-6.7817399999999997e-30
3656.0,8.1048399999999995e-29,-7.9836300000000005e-26,-7.9876200000000002e-26,-7.9806200000000005e-26,-2.6443800000000001e-29,-1.2291999999999999e-29,-1.03152e-29
3657.0,1.03895e-28,-7.9828400000000004e-26,-7.9876200000000002e-26,-7.9793700000000005e-26,-3.6935199999999999e-29,-1.6647599999999999e-29,-1.5488099999999999e-29
3658.0,1.32381e-28,-7.9820299999999995e-26,-7.9879399999999995e-26,-7.9781900000000002e-26,-4.91392e-29,-2.21816e-29,-2.2852000000000001e-29
3659.0,1.67633e-28,-7.9807599999999999e-26,-7.98854e-26,-7.9769199999999995e-26,-6.2753700000000004e-29,-2.8579300000000001e-29,-3.3313200000000001e-29
3660.0,2.0857100000000002e-28,-7.9791199999999998e-26,-7.9897599999999994e-26,-7.9758399999999995e-26,-7.58364e-29,-3.47399e-29,-4.7413099999999998e-29
3661.0,2.5287000000000001e-28,-7.9767600000000004e-26,-7.9913999999999996e-26,-7.9747499999999997e-26,-8.5605900000000004e-29,-3.9524600000000001e-29,-6.4524500000000003e-29
3662.0,6.10963e-29,-7.9845500000000003e-26,-7.9882e-26,-7.9824199999999997e-26,-1.70232e-29,-7.6907700000000006e-30,-6.3716599999999998e-30
3663.0,7.4036599999999996e-29,-7.9839599999999996e-26,-7.9881800000000004e-26,-7.9815699999999996e-26,-2.3183999999999999e-29,-9.6576199999999998e-30,-8.8346000000000006e-30
3664.0,9.1574100000000005e-29,-7.9833399999999995e-26,-7.9883899999999996e-26,-7.9807e-26,-3.0980600000000002e-29,-1.23235e-29,-1.2526600000000001e-29
3665.0,1.1362799999999999e-28,-7.9824000000000001e-26,-7.98871e-26,-7.9796600000000003e-26,-3.9839700000000001e-29,-1.55061e-29,-1.7858100000000001e-29
3666.0,1.39093e-28,-7.98138e-26,-7.9894400000000002e-26,-7.9787500000000004e-26,-4.8673599999999999e-29,-1.89597e-29,-2.493e-29
3667.0,1.6750799999999999e-28,-7.9799400000000004e-26,-7.9903400000000004e-26,-7.9777400000000001e-26,-5.6530199999999996e-29,-2.2044e-29,-3.3812400000000001e-29
3668.0,1.99196e-28,-7.9783899999999996e-26,-7.9917700000000002e-26,-7.9769900000000003e-26,-6.2645699999999995e-29,-2.4457700000000001e-29,-4.5237900000000001e-29
3669.0,5.9909600000000001e-29,-7.9842899999999998e-26,-7.98786e-26,-7.9823200000000006e-26,-1.5673799999999999e-29,-1.0643700000000001e-29,-6.93806e-30
3670.0,7.5215999999999996e-29,-7.9835999999999999e-26,-7.9876899999999999e-26,-7.9813000000000005e-26,-2.29679e-29,-1.3991499999999999e-29,-1.07667e-29
3671.0,9.4225900000000005e-29,-7.9829000000000003e-26,-7.9877200000000005e-26,-7.9803900000000005e-26,-3.1325800000000001e-29,-1.8330700000000001e-29,-1.5954700000000001e-29
3672.0,1.1755000000000001e-28,-7.9819599999999998e-26,-7.9878699999999998e-26,-7.9794400000000002e-26,-4.0630199999999998e-29,-2.3322199999999999e-29,-2.3247299999999999e-29
3673.0,1.4457400000000001e-28,-7.9808899999999996e-26,-7.9883600000000002e-26,-7.9787000000000002e-26,-4.9992599999999999e-29,-2.8680599999999999e-29,-3.28732e-29
3674.0,1.7487199999999999e-28,-7.9793399999999999e-26,-7.9890300000000004e-26,-7.9779399999999995e-26,-5.8372100000000005e-29,-3.3276499999999999e-29,-4.5072999999999999e-29
3675.0,2.06344e-28,-7.9776499999999996e-26,-7.9901999999999997e-26,-7.9775999999999995e-26,-6.3729199999999998e-29,-3.65e-29,-5.9359e-29
3676.0,5.7775900000000003e-29,-7.9845799999999997e-26,-7.9882699999999997e-26,-7.9828799999999996e-26,-1.50959e-29,-9.1356200000000006e-30,-6.3870599999999999e-30
3677.0,6.9042299999999996e-29,-7.9841000000000002e-26,-7.9883000000000002e-26,-7.9822300000000001e-26,-2.0329899999999999e-29,-1.12559e-29,-9.0604899999999997e-30
3678.0,8.4116699999999995e-29,-7.9833799999999998e-26,-7.9883899999999996e-26,-7.98144e-26,-2.6727600000000002e-29,-1.3805e-29,-1.2999499999999999e-29
3679.0,1.02213e-28,-7.9826100000000004e-26,-7.98871e-26,-7.9807300000000005e-26,-3.3506500000000002e-29,-1.6928799999999999e-29,-1.82657e-29
3680.0,1.2282800000000001e-28,-7.98155e-26,-7.98911e-26,-7.97996e-26,-4.0061599999999998e-29,-1.9943200000000001e-29,-2.51878e-29
3681.0,1.4467300000000001e-28,-7.9804700000000001e-26,-7.9898400000000001e-26,-7.9794400000000002e-26,-4.5365899999999999e-29,-2.2566099999999999e-29,-3.3561399999999999e-29
3682.0,1.68859e-28,-7.9789900000000001e-26,-7.99064e-26,-7.9787600000000002e-26,-4.9100899999999999e-29,-2.43214e-29,-4.3482400000000001e-29
3683.0,5.5795800000000003e-29,-7.9843499999999997e-26,-7.9879600000000002e-26,-7.9829000000000003e-26,-1.34346e-29,-1.15998e-29,-6.5453299999999997e-30
3684.0,6.8701300000000005e-29,-7.98371e-26,-7.9878300000000006e-26,-7.9821000000000004e-26,-1.93574e-29,-1.4894600000000001e-29,-1.0242000000000001e-29
3685.0,8.4083500000000004e-29,-7.9829799999999998e-26,-7.9878e-26,-7.9813700000000002e-26,-2.5788699999999997e-29,-1.8521399999999999e-29,-1.5102000000000001e-29
3686.0,1.0195900000000001e-28,-7.9821799999999999e-26,-7.9879500000000004e-26,-7.9807699999999997e-26,-3.2401700000000003e-29,-2.2585999999999999e-29,-2.14514e-29
3687.0,1.22084e-28,-7.9811400000000003e-26,-7.9881900000000002e-26,-7.9802200000000005e-26,-3.8682699999999998e-29,-2.6429199999999998e-29,-2.9531600000000002e-29
3688.0,1.4334499999999999e-28,-7.9800100000000002e-26,-7.9887000000000002e-26,-7.9799000000000001e-26,-4.3684700000000002e-29,-2.9408000000000003e-29,-3.9043200000000002e-29
3689.0,1.64271e-28,-7.9785900000000002e-26,-7.9893200000000003e-26,-7.9796600000000003e-26,-4.5950899999999997e-29,-3.0691000000000001e-29,-4.9523900000000001e-29
3690.0,5.4220800000000002e-29,-7.9846999999999995e-26,-7.9883899999999996e-26,-7.9834299999999999e-26,-1.3178300000000001e-29,-1.02261e-29,-6.0695300000000002e-30
3691.0,6.3615800000000004e-29,-7.9841899999999995e-26,-7.98837e-26,-7.9828699999999998e-26,-1.74426e-29,-1.20624e-29,-8.7119099999999993e-30
3692.0,7.5888000000000003e-29,-7.9835999999999999e-26,-7.9884700000000003e-26,-7.9823099999999996e-26,-2.23659e-29,-1.4463500000000001e-29,-1.2339299999999999e-29
3693.0,9.0283200000000002e-29,-7.9828099999999998e-26,-7.9886199999999995e-26,-7.9817100000000002e-26,-2.7436500000000003e-29,-1.70067e-29,-1.7218299999999999e-29
3694.0,1.05947e-28,-7.9820000000000001e-26,-7.9889599999999995e-26,-7.9812600000000002e-26,-3.19467e-29,-1.9451299999999999e-29,-2.3196200000000001e-29
3695.0,1.22426e-28,-7.9809800000000001e-26,-7.9893399999999999e-26,-7.9808100000000001e-26,-3.5487299999999999e-29,-2.11964e-29,-3.0149999999999998e-29
3696.0,1.3938100000000001e-28,-7.9799900000000006e-26,-7.9899199999999997e-26,-7.9806200000000005e-26,-3.7620499999999997e-29,-2.2395399999999999e-29,-3.8303600000000002e-29
3697.0,5.2119600000000004e-29,-7.9844800000000005e-26,-7.9881200000000004e-26,-7.9835099999999995e-26,-1.1457e-29,-1.22445e-29,-5.8135599999999999e-30
3698.0,6.19972e-29,-7.98388e-26,-7.9879799999999998e-26,-7.9828799999999996e-26,-1.5916500000000001e-29,-1.47876e-29,-8.9766000000000004e-30
3699.0,7.3719799999999996e-29,-7.9832599999999999e-26,-7.9879600000000002e-26,-7.9823900000000003e-26,-2.0605300000000001e-29,-1.7807199999999999e-29,-1.3050700000000001e-29
3700.0,8.7003100000000004e-29,-7.9825100000000002e-26,-7.9880100000000004e-26,-7.9819300000000004e-26,-2.52801e-29,-2.06306e-29,-1.8211099999999999e-29
3701.0,1.0125800000000001e-28,-7.98172e-26,-7.9882199999999996e-26,-7.9816400000000005e-26,-2.9296900000000003e-29,-2.3292800000000001e-29,-2.4352999999999999e-29
3702.0,1.16107e-28,-7.9807500000000001e-26,-7.9884700000000003e-26,-7.9813600000000004e-26,-3.2319899999999999e-29,-2.4814100000000001e-29,-3.1485699999999999e-29
3703.0,1.29248e-28,-7.9799199999999997e-26,-7.9889599999999995e-26,-7.9814499999999998e-26,-3.3396699999999998e-29,-2.50345e-29,-3.8547699999999999e-29
3704.0,5.0570399999999999e-29,-7.9848300000000003e-26,-7.9884700000000003e-26,-7.9839200000000004e-26,-1.13092e-29,-1.0806e-29,-5.33819e-30
3705.0,5.8216200000000002e-29,-7.9843999999999998e-26,-7.9884800000000001e-26,-7.9835200000000004e-26,-1.46329e-29,-1.25404e-29,-7.6630300000000002e-30
3706.0,6.7749700000000004e-29,-7.9838299999999999e-26,-7.9885099999999994e-26,-7.9830700000000003e-26,-1.8393199999999999e-29,-1.4373500000000001e-29,-1.0873499999999999e-29
3707.0,7.8786899999999995e-29,-7.9832199999999996e-26,-7.9886500000000001e-26,-7.98269e-26,-2.2023300000000001e-29,-1.6494599999999999e-29,-1.4918299999999999e-29
3708.0,9.0678300000000004e-29,-7.98246e-26,-7.9888000000000005e-26,-7.9822999999999998e-26,-2.5281099999999998e-29,-1.8181499999999999e-29,-1.9895499999999999e-29
3709.0,1.02468e-28,-7.9817600000000004e-26,-7.9891299999999995e-26,-7.9821399999999996e-26,-2.7556000000000001e-29,-1.93135e-29,-2.5357300000000002e-29
3710.0,1.14553e-28,-7.9808399999999995e-26,-7.9894199999999994e-26,-7.9818399999999999e-26,-2.85975e-29,-1.9618200000000001e-29,-3.1139400000000001e-29
3711.0,4.8424200000000001e-29,-7.9846999999999995e-26,-7.9882599999999999e-26,-7.9840699999999996e-26,-9.7276299999999996e-30,-1.23297e-29,-4.7735700000000001e-30
3712.0,5.5259200000000004e-29,-7.9842299999999998e-26,-7.9881900000000002e-26,-7.9836799999999995e-26,-1.2673299999999999e-29,-1.4206000000000001e-29,-6.9832400000000005e-30
3713.0,6.3444899999999999e-29,-7.9837000000000002e-26,-7.9881599999999996e-26,-7.9833299999999997e-26,-1.5869200000000001e-29,-1.6283799999999999e-29,-1.00944e-29
3714.0,7.3110499999999994e-29,-7.9831200000000005e-26,-7.9882199999999996e-26,-7.9830399999999998e-26,-1.9170099999999999e-29,-1.8391100000000001e-29,-1.39634e-29
3715.0,8.3308500000000004e-29,-7.9824299999999995e-26,-7.9883199999999998e-26,-7.9827800000000004e-26,-2.19423e-29,-1.99483e-29,-1.85283e-29
3716.0,9.3216999999999996e-29,-7.9817899999999998e-26,-7.98854e-26,-7.98269e-26,-2.3841500000000001e-29,-2.0739500000000001e-29,-2.3562600000000001e-29
3717.0,1.02621e-28,-7.9810999999999999e-26,-7.9888499999999995e-26,-7.9825899999999997e-26,-2.4369799999999999e-29,-2.0240199999999999e-29,-2.8579500000000003e-29
3718.0,4.7642000000000002e-29,-7.9849400000000004e-26,-7.9885599999999996e-26,-7.9843399999999999e-26,-9.7039100000000006e-30,-1.1084e-29,-4.4241399999999998e-30
3719.0,5.3133600000000001e-29,-7.9846100000000002e-26,-7.9885499999999998e-26,-7.9840599999999998e-26,-1.2215200000000001e-29,-1.23741e-29,-6.3743599999999997e-30
3720.0,6.0654099999999999e-29,-7.9841500000000003e-26,-7.9885900000000001e-26,-7.9837500000000004e-26,-1.5090099999999999e-29,-1.3979799999999999e-29,-8.9501099999999996e-30
3721.0,6.9220299999999998e-29,-7.9835900000000001e-26,-7.9886599999999999e-26,-7.9834299999999999e-26,-1.7866699999999999e-29,-1.5544499999999999e-29,-1.2333300000000001e-29
3722.0,7.8248599999999997e-29,-7.9830200000000002e-26,-7.9888100000000003e-26,-7.9832e-26,-2.02562e-29,-1.6801100000000001e-29,-1.6298899999999999e-29
3723.0,8.7320600000000005e-29,-7.9823699999999995e-26,-7.9889900000000001e-26,-7.9829999999999994e-26,-2.19713e-29,-1.7405100000000001e-29,-2.0499600000000001e-29
3724.0,9.5702799999999999e-29,-7.9817899999999998e-26,-7.9892299999999998e-26,-7.9830100000000004e-26,-2.27574e-29,-1.7554900000000001e-29,-2.5201399999999999e-29
3725.0,2.3529200000000001e-29,-7.98956e-26,-7.9910499999999998e-26,-7.9897499999999996e-26,-4.2283199999999998e-30,-6.5686599999999997e-30,7.5630800000000007e-30
3726.0,2.5912800000000002e-29,-7.9894199999999994e-26,-7.9908000000000002e-26,-7.9896700000000001e-26,-4.20898e-30,-7.8073199999999995e-30,9.5350200000000003e-30
3727.0,2.2968600000000001e-29,-7.9892899999999998e-26,-7.9907099999999998e-26,-7.9896100000000002e-26,-3.0024399999999999e-30,-6.7347700000000004e-30,8.1630799999999993e-30
3728.0,2.5339000000000002e-29,-7.9895400000000004e-26,-7.9908500000000004e-26,-7.9897999999999998e-26,-1.89945e-30,-7.9525300000000006e-30,9.9499599999999996e-30
3729.0,2.21847e-29,-7.9894900000000003e-26,-7.9907699999999997e-26,-7.9897399999999999e-26,-8.9429300000000001e-31,-6.7804700000000001e-30,8.4333499999999995e-30
3730.0,2.5217800000000001e-29,-7.9893499999999997e-26,-7.9906099999999995e-26,-7.9897300000000001e-26,-3.2663499999999999e-31,-7.8132299999999994e-30,1.04461e-29
3731.0,2.1837500000000001e-29,-7.9892899999999998e-26,-7.99053e-26,-7.9896500000000005e-26,4.6683999999999996e-31,-6.3688299999999997e-30,8.7901700000000004e-30
3732.0,2.494e-29,-7.9894599999999998e-26,-7.99064e-26,-7.9898599999999997e-26,1.6589900000000001e-30,-7.58051e-30,1.05335e-29
3733.0,2.1449800000000001e-29,-7.9894599999999998e-26,-7.9905999999999997e-26,-7.9897599999999994e-26,2.42405e-30,-5.9157799999999998e-30,8.7891900000000003e-30
3734.0,2.4462899999999999e-29,-7.98928e-26,-7.9904799999999998e-26,-7.9897999999999998e-26,2.9384500000000001e-30,-6.5443299999999997e-30,1.05945e-29
3735.0,2.1093100000000001e-29,-7.9892999999999996e-26,-7.9904399999999995e-26,-7.9896899999999997e-26,3.5670000000000001e-30,-5.09808e-30,8.7316800000000002e-30
3736.0,2.3811300000000001e-29,-7.9893999999999998e-26,-7.9905100000000004e-26,-7.9898400000000001e-26,4.6889500000000003e-30,-5.8513800000000003e-30,1.0076499999999999e-29
3737.0,2.1083400000000001e-29,-7.9894199999999994e-26,-7.9905000000000006e-26,-7.9897100000000005e-26,5.2067400000000003e-30,-4.5003099999999998e-30,8.3691100000000001e-30
3738.0,2.3253299999999999e-29,-7.98928e-26,-7.9904399999999995e-26,-7.9898200000000005e-26,5.7579500000000002e-30,-4.54993e-30,9.6497099999999999e-30
3739.0,2.7278799999999998e-29,-7.9882599999999999e-26,-7.9904399999999995e-26,-7.9886099999999997e-26,-5.5553299999999999e-30,-7.3997699999999995e-30,5.0653000000000003e-30
3740.0,2.8485500000000003e-29,-7.9885599999999996e-26,-7.9906200000000004e-26,-7.9888399999999997e-26,-4.60698e-30,-8.4626599999999997e-30,7.2004400000000002e-30
3741.0,2.6210700000000001e-29,-7.9884700000000003e-26,-7.9905399999999998e-26,-7.9887500000000003e-26,-3.8447799999999997e-30,-7.4772400000000004e-30,5.6661400000000003e-30
3742.0,2.7788099999999997e-29,-7.9882599999999999e-26,-7.9902499999999999e-26,-7.9885999999999999e-26,-3.01415e-30,-8.8313200000000003e-30,7.5319400000000004e-30
3743.0,2.4797099999999999e-29,-7.9883500000000004e-26,-7.9902699999999995e-26,-7.9886500000000001e-26,-2.2334800000000002e-30,-7.4639399999999999e-30,6.1697999999999998e-30
3744.0,2.7382399999999997e-29,-7.9884100000000003e-26,-7.9902900000000002e-26,-7.9887799999999997e-26,-1.1405e-30,-8.9771799999999994e-30,8.2837799999999998e-30
3745.0,2.3856099999999999e-29,-7.9885200000000004e-26,-7.9903e-26,-7.9888200000000001e-26,-5.5858300000000004e-31,-7.2559300000000004e-30,6.7616300000000003e-30
3746.0,2.6246000000000001e-29,-7.9883600000000002e-26,-7.9901399999999998e-26,-7.9888100000000003e-26,4.9721500000000002e-31,-8.2562100000000007e-30,8.6894599999999999e-30
3747.0,2.2658999999999999e-29,-7.9884899999999999e-26,-7.9901600000000005e-26,-7.9887899999999995e-26,1.0181599999999999e-30,-6.5017000000000004e-30,6.9776200000000002e-30
3748.0,2.5483999999999999e-29,-7.9884800000000001e-26,-7.9901600000000005e-26,-7.9889300000000001e-26,2.12891e-30,-7.5967000000000004e-30,8.8670100000000005e-30
3749.0,2.2046600000000001e-29,-7.9885999999999999e-26,-7.9901800000000001e-26,-7.9888899999999998e-26,2.53579e-30,-5.9066000000000003e-30,7.1136399999999997e-30
3750.0,2.4391600000000001e-29,-7.9884700000000003e-26,-7.9900899999999997e-26,-7.9889399999999999e-26,3.56518e-30,-6.3896299999999997e-30,8.6659000000000002e-30
3751.0,2.1524499999999999e-29,-7.9885999999999999e-26,-7.9901100000000004e-26,-7.9888700000000002e-26,3.8437499999999998e-30,-5.0355499999999998e-30,6.9884300000000006e-30
3752.0,2.3534e-29,-7.9885599999999996e-26,-7.9900899999999997e-26,-7.9889300000000001e-26,4.97863e-30,-5.3415699999999999e-30,8.2235699999999997e-30
3753.0,3.35268e-29,-7.9873699999999995e-26,-7.9903400000000004e-26,-7.9877499999999999e-26,-6.5820099999999993e-30,-8.1692200000000003e-30,1.95416e-30
3754.0,3.2904899999999998e-29,-7.9872599999999995e-26,-7.9900299999999997e-26,-7.9876899999999999e-26,-6.11305e-30,-9.3822499999999999e-30,3.7211400000000003e-30
3755.0,3.1542099999999999e-29,-7.9872800000000002e-26,-7.9900399999999995e-26,-7.9876499999999996e-26,-5.4472899999999999e-30,-8.4112500000000007e-30,2.6018000000000001e-30
3756.0,3.2238100000000002e-29,-7.9873099999999996e-26,-7.9899699999999998e-26,-7.9877099999999995e-26,-4.4976399999999997e-30,-9.9108600000000003e-30,4.6088799999999997e-30
3757.0,2.9773299999999998e-29,-7.9874799999999996e-26,-7.9900299999999997e-26,-7.9877800000000004e-26,-3.9276399999999998e-30,-8.5367700000000006e-30,3.5825400000000003e-30
3758.0,3.0716600000000001e-29,-7.9872800000000002e-26,-7.9897800000000002e-26,-7.9877200000000005e-26,-2.8390199999999998e-30,-9.9554299999999999e-30,5.37762e-30
3759.0,2.7645500000000001e-29,-7.9875199999999999e-26,-7.9898800000000005e-26,-7.9878099999999998e-26,-2.28546e-30,-8.1122799999999998e-30,4.2681099999999997e-30
3760.0,2.9191499999999997e-29,-7.9874500000000002e-26,-7.98979e-26,-7.9878900000000005e-26,-1.1285199999999999e-30,-9.4565900000000006e-30,6.1886500000000003e-30
3761.0,2.5822100000000001e-29,-7.9877099999999995e-26,-7.9898800000000005e-26,-7.9879500000000004e-26,-6.7320000000000004e-31,-7.4858300000000002e-30,4.8841999999999998e-30
3762.0,2.7456099999999999e-29,-7.9875199999999999e-26,-7.9897100000000005e-26,-7.9879500000000004e-26,4.80329e-31,-8.5074200000000006e-30,6.6083699999999999e-30
3763.0,2.4368399999999999e-29,-7.9877699999999995e-26,-7.9898099999999996e-26,-7.9879799999999998e-26,8.7611200000000005e-31,-6.6468799999999996e-30,5.1663000000000003e-30
3764.0,2.5996600000000002e-29,-7.9876499999999996e-26,-7.9897100000000005e-26,-7.98803e-26,2.08746e-30,-7.4075099999999994e-30,6.7468199999999998e-30
3765.0,2.3405399999999999e-29,-7.9878799999999996e-26,-7.9897999999999998e-26,-7.98803e-26,2.18637e-30,-5.9145300000000001e-30,5.30966e-30
3766.0,2.47935e-29,-7.9877400000000001e-26,-7.9896999999999995e-26,-7.9880499999999996e-26,3.4527400000000001e-30,-6.2237999999999999e-30,6.5502500000000002e-30
3767.0,4.16185e-29,-7.9860499999999998e-26,-7.9897999999999998e-26,-7.9866199999999998e-26,-8.7208499999999998e-30,-9.3871100000000007e-30,-2.2626000000000001e-30
3768.0,4.00071e-29,-7.9862299999999996e-26,-7.9898099999999996e-26,-7.9868300000000001e-26,-7.6363600000000001e-30,-1.03297e-29,-6.7130199999999998e-32
3769.0,3.9424499999999998e-29,-7.9863299999999999e-26,-7.9898400000000001e-26,-7.9867600000000004e-26,-7.5459800000000006e-30,-9.6954299999999996e-30,-9.5076099999999991e-31
3770.0,3.8489300000000002e-29,-7.9861300000000005e-26,-7.9895000000000001e-26,-7.9866799999999997e-26,-6.6086199999999996e-30,-1.1138299999999999e-29,5.82398e-31
3771.0,3.6429000000000002e-29,-7.9864200000000004e-26,-7.9896299999999998e-26,-7.9867399999999996e-26,-6.1453299999999997e-30,-9.6520400000000007e-30,1.7801999999999999e-31
3772.0,3.6424900000000001e-29,-7.9863200000000001e-26,-7.9894599999999998e-26,-7.9867999999999996e-26,-5.0518599999999997e-30,-1.12758e-29,1.97109e-30
3773.0,3.3566499999999998e-29,-7.9866699999999999e-26,-7.9896100000000002e-26,-7.9869199999999994e-26,-4.5533800000000003e-30,-9.3262200000000006e-30,1.42267e-30
3774.0,3.37501e-29,-7.9864499999999997e-26,-7.9893499999999997e-26,-7.98689e-26,-3.4230400000000001e-30,-1.06707e-29,3.0593899999999999e-30
3775.0,3.0726500000000003e-29,-7.9868200000000003e-26,-7.9895199999999997e-26,-7.9869900000000003e-26,-2.9008600000000002e-30,-8.5423200000000006e-30,2.3122700000000001e-30
3776.0,3.1237799999999999e-29,-7.9866699999999999e-26,-7.9893599999999995e-26,-7.9870400000000005e-26,-1.64113e-30,-9.7434099999999996e-30,3.9060500000000003e-30
3777.0,2.8458600000000001e-29,-7.9870099999999999e-26,-7.9895099999999999e-26,-7.9871100000000002e-26,-1.27633e-30,-7.7297300000000005e-30,2.9857700000000001e-30
3778.0,2.9030600000000001e-29,-7.9868200000000003e-26,-7.9893200000000003e-26,-7.9871000000000004e-26,-7.3186500000000001e-32,-8.5767199999999998e-30,4.3886200000000002e-30
3779.0,2.6932600000000001e-29,-7.98712e-26,-7.9894699999999996e-26,-7.9871500000000005e-26,5.5650700000000001e-32,-6.9441e-30,3.3752599999999999e-30
3780.0,2.7286600000000002e-29,-7.9869699999999996e-26,-7.9893300000000001e-26,-7.9871500000000005e-26,1.4623900000000001e-30,-7.3474900000000006e-30,4.44455e-30
3781.0,5.2696700000000003e-29,-7.9850199999999999e-26,-7.9896999999999995e-26,-7.9857300000000005e-26,-1.09669e-29,-1.08938e-29,-7.0436699999999997e-30
3782.0,4.9807999999999999e-29,-7.9849000000000001e-26,-7.9893100000000005e-26,-7.9857699999999997e-26,-1.0288599999999999e-29,-1.19724e-29,-5.7987899999999999e-30
3783.0,4.9239000000000001e-29,-7.9851600000000006e-26,-7.98945e-26,-7.9857e-26,-1.0324200000000001e-29,-1.1228600000000001e-29,-5.5183400000000002e-30
3784.0,4.7687000000000002e-29,-7.9850899999999997e-26,-7.9892299999999998e-26,-7.9857699999999997e-26,-9.3105299999999995e-30,-1.2719100000000001e-29,-3.9977000000000001e-30
3785.0,4.53933e-29,-7.9854899999999996e-26,-7.98939e-26,-7.9858299999999997e-26,-9.0122900000000006e-30,-1.1234300000000001e-29,-3.65427e-30
3786.0,4.42885e-29,-7.9852699999999995e-26,-7.9890599999999998e-26,-7.9858000000000003e-26,-7.9685099999999997e-30,-1.2809e-29,-2.32815e-30
3787.0,4.12771e-29,-7.9857400000000003e-26,-7.9892700000000002e-26,-7.9859299999999999e-26,-7.3922800000000006e-30,-1.07025e-29,-1.9802200000000001e-30
3788.0,4.05017e-29,-7.9855600000000005e-26,-7.9890300000000004e-26,-7.9859600000000005e-26,-6.2329800000000001e-30,-1.21872e-29,-6.6105299999999998e-31
3789.0,3.7363599999999998e-29,-7.9860300000000002e-26,-7.9892399999999996e-26,-7.9861099999999997e-26,-5.6071200000000002e-30,-9.8744599999999996e-30,-5.6142e-31
3790.0,3.6960799999999999e-29,-7.9858100000000001e-26,-7.9889800000000003e-26,-7.9860800000000003e-26,-4.48315e-30,-1.1188000000000001e-29,6.9744500000000004e-31
3791.0,3.42054e-29,-7.9862400000000005e-26,-7.9892000000000004e-26,-7.98621e-26,-3.9560800000000002e-30,-8.95554e-30,4.8906999999999997e-31
3792.0,3.3867800000000003e-29,-7.98604e-26,-7.9889800000000003e-26,-7.9861900000000004e-26,-2.6964799999999999e-30,-9.9616e-30,1.58125e-30
3793.0,3.1878099999999997e-29,-7.9864100000000006e-26,-7.9891699999999999e-26,-7.9863000000000005e-26,-2.5061500000000001e-30,-8.1194899999999999e-30,1.11315e-30
3794.0,3.15695e-29,-7.9862400000000005e-26,-7.9889800000000003e-26,-7.9862400000000005e-26,-1.24582e-30,-8.7112599999999999e-30,2.1234200000000001e-30
3795.0,6.5810199999999999e-29,-7.9837199999999998e-26,-7.9893100000000005e-26,-7.9846799999999999e-26,-1.45061e-29,-1.29247e-29,-1.31087e-29
3796.0,6.3449499999999999e-29,-7.9837299999999996e-26,-7.9891799999999997e-26,-7.9848200000000005e-26,-1.33828e-29,-1.38956e-29,-1.17876e-29
3797.0,6.1268799999999998e-29,-7.9841699999999999e-26,-7.98928e-26,-7.98479e-26,-1.37364e-29,-1.3236499999999999e-29,-1.0491299999999999e-29
3798.0,5.9506e-29,-7.9839300000000002e-26,-7.9888700000000002e-26,-7.9847700000000004e-26,-1.2935999999999999e-29,-1.48004e-29,-9.8135000000000005e-30
3799.0,5.5978000000000001e-29,-7.9845000000000001e-26,-7.9890900000000004e-26,-7.9848400000000001e-26,-1.24834e-29,-1.30503e-29,-8.0873299999999996e-30
3800.0,5.4817599999999998e-29,-7.9842999999999996e-26,-7.9887799999999997e-26,-7.9848599999999997e-26,-1.1545699999999999e-29,-1.4822899999999999e-29,-7.2413899999999994e-30
3801.0,5.0455100000000003e-29,-7.9849099999999999e-26,-7.9890300000000004e-26,-7.9850399999999995e-26,-1.0704100000000001e-29,-1.2399399999999999e-29,-5.6945600000000001e-30
3802.0,4.96002e-29,-7.9846600000000003e-26,-7.9886900000000004e-26,-7.9849900000000006e-26,-9.8681199999999994e-30,-1.4047000000000001e-29,-4.8419900000000002e-30
3803.0,4.5320699999999997e-29,-7.9852499999999999e-26,-7.9889499999999997e-26,-7.9851999999999998e-26,-8.8048400000000001e-30,-1.14295e-29,-3.6608699999999998e-30
3804.0,4.4363599999999999e-29,-7.9850399999999995e-26,-7.9886699999999997e-26,-7.9851800000000002e-26,-7.7319499999999996e-30,-1.2772199999999999e-29,-2.8781799999999999e-30
3805.0,4.0914400000000002e-29,-7.9855499999999996e-26,-7.9889300000000001e-26,-7.9853799999999996e-26,-6.8539700000000001e-30,-1.03278e-29,-2.1476399999999999e-30
3806.0,4.0349600000000001e-29,-7.9853400000000004e-26,-7.9886699999999997e-26,-7.9853e-26,-5.8512100000000003e-30,-1.15057e-29,-1.3860299999999999e-30
3807.0,3.7995400000000003e-29,-7.9857599999999999e-26,-7.9889100000000006e-26,-7.9854799999999998e-26,-5.4252100000000003e-30,-9.4110599999999994e-30,-1.1592e-30
3808.0,3.7232900000000002e-29,-7.9855600000000005e-26,-7.9886599999999999e-26,-7.9853900000000005e-26,-4.1960699999999999e-30,-1.02417e-29,-5.1393099999999997e-31
3809.0,8.0100800000000001e-29,-7.9827300000000003e-26,-7.9892899999999998e-26,-7.9838100000000003e-26,-1.7898500000000001e-29,-1.51269e-29,-1.8786099999999999e-29
3810.0,8.0128999999999998e-29,-7.9824299999999995e-26,-7.9888700000000002e-26,-7.9838399999999997e-26,-1.80816e-29,-1.6799400000000001e-29,-1.96446e-29
3811.0,7.3743299999999998e-29,-7.9831800000000004e-26,-7.9890400000000002e-26,-7.98388e-26,-1.75209e-29,-1.53386e-29,-1.5641300000000001e-29
3812.0,7.4815800000000005e-29,-7.9828500000000002e-26,-7.9887000000000002e-26,-7.9837500000000004e-26,-1.75594e-29,-1.7440499999999999e-29,-1.62284e-29
3813.0,6.7037699999999995e-29,-7.9836799999999995e-26,-7.9888999999999996e-26,-7.9839999999999999e-26,-1.6168600000000001e-29,-1.5069800000000001e-29,-1.23476e-29
3814.0,6.7784299999999997e-29,-7.9833399999999995e-26,-7.9885300000000002e-26,-7.9838600000000004e-26,-1.6132499999999999e-29,-1.7201100000000001e-29,-1.2671500000000001e-29
3815.0,5.9994599999999997e-29,-7.9841600000000001e-26,-7.9887899999999995e-26,-7.9841899999999995e-26,-1.42281e-29,-1.4197700000000001e-29,-9.2244500000000003e-30
3816.0,6.0430499999999997e-29,-7.9838499999999995e-26,-7.9884399999999997e-26,-7.9840400000000002e-26,-1.40212e-29,-1.60668e-29,-9.3546500000000003e-30
3817.0,5.3232100000000001e-29,-7.9846100000000002e-26,-7.9887299999999996e-26,-7.9844300000000004e-26,-1.19478e-29,-1.2892900000000001e-29,-6.5926899999999995e-30
3818.0,5.35693e-29,-7.9843300000000001e-26,-7.9884000000000005e-26,-7.9842600000000004e-26,-1.1648400000000001e-29,-1.4635300000000001e-29,-6.5345800000000005e-30
3819.0,4.7639999999999999e-29,-7.9849900000000006e-26,-7.9887000000000002e-26,-7.9846500000000005e-26,-9.7519100000000005e-30,-1.1694700000000001e-29,-4.4953700000000001e-30
3820.0,4.7521200000000002e-29,-7.9847300000000001e-26,-7.9884000000000005e-26,-7.9844800000000005e-26,-9.1581299999999997e-30,-1.29227e-29,-4.4021599999999998e-30
3821.0,4.3583999999999998e-29,-7.9852300000000003e-26,-7.9886900000000004e-26,-7.9848300000000003e-26,-7.8777599999999996e-30,-1.05166e-29,-3.14856e-30
3822.0,4.3454099999999998e-29,-7.9850500000000005e-26,-7.9884299999999999e-26,-7.9846500000000005e-26,-7.31307e-30,-1.1672e-29,-2.95894e-30
3823.0,1.05724e-28,-7.9816500000000003e-26,-7.9900799999999999e-26,-7.9822399999999999e-26,-2.7271200000000002e-29,1.7920500000000001e-29,2.1119099999999999e-29
3824.0,8.2755500000000001e-29,-7.9830700000000003e-26,-7.9901399999999998e-26,-7.9835900000000001e-26,-1.94158e-29,1.4056799999999999e-29,1.2548e-29
3825.0,6.3762199999999998e-29,-7.9843399999999999e-26,-7.9900500000000005e-26,-7.9848099999999996e-26,-1.3962900000000001e-29,1.11127e-29,5.6688700000000001e-30
3826.0,5.0474599999999998e-29,-7.9858199999999999e-26,-7.99047e-26,-7.9861099999999997e-26,-9.7497800000000003e-30,8.5896200000000006e-30,-7.6827800000000004e-31
3827.0,4.0374200000000002e-29,-7.9869400000000002e-26,-7.9905800000000001e-26,-7.9871399999999996e-26,-7.0202600000000001e-30,6.9860299999999994e-30,-5.2210999999999999e-30
3828.0,3.4309599999999999e-29,-7.9883500000000004e-26,-7.9911300000000005e-26,-7.9884000000000005e-26,-4.6704900000000003e-30,5.4999799999999998e-30,-9.3855500000000002e-30
3829.0,3.07975e-29,-7.9893300000000001e-26,-7.9913000000000005e-26,-7.9893200000000003e-26,-3.6309599999999999e-30,4.5016299999999999e-30,-1.2360500000000001e-29
3830.0,9.6375999999999996e-29,-7.9823900000000003e-26,-7.9896500000000005e-26,-7.9822100000000005e-26,-2.6524299999999997e-29,1.8285199999999999e-29,1.5970900000000001e-29
3831.0,7.5639499999999997e-29,-7.98354e-26,-7.9896299999999998e-26,-7.9835300000000002e-26,-1.90716e-29,1.4852e-29,9.2154600000000007e-30
3832.0,5.9722300000000003e-29,-7.98479e-26,-7.9898800000000005e-26,-7.9847800000000002e-26,-1.32537e-29,1.18339e-29,2.90769e-30
3833.0,4.7277900000000002e-29,-7.9859100000000003e-26,-7.9900299999999997e-26,-7.98587e-26,-8.9454400000000002e-30,9.3585600000000001e-30,-2.1218099999999998e-30
3834.0,3.89376e-29,-7.9871799999999999e-26,-7.99047e-26,-7.9870600000000001e-26,-5.7038699999999997e-30,7.4626700000000003e-30,-6.5878500000000001e-30
3835.0,3.3208500000000002e-29,-7.9882099999999998e-26,-7.9907099999999998e-26,-7.9880499999999996e-26,-3.3475200000000001e-30,5.8504999999999998e-30,-9.9963600000000006e-30
3836.0,3.0233000000000002e-29,-7.9895899999999994e-26,-7.9913200000000001e-26,-7.9893700000000004e-26,-1.5755600000000001e-30,4.5165000000000001e-30,-1.2937000000000001e-29
3837.0,8.5440599999999997e-29,-7.9831400000000001e-26,-7.9892399999999996e-26,-7.9824199999999997e-26,-2.4344999999999999e-29,1.7829399999999999e-29,1.09016e-29
3838.0,6.8153199999999999e-29,-7.9841600000000001e-26,-7.9893800000000002e-26,-7.9836599999999999e-26,-1.72252e-29,1.4830299999999999e-29,5.3470500000000002e-30
3839.0,5.4276899999999999e-29,-7.98519e-26,-7.98956e-26,-7.98479e-26,-1.16509e-29,1.2016499999999999e-29,2.2731499999999999e-31
3840.0,4.4061499999999998e-29,-7.9863200000000001e-26,-7.9899299999999995e-26,-7.9859600000000005e-26,-7.2265600000000004e-30,9.71245e-30,-4.31719e-30
3841.0,3.68008e-29,-7.9873300000000003e-26,-7.9902099999999995e-26,-7.9869800000000005e-26,-3.9316899999999997e-30,7.7258100000000001e-30,-7.93489e-30
3842.0,3.2653699999999998e-29,-7.98854e-26,-7.9907300000000005e-26,-7.9881699999999994e-26,-1.40679e-30,6.2142000000000001e-30,-1.10956e-29
3843.0,3.0200400000000001e-29,-7.9895299999999995e-26,-7.9910599999999996e-26,-7.98922e-26,9.2179200000000006e-34,4.60629e-30,-1.3645300000000001e-29
3844.0,7.4843200000000005e-29,-7.9838600000000004e-26,-7.9889599999999995e-26,-7.9826999999999998e-26,-2.1077100000000001e-29,1.6570000000000001e-29,6.2417000000000001e-30
3845.0,6.0725100000000003e-29,-7.9847100000000005e-26,-7.9891400000000005e-26,-7.9838399999999997e-26,-1.4756799999999999e-29,1.41651e-29,1.8161200000000001e-30
3846.0,4.9250599999999997e-29,-7.9856800000000004e-26,-7.9894400000000002e-26,-7.9849699999999998e-26,-9.3515000000000001e-30,1.17231e-29,-2.4012100000000001e-30
3847.0,4.0865099999999999e-29,-7.9866199999999998e-26,-7.9897300000000001e-26,-7.9859999999999997e-26,-5.1998499999999997e-30,9.5604199999999993e-30,-6.1521999999999997e-30
3848.0,3.54043e-29,-7.9876700000000004e-26,-7.9901800000000001e-26,-7.9871100000000002e-26,-1.89166e-30,7.7303799999999999e-30,-9.3292499999999998e-30
3849.0,3.19673e-29,-7.9886099999999997e-26,-7.99053e-26,-7.9881200000000004e-26,4.6975499999999996e-31,5.9823599999999999e-30,-1.19264e-29
3850.0,3.0369399999999999e-29,-7.9897800000000002e-26,-7.9910800000000003e-26,-7.9892899999999998e-26,2.1269e-30,4.8242200000000002e-30,-1.3917199999999999e-29
3851.0,6.5356599999999999e-29,-7.9844800000000005e-26,-7.9887699999999999e-26,-7.9830399999999998e-26,-1.74075e-29,1.5121699999999999e-29,2.2797599999999999e-30
3852.0,5.3948299999999995e-29,-7.9852400000000001e-26,-7.9890099999999997e-26,-7.9841199999999998e-26,-1.1715499999999999e-29,1.3158100000000001e-29,-1.1534799999999999e-30
3853.0,4.50771e-29,-7.9860499999999998e-26,-7.9892999999999996e-26,-7.9851200000000002e-26,-6.9793099999999994e-30,1.1176899999999999e-29,-4.6350699999999997e-30
3854.0,3.8549100000000001e-29,-7.9869599999999998e-26,-7.9896799999999999e-26,-7.9861699999999997e-26,-2.9378499999999998e-30,9.2697399999999996e-30,-7.7443200000000005e-30
3855.0,3.4343000000000003e-29,-7.9878300000000006e-26,-7.9900399999999995e-26,-7.9871399999999996e-26,6.8978900000000003e-32,7.4926299999999999e-30,-1.0360800000000001e-29
3856.0,3.2171599999999998e-29,-7.9888399999999997e-26,-7.9905200000000002e-26,-7.9882e-26,2.3666300000000001e-30,6.0696199999999999e-30,-1.2588299999999999e-29
3857.0,3.0843899999999997e-29,-7.9896799999999999e-26,-7.9908799999999998e-26,-7.9891699999999999e-26,3.64973e-30,4.4912799999999997e-30,-1.43569e-29
3858.0,5.7298800000000001e-29,-7.9849799999999996e-26,-7.9886599999999999e-26,-7.9834200000000001e-26,-1.3685200000000001e-29,1.3494000000000001e-29,-6.8416400000000003e-31
3859.0,4.8931499999999997e-29,-7.9856300000000002e-26,-7.9889200000000003e-26,-7.9843399999999999e-26,-9.0108200000000004e-30,1.21545e-29,-3.4613799999999997e-30
3860.0,4.1804300000000001e-29,-7.9863700000000002e-26,-7.9892399999999996e-26,-7.9853099999999998e-26,-4.5884500000000003e-30,1.0451699999999999e-29,-6.2706900000000003e-30
3861.0,3.6909499999999998e-29,-7.9871600000000003e-26,-7.9895899999999994e-26,-7.9862600000000001e-26,-1.01697e-30,8.78272e-30,-8.9031400000000002e-30
3862.0,3.38396e-29,-7.98803e-26,-7.9900100000000001e-26,-7.9872399999999999e-26,1.91379e-30,7.2142299999999993e-30,-1.1093700000000001e-29
3863.0,3.2085499999999997e-29,-7.9888600000000004e-26,-7.9904000000000003e-26,-7.9881900000000002e-26,3.9912099999999999e-30,5.6930999999999999e-30,-1.2902800000000001e-29
3864.0,3.1302199999999999e-29,-7.9898599999999997e-26,-7.99087e-26,-7.9891600000000001e-26,5.4880699999999998e-30,4.60798e-30,-1.4186000000000001e-29
3865.0,5.2145699999999997e-29,-7.9853500000000002e-26,-7.9886199999999995e-26,-7.9837000000000002e-26,-1.0992999999999999e-29,1.23727e-29,-2.6389400000000002e-30
3866.0,4.5403800000000002e-29,-7.9858899999999996e-26,-7.9888600000000004e-26,-7.9845199999999997e-26,-6.8283700000000005e-30,1.1169499999999999e-29,-4.8527999999999999e-30
3867.0,3.9727199999999999e-29,-7.9865800000000006e-26,-7.9891699999999999e-26,-7.9854100000000001e-26,-2.8852800000000001e-30,9.7140700000000002e-30,-7.3228299999999999e-30
3868.0,3.5692100000000001e-29,-7.9873300000000003e-26,-7.9895400000000004e-26,-7.9863499999999995e-26,6.9332199999999999e-31,8.1995799999999996e-30,-9.47787e-30
3869.0,3.3385700000000002e-29,-7.9881099999999995e-26,-7.9899299999999995e-26,-7.9872700000000004e-26,3.3707599999999998e-30,6.7683399999999996e-30,-1.1394700000000001e-29
3870.0,3.2223200000000001e-29,-7.9889700000000005e-26,-7.9903599999999999e-26,-7.9882e-26,5.4605899999999997e-30,5.4511799999999997e-30,-1.2914599999999999e-29
3871.0,3.1471999999999999e-29,-7.9897300000000001e-26,-7.9907599999999999e-26,-7.9891500000000003e-26,6.6587899999999996e-30,4.19051e-30,-1.4216800000000001e-29
3872.0,1.0522300000000001e-28,-7.9819599999999998e-26,-7.9905399999999998e-26,-7.9821799999999999e-26,-2.6585600000000001e-29,1.56714e-29,1.85699e-29
3873.0,8.5584100000000002e-29,-7.9830600000000005e-26,-7.9903300000000006e-26,-7.9833500000000004e-26,-2.0627399999999999e-29,1.29178e-29,1.2464799999999999e-29
3874.0,6.8042099999999999e-29,-7.9845000000000001e-26,-7.9905399999999998e-26,-7.9846999999999995e-26,-1.4920200000000001e-29,1.02639e-29,6.0455300000000003e-30
3875.0,5.31055e-29,-7.9856200000000004e-26,-7.99047e-26,-7.9858199999999999e-26,-1.10082e-29,8.1608099999999997e-30,7.5161900000000001e-31
3876.0,4.2621099999999998e-29,-7.9870600000000001e-26,-7.9909200000000001e-26,-7.98712e-26,-7.7186300000000006e-30,6.4276700000000006e-30,-3.8780800000000001e-30
3877.0,3.4292499999999999e-29,-7.9880700000000003e-26,-7.9909600000000005e-26,-7.9881099999999995e-26,-5.7912699999999998e-30,5.2957899999999998e-30,-7.3611200000000004e-30
3878.0,2.9409799999999998e-29,-7.9894599999999998e-26,-7.99155e-26,-7.9893399999999999e-26,-3.85411e-30,4.0625900000000003e-30,-1.01382e-29
3879.0,9.45137e-29,-7.9826999999999998e-26,-7.9900299999999997e-26,-7.9823499999999999e-26,-2.57656e-29,1.5437699999999999e-29,1.3900399999999999e-29
3880.0,7.8138800000000004e-29,-7.9837600000000002e-26,-7.9901200000000002e-26,-7.9835300000000002e-26,-1.9791e-29,1.3010000000000001e-29,8.7456399999999993e-30
3881.0,6.24348e-29,-7.9848200000000005e-26,-7.99013e-26,-7.9846600000000003e-26,-1.4393199999999999e-29,1.05181e-29,3.6176300000000002e-30
3882.0,4.9736600000000003e-29,-7.9860800000000003e-26,-7.9904299999999997e-26,-7.9859399999999997e-26,-1.00634e-29,8.4555700000000006e-30,-1.1365000000000001e-30
3883.0,3.9692899999999998e-29,-7.9871100000000002e-26,-7.9905499999999996e-26,-7.9869699999999996e-26,-6.80399e-30,6.6965399999999996e-30,-4.9577099999999997e-30
3884.0,3.2953899999999998e-29,-7.9884000000000005e-26,-7.9910200000000004e-26,-7.9882099999999998e-26,-4.3221800000000002e-30,5.3486699999999997e-30,-8.2419800000000005e-30
3885.0,2.8617600000000002e-29,-7.9892999999999996e-26,-7.9911699999999997e-26,-7.9891600000000001e-26,-2.80383e-30,4.2699499999999997e-30,-1.10079e-29
3886.0,8.4315200000000002e-29,-7.9834299999999999e-26,-7.9896799999999999e-26,-7.9825899999999997e-26,-2.3650900000000001e-29,1.4962400000000001e-29,9.3672099999999997e-30
3887.0,7.0069700000000002e-29,-7.9842899999999998e-26,-7.9897399999999999e-26,-7.9836500000000001e-26,-1.8036100000000001e-29,1.2736500000000001e-29,5.3243399999999997e-30
3888.0,5.6666600000000004e-29,-7.9853500000000002e-26,-7.98996e-26,-7.9848499999999999e-26,-1.2813700000000001e-29,1.05522e-29,9.1671000000000001e-31
3889.0,4.5474500000000002e-29,-7.9863299999999999e-26,-7.9901100000000004e-26,-7.9859100000000003e-26,-8.5303900000000006e-30,8.5327900000000004e-30,-2.9243299999999999e-30
3890.0,3.7231899999999997e-29,-7.9874799999999996e-26,-7.9904799999999998e-26,-7.9870799999999996e-26,-5.20178e-30,6.97917e-30,-6.3854199999999998e-30
3891.0,3.1252800000000001e-29,-7.9884000000000005e-26,-7.9906900000000002e-26,-7.9880600000000005e-26,-2.7092700000000001e-30,5.4986399999999998e-30,-9.12702e-30
3892.0,2.80362e-29,-7.98962e-26,-7.99121e-26,-7.9892399999999996e-26,-7.7530899999999997e-31,4.4178899999999999e-30,-1.15076e-29
3893.0,7.41202e-29,-7.9840800000000006e-26,-7.9893700000000004e-26,-7.9829199999999999e-26,-2.07115e-29,1.3944799999999999e-29,5.2467300000000001e-30
3894.0,6.2275400000000001e-29,-7.9848699999999995e-26,-7.9895400000000004e-26,-7.98394e-26,-1.5580099999999999e-29,1.20885e-29,2.0547900000000001e-30
3895.0,5.0989399999999995e-29,-7.9857400000000003e-26,-7.9897100000000005e-26,-7.9849799999999996e-26,-1.07418e-29,1.01563e-29,-1.48845e-30
3896.0,4.17256e-29,-7.9867299999999998e-26,-7.9900199999999999e-26,-7.9861099999999997e-26,-6.6223900000000002e-30,8.4432700000000001e-30,-4.78047e-30
3897.0,3.4787499999999998e-29,-7.98763e-26,-7.9902599999999997e-26,-7.9870899999999994e-26,-3.37607e-30,6.8549399999999996e-30,-7.5842299999999999e-30
3898.0,3.0377e-29,-7.9887000000000002e-26,-7.9906900000000002e-26,-7.9882e-26,-8.8657900000000003e-31,5.5985800000000001e-30,-1.0066e-29
3899.0,2.7882600000000002e-29,-7.9895099999999999e-26,-7.9909399999999997e-26,-7.98911e-26,6.8371000000000003e-31,4.37592e-30,-1.21448e-29
3900.0,6.4865500000000005e-29,-7.9846700000000001e-26,-7.9891600000000001e-26,-7.9833000000000003e-26,-1.7353299999999999e-29,1.26281e-29,1.9012600000000002e-30
3901.0,5.5345199999999998e-29,-7.9853300000000006e-26,-7.9893300000000001e-26,-7.9842000000000004e-26,-1.2912899999999999e-29,1.1207399999999999e-29,-6.8067000000000003e-31
3902.0,4.6004099999999999e-29,-7.9861599999999999e-26,-7.9896000000000004e-26,-7.9852300000000003e-26,-8.3941700000000005e-30,9.5785199999999994e-30,-3.5332500000000002e-30
3903.0,3.84794e-29,-7.9869800000000005e-26,-7.9898499999999999e-26,-7.9862000000000002e-26,-4.6072700000000002e-30,8.0197399999999995e-30,-6.2223700000000003e-30
3904.0,3.3073500000000003e-29,-7.9879199999999999e-26,-7.9902099999999995e-26,-7.9872399999999999e-26,-1.48735e-30,6.6743500000000005e-30,-8.6747999999999995e-30
3905.0,2.9650299999999998e-29,-7.9887400000000005e-26,-7.9905000000000006e-26,-7.98814e-26,8.6396300000000002e-31,5.3341200000000002e-30,-1.06851e-29
3906.0,2.8186200000000001e-29,-7.9897700000000004e-26,-7.99098e-26,-7.9891899999999995e-26,2.7221499999999999e-30,4.3638899999999998e-30,-1.24498e-29
3907.0,5.7522799999999996e-29,-7.9851399999999998e-26,-7.9890099999999997e-26,-7.9836400000000003e-26,-1.4210200000000001e-29,1.15788e-29,-6.8250999999999996e-31
3908.0,4.9692600000000001e-29,-7.9857300000000005e-26,-7.98922e-26,-7.9844699999999996e-26,-1.02224e-29,1.03535e-29,-2.7122800000000001e-30
3909.0,4.2263399999999999e-29,-7.98644e-26,-7.9894699999999996e-26,-7.9853900000000005e-26,-6.2599500000000003e-30,9.0001200000000002e-30,-5.0824400000000002e-30
3910.0,3.6128399999999999e-29,-7.9872499999999997e-26,-7.9897800000000002e-26,-7.9863600000000004e-26,-2.62649e-30,7.6510600000000004e-30,-7.3647399999999993e-30
3911.0,3.1978700000000001e-29,-7.98803e-26,-7.9900799999999999e-26,-7.9872700000000004e-26,2.92042e-31,6.3557299999999997e-30,-9.4070300000000002e-30
3912.0,2.9597000000000001e-29,-7.9889200000000003e-26,-7.9904899999999996e-26,-7.9882400000000003e-26,2.5595699999999998e-30,5.2803699999999997e-30,-1.11972e-29
3913.0,2.8436400000000002e-29,-7.9896600000000003e-26,-7.9907799999999995e-26,-7.9890900000000004e-26,4.0287300000000002e-30,4.1834899999999999e-30,-1.2748100000000001e-29
3914.0,5.2342899999999998e-29,-7.9854299999999997e-26,-7.9889200000000003e-26,-7.9839100000000006e-26,-1.1653399999999999e-29,1.0629e-29,-2.3197200000000002e-30
3915.0,4.6132299999999999e-29,-7.9859700000000003e-26,-7.9891299999999995e-26,-7.9846399999999996e-26,-8.2791300000000003e-30,9.7225899999999997e-30,-4.0801000000000001e-30
3916.0,3.96561e-29,-7.9866400000000005e-26,-7.98939e-26,-7.98553e-26,-4.4247699999999999e-30,8.4955799999999995e-30,-6.0791899999999998e-30
3917.0,3.47148e-29,-7.9873699999999995e-26,-7.9896899999999997e-26,-7.9864300000000002e-26,-1.07343e-30,7.2705600000000002e-30,-8.1062e-30
3918.0,3.1359199999999999e-29,-7.9881699999999994e-26,-7.9900399999999995e-26,-7.9873499999999999e-26,1.7473799999999999e-30,6.0865899999999998e-30,-9.8868900000000002e-30
3919.0,2.9503000000000001e-29,-7.9889300000000001e-26,-7.9903699999999997e-26,-7.9882199999999996e-26,3.9288399999999997e-30,4.9629500000000003e-30,-1.13988e-29
3920.0,2.8993299999999998e-29,-7.9898099999999996e-26,-7.9907900000000004e-26,-7.98911e-26,5.70027e-30,4.0476700000000003e-30,-1.2654199999999999e-29
3921.0,3.1099399999999999e-29,-7.98979e-26,-7.9906599999999996e-26,-7.9890199999999995e-26,7.9223999999999996e-30,3.8714800000000003e-30,-1.33064e-29
3922.0,3.0001199999999997e-29,-7.9897700000000004e-26,-7.9906900000000002e-26,-7.9891299999999995e-26,8.4225800000000003e-30,3.5910699999999998e-30,-1.24589e-29
3923.0,2.8473500000000002e-29,-7.9896799999999999e-26,-7.9905100000000004e-26,-7.9889499999999997e-26,9.1479399999999996e-30,3.0548699999999999e-30,-1.07711e-29
3924.0,2.6815099999999999e-29,-7.9897300000000001e-26,-7.9905899999999999e-26,-7.9890800000000006e-26,9.4291100000000004e-30,2.7259999999999999e-30,-9.2815399999999994e-30
3925.0,2.5102299999999999e-29,-7.9895799999999996e-26,-7.9904100000000001e-26,-7.9889300000000001e-26,9.9427299999999997e-30,2.3248199999999999e-30,-7.1237799999999994e-30
3926.0,2.3549800000000001e-29,-7.9896600000000003e-26,-7.9905200000000002e-26,-7.9890900000000004e-26,1.00897e-29,1.7150899999999998e-30,-5.3280600000000003e-30
3927.0,2.2531000000000001e-29,-7.9894900000000003e-26,-7.9903500000000002e-26,-7.9889700000000005e-26,1.0461800000000001e-29,1.52479e-30,-3.0809800000000002e-30
3928.0,3.16362e-29,-7.9889700000000005e-26,-7.9903099999999998e-26,-7.9882300000000005e-26,6.4978199999999998e-30,4.9998900000000002e-30,-1.24604e-29
3929.0,3.0543000000000002e-29,-7.9889200000000003e-26,-7.9901899999999999e-26,-7.9881300000000002e-26,7.1582599999999997e-30,4.4444299999999998e-30,-1.1489700000000001e-29
3930.0,2.9224699999999999e-29,-7.9889300000000001e-26,-7.9901899999999999e-26,-7.9881699999999994e-26,7.7063800000000006e-30,3.9574899999999999e-30,-1.02503e-29
3931.0,2.7570900000000002e-29,-7.9888100000000003e-26,-7.9900500000000005e-26,-7.9880399999999998e-26,8.0800399999999999e-30,3.2895299999999999e-30,-8.6519300000000004e-30
3932.0,2.6069400000000001e-29,-7.9888399999999997e-26,-7.9900999999999995e-26,-7.9881200000000004e-26,8.4320299999999994e-30,2.6682899999999999e-30,-6.9283000000000001e-30
3933.0,2.4679900000000001e-29,-7.9886900000000004e-26,-7.9899400000000004e-26,-7.9880000000000006e-26,8.7169299999999994e-30,2.0339200000000001e-30,-5.07811e-30
3934.0,2.3750399999999999e-29,-7.9887899999999995e-26,-7.9900799999999999e-26,-7.9881699999999994e-26,9.0139200000000001e-30,1.1508000000000001e-30,-3.2448100000000002e-30
3935.0,3.26288e-29,-7.98814e-26,-7.9898599999999997e-26,-7.9872700000000004e-26,4.4655899999999997e-30,6.2048599999999998e-30,-1.1107099999999999e-29
3936.0,3.1674500000000001e-29,-7.98814e-26,-7.9898099999999996e-26,-7.9872599999999995e-26,5.17376e-30,5.5829500000000002e-30,-1.04388e-29
3937.0,3.02772e-29,-7.9880499999999996e-26,-7.9896799999999999e-26,-7.9871500000000005e-26,5.5552900000000001e-30,4.8116600000000001e-30,-9.2916699999999998e-30
3938.0,2.8981e-29,-7.98803e-26,-7.9896700000000001e-26,-7.9871399999999996e-26,5.9452999999999998e-30,4.0378100000000001e-30,-7.9821199999999997e-30
3939.0,2.75303e-29,-7.9879000000000003e-26,-7.9895299999999995e-26,-7.9870099999999999e-26,6.1781100000000001e-30,3.06776e-30,-6.4419200000000006e-30
3940.0,2.6501300000000001e-29,-7.9879500000000004e-26,-7.9895899999999994e-26,-7.9870799999999996e-26,6.5795299999999998e-30,2.1365800000000002e-30,-4.8822500000000003e-30
3941.0,2.5252900000000001e-29,-7.9877900000000002e-26,-7.9893999999999998e-26,-7.98695e-26,6.6744199999999995e-30,1.31807e-30,-3.3028900000000001e-30
3942.0,3.4715299999999999e-29,-7.9873800000000005e-26,-7.9894699999999996e-26,-7.9863600000000004e-26,1.71095e-30,7.5345800000000006e-30,-9.5294300000000005e-30
3943.0,3.3571500000000003e-29,-7.9873300000000003e-26,-7.9893499999999997e-26,-7.9862699999999999e-26,2.29089e-30,6.7658200000000004e-30,-8.8982900000000002e-30
3944.0,3.2562800000000001e-29,-7.98729e-26,-7.9892899999999998e-26,-7.9862000000000002e-26,2.6347700000000001e-30,5.8494100000000001e-30,-8.1388599999999996e-30
3945.0,3.1330599999999998e-29,-7.9871799999999999e-26,-7.9891600000000001e-26,-7.9860499999999998e-26,2.83832e-30,4.7173400000000002e-30,-6.9937700000000007e-30
3946.0,3.0370300000000002e-29,-7.9871700000000001e-26,-7.9891600000000001e-26,-7.9860300000000002e-26,3.13328e-30,3.5684800000000002e-30,-5.8385799999999998e-30
3947.0,2.9311299999999999e-29,-7.9870400000000005e-26,-7.9890099999999997e-26,-7.9858899999999996e-26,3.2342200000000003e-30,2.3062799999999999e-30,-4.5991800000000003e-30
3948.0,2.88419e-29,-7.98712e-26,-7.9891600000000001e-26,-7.98604e-26,3.84153e-30,9.7624300000000008e-31,-3.3098199999999999e-30
3949.0,3.8276399999999998e-29,-7.9866400000000005e-26,-7.9890900000000004e-26,-7.9854199999999999e-26,-1.8028199999999999e-30,8.9150300000000003e-30,-7.4666799999999996e-30
3950.0,3.7430600000000001e-29,-7.98661e-26,-7.9889900000000001e-26,-7.9853099999999998e-26,-1.42657e-30,7.9834900000000002e-30,-7.2557800000000003e-30
3951.0,3.65114e-29,-7.9865099999999997e-26,-7.9888499999999995e-26,-7.9851399999999998e-26,-1.2734499999999999e-30,6.8494000000000003e-30,-6.5433800000000002e-30
3952.0,3.5853699999999999e-29,-7.9864599999999995e-26,-7.9887899999999995e-26,-7.9850199999999999e-26,-1.1970199999999999e-30,5.5483099999999998e-30,-5.8825699999999997e-30
3953.0,3.5103000000000002e-29,-7.9863399999999997e-26,-7.9886500000000001e-26,-7.9848400000000001e-26,-1.2012999999999999e-30,4.0081000000000001e-30,-5.0022400000000002e-30
3954.0,3.46584e-29,-7.9863399999999997e-26,-7.9886799999999995e-26,-7.9848400000000001e-26,-8.5911299999999996e-31,2.4447300000000001e-30,-4.2212399999999999e-30
3955.0,3.3536299999999998e-29,-7.9862400000000005e-26,-7.9884899999999999e-26,-7.9847100000000005e-26,-8.5988399999999993e-31,9.1822600000000002e-31,-3.4587200000000003e-30
3956.0,4.3835999999999999e-29,-7.9859700000000003e-26,-7.9887600000000001e-26,-7.9844900000000003e-26,-5.9493599999999997e-30,1.02617e-29,-5.4510800000000001e-30
3957.0,4.3219100000000001e-29,-7.9859000000000005e-26,-7.9886199999999995e-26,-7.9843100000000005e-26,-5.8553999999999997e-30,9.2670700000000003e-30,-5.16721e-30
3958.0,4.3094300000000001e-29,-7.9858399999999994e-26,-7.9885099999999994e-26,-7.9841000000000002e-26,-6.108e-30,7.9719499999999994e-30,-4.8961099999999998e-30
3959.0,4.3068800000000002e-29,-7.9857300000000005e-26,-7.9883799999999998e-26,-7.9838600000000004e-26,-6.4011500000000006e-30,6.4061299999999995e-30,-4.4188600000000001e-30
3960.0,4.3023299999999997e-29,-7.9856800000000004e-26,-7.9883299999999996e-26,-7.98371e-26,-6.5038599999999998e-30,4.5582500000000003e-30,-4.1535400000000003e-30
3961.0,4.2617199999999999e-29,-7.9855899999999999e-26,-7.9882e-26,-7.9835499999999998e-26,-6.5489100000000002e-30,2.5228999999999999e-30,-3.8299699999999999e-30
3962.0,4.2550399999999998e-29,-7.9855899999999999e-26,-7.9883299999999996e-26,-7.9836300000000005e-26,-5.8875999999999997e-30,4.5326600000000001e-31,-3.4868599999999998e-30
3963.0,5.0403299999999997e-29,-7.9854100000000001e-26,-7.9885300000000002e-26,-7.9836900000000004e-26,-1.01244e-29,1.15244e-29,-3.15301e-30
3964.0,5.13927e-29,-7.9853e-26,-7.9883899999999996e-26,-7.9833799999999998e-26,-1.10025e-29,1.04982e-29,-3.0689800000000002e-30
3965.0,5.2690900000000002e-29,-7.98519e-26,-7.9882599999999999e-26,-7.98303e-26,-1.19369e-29,9.2186299999999993e-30,-2.8382000000000001e-30
3966.0,5.3620099999999995e-29,-7.9850799999999999e-26,-7.9881200000000004e-26,-7.9827200000000005e-26,-1.2706899999999999e-29,7.3470000000000005e-30,-2.9723e-30
3967.0,5.4208200000000001e-29,-7.9850000000000004e-26,-7.9879899999999996e-26,-7.9824500000000002e-26,-1.3214599999999999e-29,5.1059000000000003e-30,-3.0762100000000001e-30
3968.0,5.4631500000000001e-29,-7.9849400000000004e-26,-7.98797e-26,-7.9823200000000006e-26,-1.3302399999999999e-29,2.6524700000000001e-30,-3.4584200000000002e-30
3969.0,5.3642099999999998e-29,-7.9849400000000004e-26,-7.9877800000000004e-26,-7.9822200000000003e-26,-1.3175500000000001e-29,4.4949799999999997e-32,-3.88531e-30
3970.0,2.8611599999999999e-29,-7.9897599999999994e-26,-7.9907500000000001e-26,-7.9891500000000003e-26,6.2433500000000003e-30,3.6074200000000001e-30,-1.24747e-29
3971.0,2.7170800000000001e-29,-7.9897100000000005e-26,-7.9905899999999999e-26,-7.9889599999999995e-26,6.7960299999999996e-30,3.5245100000000002e-30,-1.1018499999999999e-29
3972.0,2.5611499999999998e-29,-7.9897399999999999e-26,-7.9906599999999996e-26,-7.9891000000000002e-26,7.0021400000000001e-30,2.9285999999999999e-30,-9.9951000000000003e-30
3973.0,2.3823099999999999e-29,-7.98962e-26,-7.9904600000000002e-26,-7.9888999999999996e-26,7.4083899999999999e-30,2.58805e-30,-8.1254100000000004e-30
3974.0,2.2043800000000001e-29,-7.9896700000000001e-26,-7.9905700000000003e-26,-7.9890599999999998e-26,7.4734100000000003e-30,1.99005e-30,-6.6994499999999994e-30
3975.0,2.04799e-29,-7.9895299999999995e-26,-7.9903799999999995e-26,-7.9888999999999996e-26,7.7766799999999999e-30,1.6031699999999999e-30,-4.6533900000000002e-30
3976.0,1.9320200000000001e-29,-7.9896000000000004e-26,-7.9905399999999998e-26,-7.9891000000000002e-26,7.7865500000000001e-30,8.2776699999999997e-31,-3.0570499999999999e-30
3977.0,2.90961e-29,-7.9889700000000005e-26,-7.9903199999999996e-26,-7.9882e-26,4.7599300000000003e-30,4.7098499999999999e-30,-1.10679e-29
3978.0,2.7786499999999998e-29,-7.9889800000000003e-26,-7.9903099999999998e-26,-7.9882400000000003e-26,5.0725700000000001e-30,4.1949199999999998e-30,-1.01844e-29
3979.0,2.6459899999999997e-29,-7.98888e-26,-7.9901700000000003e-26,-7.9880899999999999e-26,5.32275e-30,3.6867500000000003e-30,-8.9961900000000005e-30
3980.0,2.4953499999999999e-29,-7.9888999999999996e-26,-7.9901999999999997e-26,-7.98814e-26,5.5644700000000003e-30,3.0738500000000002e-30,-7.6720300000000004e-30
3981.0,2.3495399999999999e-29,-7.9887500000000003e-26,-7.9900299999999997e-26,-7.9879799999999998e-26,5.7655999999999998e-30,2.4034700000000001e-30,-6.1507700000000001e-30
3982.0,2.23126e-29,-7.9887899999999995e-26,-7.9901200000000002e-26,-7.9880899999999999e-26,5.9508e-30,1.6542800000000001e-30,-4.6428100000000003e-30
3983.0,2.0983e-29,-7.9886400000000003e-26,-7.9898900000000003e-26,-7.9879299999999997e-26,6.2026100000000001e-30,1.1076299999999999e-30,-3.02993e-30
3984.0,3.0615800000000001e-29,-7.9882099999999998e-26,-7.9899900000000005e-26,-7.9873699999999995e-26,2.5931500000000001e-30,5.6623000000000003e-30,-9.6984400000000003e-30
3985.0,2.9568899999999999e-29,-7.9881599999999996e-26,-7.9899000000000001e-26,-7.9872800000000002e-26,2.7891100000000002e-30,5.0595599999999997e-30,-8.9644199999999994e-30
3986.0,2.84961e-29,-7.9881499999999998e-26,-7.9898699999999995e-26,-7.9872499999999997e-26,3.0260099999999999e-30,4.4326000000000002e-30,-8.0338399999999995e-30
3987.0,2.73251e-29,-7.9880200000000002e-26,-7.9897300000000001e-26,-7.9870899999999994e-26,3.1442099999999999e-30,3.5919299999999997e-30,-6.89191e-30
3988.0,2.6343099999999997e-29,-7.9880200000000002e-26,-7.9897499999999996e-26,-7.9871100000000002e-26,3.3484699999999997e-30,2.77044e-30,-5.7009799999999999e-30
3989.0,2.5195699999999999e-29,-7.98786e-26,-7.9895699999999998e-26,-7.98695e-26,3.4719700000000003e-30,1.8516599999999999e-30,-4.4027300000000002e-30
3990.0,2.4863700000000001e-29,-7.9879299999999997e-26,-7.9897300000000001e-26,-7.9871000000000004e-26,3.9016900000000003e-30,8.3067399999999999e-31,-3.1208199999999998e-30
3991.0,3.3674600000000002e-29,-7.9874299999999995e-26,-7.9896299999999998e-26,-7.98644e-26,-2.1257299999999999e-31,6.7108999999999999e-30,-8.0929300000000001e-30
3992.0,3.2902099999999998e-29,-7.9874299999999995e-26,-7.9895899999999994e-26,-7.9863899999999998e-26,-7.9377400000000002e-32,6.0373400000000001e-30,-7.6247100000000004e-30
3993.0,3.2084999999999998e-29,-7.9873200000000005e-26,-7.98945e-26,-7.9862299999999996e-26,-4.2307500000000001e-32,5.1791999999999997e-30,-6.8300100000000007e-30
3994.0,3.1398700000000001e-29,-7.98729e-26,-7.9894199999999994e-26,-7.9861500000000001e-26,3.4847699999999999e-32,4.2429099999999998e-30,-6.0310499999999998e-30
3995.0,3.0663100000000001e-29,-7.9871299999999998e-26,-7.9892500000000006e-26,-7.9859600000000005e-26,5.6190799999999997e-32,3.1212299999999999e-30,-5.0926700000000002e-30
3996.0,3.01433e-29,-7.9871399999999996e-26,-7.9892999999999996e-26,-7.9859899999999999e-26,2.6282200000000002e-31,1.9730100000000001e-30,-4.1789300000000001e-30
3997.0,2.8898699999999998e-29,-7.9870000000000001e-26,-7.98905e-26,-7.9858199999999999e-26,6.2213399999999999e-31,8.4570800000000006e-31,-3.2143499999999999e-30
3998.0,3.8422299999999998e-29,-7.98672e-26,-7.9893200000000003e-26,-7.98553e-26,-3.6338399999999998e-30,7.8892399999999993e-30,-6.3703100000000005e-30
3999.0,3.7872300000000003e-29,-7.9866600000000001e-26,-7.98922e-26,-7.9854000000000003e-26,-3.7041399999999998e-30,7.0611699999999995e-30,-5.9358300000000001e-30
4000.0,3.7666199999999999e-29,-7.98661e-26,-7.9891500000000003e-26,-7.9852599999999997e-26,-3.8509699999999998e-30,6.0842800000000003e-30,-5.5349600000000002e-30
4001.0,3.7427e-29,-7.9864800000000003e-26,-7.9890099999999997e-26,-7.9850500000000005e-26,-4.0442599999999998e-30,4.8703400000000002e-30,-4.9421199999999997e-30
4002.0,3.7260599999999999e-29,-7.98644e-26,-7.9889800000000003e-26,-7.9849500000000002e-26,-4.0998500000000003e-30,3.5454499999999997e-30,-4.4350199999999999e-30
4003.0,3.6786499999999999e-29,-7.9862899999999995e-26,-7.9888000000000005e-26,-7.9847599999999995e-26,-4.0634900000000001e-30,2.0274899999999999e-30,-3.8833799999999997e-30
4004.0,3.6577100000000002e-29,-7.9863299999999999e-26,-7.9889100000000006e-26,-7.9848599999999997e-26,-3.55661e-30,4.9731299999999998e-31,-3.36785e-30
4005.0,4.4573699999999997e-29,-7.9860499999999998e-26,-7.98905e-26,-7.9846500000000005e-26,-7.5099900000000002e-30,9.0042599999999998e-30,-4.3942699999999998e-30
4006.0,4.4719400000000001e-29,-7.9860099999999995e-26,-7.9889700000000005e-26,-7.9844900000000003e-26,-7.8695699999999995e-30,8.1293900000000006e-30,-4.3151500000000002e-30
4007.0,4.5089700000000001e-29,-7.9858899999999996e-26,-7.9888299999999999e-26,-7.9842299999999998e-26,-8.3763700000000006e-30,7.0082199999999999e-30,-3.97642e-30
4008.0,4.5509399999999998e-29,-7.9858199999999999e-26,-7.9887299999999996e-26,-7.9840199999999995e-26,-8.8272200000000006e-30,5.6323000000000001e-30,-3.8306399999999999e-30
4009.0,4.5762100000000001e-29,-7.9856800000000004e-26,-7.9885700000000005e-26,-7.9837699999999999e-26,-9.1800700000000006e-30,3.9420899999999997e-30,-3.6389400000000002e-30
4010.0,4.5900899999999999e-29,-7.9856599999999996e-26,-7.9885599999999996e-26,-7.9836799999999995e-26,-9.1821199999999998e-30,2.1155300000000001e-30,-3.6019299999999999e-30
4011.0,4.4731699999999999e-29,-7.9855499999999996e-26,-7.98831e-26,-7.9835200000000004e-26,-8.7044299999999997e-30,2.7123499999999998e-31,-3.5807000000000003e-30
4012.0,5.1027899999999998e-29,-7.98553e-26,-7.9888499999999995e-26,-7.9838999999999996e-26,-1.10909e-29,9.9397299999999996e-30,-2.92589e-30
4013.0,5.19899e-29,-7.9854299999999997e-26,-7.9887500000000003e-26,-7.9836500000000001e-26,-1.18574e-29,9.2078800000000001e-30,-2.6037900000000002e-30
4014.0,5.3426999999999995e-29,-7.9853099999999998e-26,-7.9886199999999995e-26,-7.9833299999999997e-26,-1.2871599999999999e-29,7.9829499999999997e-30,-2.6436e-30
4015.0,5.4691600000000003e-29,-7.9851999999999998e-26,-7.9884800000000001e-26,-7.9830100000000004e-26,-1.3844100000000001e-29,6.3711600000000005e-30,-2.6584300000000001e-30
4016.0,5.5651700000000003e-29,-7.9851200000000002e-26,-7.9883899999999996e-26,-7.9827699999999995e-26,-1.44597e-29,4.3632600000000003e-30,-2.9356800000000001e-30
4017.0,5.5942600000000001e-29,-7.9850199999999999e-26,-7.9882199999999996e-26,-7.9825399999999995e-26,-1.4692099999999999e-29,2.0957999999999998e-30,-3.4105900000000002e-30
4018.0,5.6056800000000003e-29,-7.9849699999999998e-26,-7.9882400000000003e-26,-7.98252e-26,-1.4500899999999999e-29,-2.0269200000000001e-31,-3.8863799999999997e-30
4019.0,7.1091499999999998e-29,-7.9841600000000001e-26,-7.9876800000000001e-26,-7.9808100000000001e-26,-2.2071199999999999e-29,-6.1299300000000002e-31,-4.2814200000000002e-30
4020.0,9.1705100000000005e-29,-7.9838000000000005e-26,-7.9875399999999995e-26,-7.9793599999999995e-26,-3.31188e-29,-1.62788e-30,-4.91452e-30
4021.0,1.2190599999999999e-28,-7.9829799999999998e-26,-7.9876600000000006e-26,-7.9774799999999996e-26,-4.8076000000000001e-29,-2.6224200000000001e-30,-6.2463399999999997e-30
4022.0,1.6008500000000001e-28,-7.9824299999999995e-26,-7.98831e-26,-7.9755999999999997e-26,-6.6489100000000002e-29,-4.11451e-30,-7.7957000000000004e-30
4023.0,2.1185699999999999e-28,-7.9811400000000003e-26,-7.9894800000000005e-26,-7.9731200000000005e-26,-9.0150899999999995e-29,-5.8574800000000001e-30,-1.05778e-29
4024.0,2.7585400000000002e-28,-7.9793499999999997e-26,-7.9920400000000004e-26,-7.9705800000000002e-26,-1.1605999999999999e-28,-7.6623500000000002e-30,-1.41307e-29
4025.0,3.5112199999999998e-28,-7.9760700000000006e-26,-7.9958600000000002e-26,-7.96752e-26,-1.3960699999999999e-28,-9.2387999999999999e-30,-1.95642e-29
4026.0,7.0503200000000001e-29,-7.9843599999999995e-26,-7.9877099999999995e-26,-7.9809299999999999e-26,-2.21779e-29,2.6875400000000001e-30,-3.03957e-30
4027.0,9.2016100000000003e-29,-7.9836799999999995e-26,-7.9876100000000004e-26,-7.9793700000000005e-26,-3.3303000000000001e-29,3.0004e-30,-2.3823900000000002e-30
4028.0,1.20252e-28,-7.9831599999999996e-26,-7.9878699999999998e-26,-7.9777499999999999e-26,-4.7386399999999999e-29,3.5506299999999998e-30,-1.56589e-30
4029.0,1.5817600000000001e-28,-7.98229e-26,-7.9883899999999996e-26,-7.9757099999999998e-26,-6.5533600000000002e-29,4.5954499999999998e-30,-1.8841e-31
4030.0,2.0736599999999999e-28,-7.9812500000000004e-26,-7.9897599999999994e-26,-7.97354e-26,-8.7838699999999996e-29,6.0313699999999998e-30,2.0242600000000001e-30
4031.0,2.6897200000000001e-28,-7.9791799999999997e-26,-7.9920699999999998e-26,-7.9708600000000002e-26,-1.12283e-28,7.7512500000000003e-30,5.22025e-30
4032.0,3.4090699999999999e-28,-7.9763000000000005e-26,-7.9959399999999997e-26,-7.9681800000000004e-26,-1.3482299999999999e-28,9.7370400000000003e-30,1.0101699999999999e-29
4033.0,6.9735299999999997e-29,-7.9843599999999995e-26,-7.9878099999999998e-26,-7.9811300000000005e-26,-2.1621699999999999e-29,5.8562800000000002e-30,-1.84533e-30
4034.0,8.9684500000000004e-29,-7.9838100000000003e-26,-7.9877800000000004e-26,-7.9797599999999995e-26,-3.1951099999999998e-29,7.2773599999999999e-30,-9.5305299999999996e-32
4035.0,1.1634300000000001e-28,-7.9830800000000001e-26,-7.9879500000000004e-26,-7.9781699999999995e-26,-4.5032800000000001e-29,9.2701600000000007e-30,2.59352e-30
4036.0,1.50556e-28,-7.9823200000000006e-26,-7.9885700000000005e-26,-7.9764999999999999e-26,-6.0984499999999998e-29,1.21631e-29,6.5325899999999997e-30
4037.0,1.94722e-28,-7.9810599999999996e-26,-7.9896799999999999e-26,-7.9744900000000004e-26,-8.0139600000000001e-29,1.5946700000000001e-29,1.26526e-29
4038.0,2.4820899999999998e-28,-7.9792000000000005e-26,-7.9917999999999996e-26,-7.9724299999999995e-26,-1.00096e-28,1.99773e-29,2.1389e-29
4039.0,3.0887000000000002e-28,-7.9763100000000003e-26,-7.9947599999999994e-26,-7.9701100000000005e-26,-1.1710799999999999e-28,2.38297e-29,3.2825500000000001e-29
4040.0,6.7790200000000005e-29,-7.98445e-26,-7.9879500000000004e-26,-7.9815099999999997e-26,-2.0432700000000001e-29,8.7175600000000003e-30,-9.32695e-31
4041.0,8.5917600000000004e-29,-7.9838100000000003e-26,-7.9878900000000005e-26,-7.9802499999999999e-26,-2.9643800000000002e-29,1.06895e-29,1.7629400000000001e-30
4042.0,1.09279e-28,-7.9831499999999999e-26,-7.9881200000000004e-26,-7.9789700000000005e-26,-4.0808099999999999e-29,1.3643600000000001e-29,5.6082500000000003e-30
4043.0,1.38899e-28,-7.9822100000000005e-26,-7.9885700000000005e-26,-7.9775100000000002e-26,-5.4022199999999999e-29,1.7339000000000001e-29,1.1315500000000001e-29
4044.0,1.75062e-28,-7.9810700000000006e-26,-7.9895899999999994e-26,-7.9761099999999998e-26,-6.8604699999999996e-29,2.1970099999999999e-29,1.94286e-29
4045.0,2.17678e-28,-7.9792000000000005e-26,-7.9910900000000001e-26,-7.9745000000000002e-26,-8.28135e-29,2.6336299999999998e-29,3.0500899999999997e-29
4046.0,2.6399599999999998e-28,-7.97695e-26,-7.9934000000000005e-26,-7.9731900000000002e-26,-9.3884600000000005e-29,3.03086e-29,4.4051000000000001e-29
4047.0,6.5054199999999995e-29,-7.9845500000000003e-26,-7.9880999999999997e-26,-7.9819699999999996e-26,-1.8654100000000001e-29,1.07642e-29,-5.1580199999999999e-31
4048.0,8.0571100000000003e-29,-7.9839300000000002e-26,-7.9880700000000003e-26,-7.9809299999999999e-26,-2.6416500000000002e-29,1.3191799999999999e-29,2.68226e-30
4049.0,1.00032e-28,-7.9831900000000002e-26,-7.9882199999999996e-26,-7.9798699999999995e-26,-3.54555e-29,1.6136499999999999e-29,7.1296900000000006e-30
4050.0,1.2378599999999999e-28,-7.9823300000000003e-26,-7.9886500000000001e-26,-7.9788499999999995e-26,-4.5464899999999998e-29,1.99209e-29,1.3297199999999999e-29
4051.0,1.51929e-28,-7.9811400000000003e-26,-7.9893399999999999e-26,-7.9777900000000003e-26,-5.5828800000000002e-29,2.3995099999999999e-29,2.1699e-29
4052.0,1.83275e-28,-7.9796799999999999e-26,-7.9905200000000002e-26,-7.9768900000000001e-26,-6.4926000000000001e-29,2.7572199999999998e-29,3.2235800000000002e-29
4053.0,2.1628399999999999e-28,-7.9777300000000003e-26,-7.9919599999999998e-26,-7.9759999999999997e-26,-7.0803299999999999e-29,3.0163099999999998e-29,4.47609e-29
4054.0,6.1696600000000003e-29,-7.9847100000000005e-26,-7.9882599999999999e-26,-7.9825000000000004e-26,-1.65591e-29,1.22374e-29,-4.3531100000000002e-31
4055.0,7.3862199999999996e-29,-7.9841000000000002e-26,-7.9882199999999996e-26,-7.9816799999999997e-26,-2.2653299999999999e-29,1.4313100000000001e-29,2.64317e-30
4056.0,8.9069999999999995e-29,-7.9834399999999997e-26,-7.9883600000000002e-26,-7.9809299999999999e-26,-2.95069e-29,1.71295e-29,6.9470200000000004e-30
4057.0,1.0724e-28,-7.9825700000000001e-26,-7.9886500000000001e-26,-7.9801499999999996e-26,-3.6782999999999998e-29,2.0069700000000001e-29,1.2724800000000001e-29
4058.0,1.27923e-28,-7.9816000000000002e-26,-7.98922e-26,-7.9795299999999995e-26,-4.3676999999999999e-29,2.32645e-29,2.0085700000000001e-29
4059.0,1.5055999999999999e-28,-7.9802800000000004e-26,-7.9899400000000004e-26,-7.9788700000000002e-26,-4.9298800000000001e-29,2.55023e-29,2.9040599999999998e-29
4060.0,1.7203399999999999e-28,-7.9789900000000001e-26,-7.9909999999999996e-26,-7.9786599999999999e-26,-5.2100599999999996e-29,2.6811900000000002e-29,3.8627100000000001e-29
4061.0,5.76018e-29,-7.9849500000000002e-26,-7.9884100000000003e-26,-7.9830399999999998e-26,-1.4246100000000001e-29,1.2742700000000001e-29,-9.9563699999999998e-31
4062.0,6.6211100000000003e-29,-7.98445e-26,-7.9884299999999999e-26,-7.9825100000000002e-26,-1.84813e-29,1.4444499999999999e-29,1.4851e-30
4063.0,7.7197799999999996e-29,-7.9838399999999997e-26,-7.98854e-26,-7.9819800000000005e-26,-2.3361400000000001e-29,1.6478000000000001e-29,5.2211900000000002e-30
4064.0,9.0775800000000005e-29,-7.9831200000000005e-26,-7.9887899999999995e-26,-7.9814700000000005e-26,-2.8571400000000001e-29,1.87756e-29,1.01545e-29
4065.0,1.05788e-28,-7.9822300000000001e-26,-7.9891799999999997e-26,-7.9810200000000004e-26,-3.31974e-29,2.0717099999999999e-29,1.6174999999999999e-29
4066.0,1.21217e-28,-7.98127e-26,-7.9897200000000003e-26,-7.9807099999999998e-26,-3.6548100000000003e-29,2.19713e-29,2.3028100000000001e-29
4067.0,1.3653599999999999e-28,-7.9802099999999996e-26,-7.9904399999999995e-26,-7.9804700000000001e-26,-3.7675700000000002e-29,2.20656e-29,3.0114500000000002e-29
4068.0,6.7736499999999998e-29,-7.9845299999999995e-26,-7.9880200000000002e-26,-7.9814800000000003e-26,-2.1013300000000001e-29,-5.7038400000000002e-31,-4.2959599999999997e-30
4069.0,8.3918100000000003e-29,-7.9838299999999999e-26,-7.9880399999999998e-26,-7.9803299999999994e-26,-2.8797600000000001e-29,-1.30519e-30,-4.8433400000000002e-30
4070.0,1.0564399999999999e-28,-7.9833899999999996e-26,-7.98837e-26,-7.9792000000000005e-26,-3.9670000000000002e-29,-2.0526200000000001e-30,-5.7158200000000003e-30
4071.0,1.3508399999999999e-28,-7.9822999999999998e-26,-7.9889300000000001e-26,-7.9775899999999997e-26,-5.2716800000000004e-29,-2.9102700000000001e-30,-7.0646900000000002e-30
4072.0,1.6975300000000001e-28,-7.9813200000000001e-26,-7.9901899999999999e-26,-7.9761500000000001e-26,-6.68957e-29,-3.8133599999999999e-30,-8.6394799999999998e-30
4073.0,2.1034800000000002e-28,-7.9794800000000005e-26,-7.9918599999999995e-26,-7.97428e-26,-8.0282400000000005e-29,-4.4776599999999998e-30,-1.10113e-29
4074.0,2.5518600000000002e-28,-7.97752e-26,-7.9946299999999998e-26,-7.9727800000000005e-26,-9.1018700000000001e-29,-4.9175699999999999e-30,-1.3645600000000001e-29
4075.0,6.8171699999999996e-29,-7.9844900000000003e-26,-7.98814e-26,-7.9815300000000004e-26,-2.0943200000000001e-29,2.17237e-30,-3.1559799999999998e-30
4076.0,8.3255799999999995e-29,-7.9840800000000006e-26,-7.9882599999999999e-26,-7.9806099999999995e-26,-2.8789799999999997e-29,2.23242e-30,-2.84905e-30
4077.0,1.0474499999999999e-28,-7.9832900000000005e-26,-7.9884999999999997e-26,-7.9792999999999996e-26,-3.8924700000000002e-29,2.47313e-30,-2.3064399999999999e-30
4078.0,1.3205000000000001e-28,-7.9825500000000005e-26,-7.9892100000000002e-26,-7.9779999999999995e-26,-5.1195400000000004e-29,2.93394e-30,-1.5217400000000001e-30
4079.0,1.65888e-28,-7.9812299999999996e-26,-7.9902800000000004e-26,-7.9763499999999995e-26,-6.4492200000000004e-29,3.5749900000000003e-30,-2.5182500000000002e-31
4080.0,2.0385200000000002e-28,-7.9797700000000004e-26,-7.99206e-26,-7.9747999999999998e-26,-7.7075799999999995e-29,4.4889500000000003e-30,1.6409199999999999e-30
4081.0,2.4944800000000001e-28,-7.9774900000000006e-26,-7.9945299999999995e-26,-7.9729299999999997e-26,-8.7968300000000004e-29,4.91939e-30,3.7525500000000002e-30
4082.0,6.7012399999999999e-29,-7.9846299999999998e-26,-7.9882900000000005e-26,-7.9818200000000003e-26,-2.0451500000000001e-29,4.8247300000000001e-30,-2.16732e-30
4083.0,8.1576199999999997e-29,-7.98405e-26,-7.9883500000000004e-26,-7.9808399999999995e-26,-2.7722199999999999e-29,5.5223900000000001e-30,-1.0008400000000001e-30
4084.0,1.0141799999999999e-28,-7.9834399999999997e-26,-7.98871e-26,-7.9797700000000004e-26,-3.6995900000000002e-29,6.5980400000000003e-30,6.9333299999999998e-31
4085.0,1.2691899999999999e-28,-7.9824900000000006e-26,-7.9892399999999996e-26,-7.9784299999999999e-26,-4.8052200000000002e-29,8.0423200000000005e-30,3.3487799999999998e-30
4086.0,1.57152e-28,-7.9813999999999996e-26,-7.9903400000000004e-26,-7.9771399999999996e-26,-5.9550300000000004e-29,9.8598200000000005e-30,6.9922399999999994e-30
4087.0,1.9154199999999999e-28,-7.97979e-26,-7.9917299999999998e-26,-7.9755999999999997e-26,-7.0310800000000003e-29,1.1733599999999999e-29,1.1956399999999999e-29
4088.0,2.32506e-28,-7.9779600000000003e-26,-7.9940300000000004e-26,-7.9742299999999999e-26,-8.0135799999999997e-29,1.3363500000000001e-29,1.87186e-29
4089.0,6.5294e-29,-7.9846899999999997e-26,-7.9884100000000003e-26,-7.9821399999999996e-26,-1.9306200000000001e-29,7.1455900000000001e-30,-1.40821e-30
4090.0,7.8448600000000003e-29,-7.9842000000000004e-26,-7.98854e-26,-7.9813299999999999e-26,-2.5781e-29,8.3037499999999997e-30,3.8975199999999998e-31
4091.0,9.6259400000000004e-29,-7.9834700000000003e-26,-7.9887699999999999e-26,-7.9802900000000002e-26,-3.3899299999999999e-29,9.8028299999999995e-30,3.0793100000000001e-30
4092.0,1.1837999999999999e-28,-7.9826700000000004e-26,-7.9893499999999997e-26,-7.97928e-26,-4.30578e-29,1.1956e-29,6.8581299999999996e-30
4093.0,1.4443699999999999e-28,-7.9814800000000003e-26,-7.9901399999999998e-26,-7.9780800000000001e-26,-5.23921e-29,1.4164e-29,1.20958e-29
4094.0,1.7287200000000001e-28,-7.9802099999999996e-26,-7.9913899999999998e-26,-7.9770699999999999e-26,-6.0611399999999999e-29,1.6580600000000001e-29,1.87568e-29
4095.0,2.0741899999999999e-28,-7.9783500000000004e-26,-7.9930000000000006e-26,-7.9757599999999999e-26,-6.7809900000000002e-29,1.8509600000000001e-29,2.7531000000000002e-29
4096.0,6.2765299999999995e-29,-7.9848300000000003e-26,-7.9885599999999996e-26,-7.9825700000000001e-26,-1.77209e-29,9.0518700000000007e-30,-9.3433600000000001e-31
4097.0,7.41384e-29,-7.9843100000000005e-26,-7.9886400000000003e-26,-7.9818399999999999e-26,-2.3285e-29,1.02439e-29,1.27193e-30
4098.0,8.9228700000000004e-29,-7.9836699999999997e-26,-7.9888999999999996e-26,-7.9810599999999996e-26,-2.9879700000000002e-29,1.20778e-29,4.3676400000000003e-30
4099.0,1.07615e-28,-7.9828099999999998e-26,-7.9892899999999998e-26,-7.9801700000000004e-26,-3.7160600000000002e-29,1.4189799999999999e-29,8.75337e-30
4100.0,1.28614e-28,-7.9818499999999997e-26,-7.9899900000000005e-26,-7.9793700000000005e-26,-4.4110300000000001e-29,1.6512800000000001e-29,1.4435900000000001e-29
4101.0,1.51467e-28,-7.9805899999999999e-26,-7.9908199999999998e-26,-7.9785099999999995e-26,-4.9999299999999997e-29,1.8612599999999999e-29,2.1452099999999999e-29
4102.0,1.7743899999999999e-28,-7.9792200000000001e-26,-7.9920699999999998e-26,-7.97786e-26,-5.4766800000000003e-29,2.0487400000000001e-29,3.0436599999999998e-29
4103.0,5.9707899999999996e-29,-7.9849799999999996e-26,-7.9886799999999995e-26,-7.9829999999999994e-26,-1.5868600000000001e-29,1.01871e-29,-9.3819100000000003e-31
4104.0,6.9072200000000004e-29,-7.9845199999999997e-26,-7.9887699999999999e-26,-7.9824400000000004e-26,-2.0335299999999999e-29,1.1594400000000001e-29,1.27209e-30
4105.0,8.1162000000000003e-29,-7.98388e-26,-7.9889399999999999e-26,-7.9817999999999996e-26,-2.5575500000000002e-29,1.31799e-29,4.47273e-30
4106.0,9.5843200000000001e-29,-7.9831800000000004e-26,-7.9893100000000005e-26,-7.9812000000000002e-26,-3.1051800000000002e-29,1.5247899999999999e-29,8.7501200000000002e-30
4107.0,1.12397e-28,-7.9822399999999999e-26,-7.9897499999999996e-26,-7.98053e-26,-3.6193600000000002e-29,1.7111600000000001e-29,1.42614e-29
4108.0,1.29642e-28,-7.9813000000000005e-26,-7.9904600000000002e-26,-7.9800999999999995e-26,-4.0163699999999999e-29,1.8719900000000001e-29,2.0709699999999999e-29
4109.0,1.49431e-28,-7.9800000000000004e-26,-7.9912299999999996e-26,-7.9794599999999998e-26,-4.2909999999999998e-29,1.9751899999999999e-29,2.8254600000000001e-29
4110.0,5.6938899999999998e-29,-7.9851200000000002e-26,-7.9887899999999995e-26,-7.9833899999999996e-26,-1.4125300000000001e-29,1.0929199999999999e-29,-1.28401e-30
4111.0,6.3790700000000004e-29,-7.9847399999999999e-26,-7.9888600000000004e-26,-7.9829999999999994e-26,-1.7482399999999999e-29,1.19757e-29,7.3905400000000002e-31
4112.0,7.3539e-29,-7.9842000000000004e-26,-7.9890300000000004e-26,-7.98252e-26,-2.1576300000000001e-29,1.3504500000000001e-29,3.6624700000000001e-30
4113.0,8.5186099999999999e-29,-7.9835200000000004e-26,-7.98928e-26,-7.9820299999999995e-26,-2.5816099999999998e-29,1.50811e-29,7.6204199999999994e-30
4114.0,9.8138400000000002e-29,-7.9827599999999997e-26,-7.9896700000000001e-26,-7.9816000000000002e-26,-2.9600400000000001e-29,1.65873e-29,1.25103e-29
4115.0,1.1181e-28,-7.9818800000000003e-26,-7.9901499999999996e-26,-7.9812199999999998e-26,-3.24898e-29,1.7537000000000001e-29,1.8011900000000001e-29
4116.0,1.2586300000000001e-28,-7.9809399999999997e-26,-7.9907300000000005e-26,-7.9810099999999995e-26,-3.4251299999999997e-29,1.8311399999999999e-29,2.4566000000000001e-29
4117.0,2.89906e-29,-7.98905e-26,-7.9912799999999997e-26,-7.9890199999999995e-26,-5.0155100000000001e-30,3.9519699999999998e-30,-8.4037699999999997e-30
4118.0,2.98527e-29,-7.98922e-26,-7.9916299999999995e-26,-7.9889499999999997e-26,-4.9138799999999999e-30,3.2948500000000001e-30,-6.6978599999999997e-30
4119.0,3.0100899999999997e-29,-7.9887299999999996e-26,-7.9912600000000001e-26,-7.9886300000000005e-26,-6.4174800000000004e-30,2.97111e-30,-5.4531899999999997e-30
4120.0,3.18818e-29,-7.9890300000000004e-26,-7.9917000000000004e-26,-7.9885900000000001e-26,-5.4635499999999999e-30,2.2393700000000001e-30,-4.5248199999999997e-30
4121.0,3.1592699999999998e-29,-7.9884299999999999e-26,-7.9911500000000001e-26,-7.9883299999999996e-26,-7.95771e-30,1.3953899999999999e-30,-3.36667e-30
4122.0,3.3411900000000002e-29,-7.9890599999999998e-26,-7.9918700000000004e-26,-7.9884399999999997e-26,-4.6577600000000002e-30,1.2805399999999999e-30,-3.7442599999999998e-30
4123.0,3.4095000000000001e-29,-7.9879500000000004e-26,-7.9906200000000004e-26,-7.9878400000000004e-26,-1.13589e-29,-3.0176099999999999e-30,9.4994200000000004e-31
4124.0,2.7838799999999997e-29,-7.9894300000000004e-26,-7.9913999999999996e-26,-7.9891299999999995e-26,-3.1089099999999998e-30,3.9726800000000002e-30,-9.0362100000000002e-30
4125.0,2.7366800000000001e-29,-7.9890300000000004e-26,-7.9911400000000003e-26,-7.9888200000000001e-26,-4.2131999999999999e-30,3.5272100000000002e-30,-7.4686199999999999e-30
4126.0,2.80385e-29,-7.9892299999999998e-26,-7.9914200000000003e-26,-7.9888100000000003e-26,-4.1142499999999997e-30,3.0841599999999998e-30,-6.1965600000000002e-30
4127.0,2.7773800000000002e-29,-7.9887699999999999e-26,-7.9910599999999996e-26,-7.9884800000000001e-26,-5.49223e-30,2.11488e-30,-4.8118699999999999e-30
4128.0,2.8966999999999997e-29,-7.98911e-26,-7.9914700000000005e-26,-7.9885999999999999e-26,-4.5144400000000003e-30,2.0154899999999999e-30,-4.4607900000000002e-30
4129.0,2.80163e-29,-7.9885900000000001e-26,-7.9908899999999996e-26,-7.9882e-26,-6.6932899999999999e-30,-4.2257300000000003e-31,-2.2499999999999998e-30
4130.0,3.0016199999999999e-29,-7.9888000000000005e-26,-7.9915599999999998e-26,-7.98871e-26,-4.8391600000000001e-30,4.3554499999999998e-32,-3.8868399999999999e-30
4131.0,2.65627e-29,-7.9892999999999996e-26,-7.9910300000000002e-26,-7.9889999999999999e-26,-1.9099699999999999e-30,3.9934099999999998e-30,-9.7691800000000006e-30
4132.0,2.60305e-29,-7.98945e-26,-7.9912299999999996e-26,-7.9889900000000001e-26,-2.1238999999999999e-30,3.6534899999999997e-30,-8.2312800000000004e-30
4133.0,2.5126999999999999e-29,-7.9890699999999996e-26,-7.9909499999999995e-26,-7.9886799999999995e-26,-3.1327600000000001e-30,2.9031099999999999e-30,-6.6748699999999997e-30
4134.0,2.5538500000000003e-29,-7.9892700000000002e-26,-7.9912199999999998e-26,-7.9887600000000001e-26,-2.93059e-30,2.6284e-30,-5.8110399999999999e-30
4135.0,2.4479999999999999e-29,-7.9888999999999996e-26,-7.9908399999999994e-26,-7.9884000000000005e-26,-4.0208200000000003e-30,1.10782e-30,-4.0643699999999999e-30
4136.0,2.5326199999999999e-29,-7.9890599999999998e-26,-7.99121e-26,-7.9887000000000002e-26,-3.4364200000000002e-30,9.8165999999999995e-31,-4.08934e-30
4137.0,2.2840600000000001e-29,-7.9888499999999995e-26,-7.9906900000000002e-26,-7.9883399999999994e-26,-4.2337600000000002e-30,6.4868099999999995e-32,-1.8041699999999999e-30
4138.0,2.6172199999999998e-29,-7.9896299999999998e-26,-7.9910900000000001e-26,-7.9891199999999998e-26,1.7105399999999999e-31,4.0346699999999999e-30,-1.0360399999999999e-29
4139.0,2.45009e-29,-7.9893300000000001e-26,-7.99087e-26,-7.9888600000000004e-26,-7.6356000000000002e-31,3.5482000000000001e-30,-8.7658600000000004e-30
4140.0,2.3902700000000001e-29,-7.9894699999999996e-26,-7.9910499999999998e-26,-7.9889200000000003e-26,-8.3560800000000002e-31,3.1254500000000001e-30,-7.5614800000000003e-30
4141.0,2.2385100000000001e-29,-7.9891600000000001e-26,-7.9907599999999999e-26,-7.9885999999999999e-26,-1.5904500000000001e-30,2.1787000000000001e-30,-5.88501e-30
4142.0,2.2336e-29,-7.9892999999999996e-26,-7.9910099999999994e-26,-7.9888100000000003e-26,-1.4715700000000001e-30,1.7923399999999999e-30,-5.2120699999999998e-30
4143.0,2.06514e-29,-7.9890699999999996e-26,-7.9906499999999998e-26,-7.9884800000000001e-26,-1.9539399999999998e-30,8.1158199999999994e-31,-3.3291499999999998e-30
4144.0,2.1330100000000001e-29,-7.9891500000000003e-26,-7.9909899999999998e-26,-7.9887799999999997e-26,-1.7733899999999999e-30,-1.1512400000000001e-31,-3.0011799999999999e-30
4145.0,2.5831499999999998e-29,-7.9895299999999995e-26,-7.99081e-26,-7.9890099999999997e-26,1.6402299999999999e-30,3.9918899999999999e-30,-1.08254e-29
4146.0,2.4401300000000001e-29,-7.9896399999999996e-26,-7.9909499999999995e-26,-7.98905e-26,1.4066800000000001e-30,3.4863399999999999e-30,-9.47872e-30
4147.0,2.2380899999999999e-29,-7.98939e-26,-7.9907e-26,-7.9887799999999997e-26,8.2116499999999997e-31,2.9495699999999999e-30,-7.8292699999999996e-30
4148.0,2.1471199999999999e-29,-7.9894800000000005e-26,-7.99087e-26,-7.9889200000000003e-26,8.0843000000000007e-31,2.41465e-30,-6.8188200000000005e-30
4149.0,1.9625099999999999e-29,-7.98928e-26,-7.9905899999999999e-26,-7.9886199999999995e-26,4.8604499999999999e-31,1.65598e-30,-5.02041e-30
4150.0,1.9090899999999999e-29,-7.9893499999999997e-26,-7.9908000000000002e-26,-7.9888600000000004e-26,4.5632600000000002e-31,9.2077100000000008e-31,-4.2094300000000002e-30
4151.0,1.6947800000000001e-29,-7.9892100000000002e-26,-7.99047e-26,-7.9886099999999997e-26,4.6081700000000004e-31,4.5024400000000003e-31,-2.3847500000000001e-30
4152.0,2.6462700000000002e-29,-7.9897599999999994e-26,-7.9908799999999998e-26,-7.9891299999999995e-26,3.57609e-30,3.7408699999999999e-30,-1.13069e-29
4153.0,2.423e-29,-7.9895699999999998e-26,-7.9906800000000004e-26,-7.9889200000000003e-26,3.0390300000000002e-30,3.5089200000000002e-30,-9.7642400000000002e-30
4154.0,2.2767700000000001e-29,-7.9896399999999996e-26,-7.99081e-26,-7.9890400000000002e-26,3.0083300000000001e-30,2.8724400000000001e-30,-8.6508299999999994e-30
4155.0,2.0696500000000001e-29,-7.9894699999999996e-26,-7.9905600000000005e-26,-7.9887699999999999e-26,2.8490699999999999e-30,2.4138e-30,-6.9010800000000003e-30
4156.0,1.93443e-29,-7.9895299999999995e-26,-7.9907199999999996e-26,-7.9889599999999995e-26,2.7869999999999999e-30,1.7250699999999999e-30,-5.8191900000000002e-30
4157.0,1.7515e-29,-7.9893800000000002e-26,-7.9904600000000002e-26,-7.9887199999999998e-26,2.8213199999999998e-30,1.2008500000000001e-30,-3.9857400000000003e-30
4158.0,1.6934400000000001e-29,-7.9894300000000004e-26,-7.9906800000000004e-26,-7.9889499999999997e-26,2.7562099999999999e-30,2.54339e-31,-2.8614999999999999e-30
4159.0,2.67679e-29,-7.9896799999999999e-26,-7.9906700000000006e-26,-7.9890099999999997e-26,4.8504999999999997e-30,3.9017200000000001e-30,-1.14124e-29
4160.0,2.5452400000000002e-29,-7.9897399999999999e-26,-7.9907799999999995e-26,-7.9891199999999998e-26,4.92813e-30,3.2134700000000001e-30,-1.05565e-29
4161.0,2.3476500000000001e-29,-7.9896100000000002e-26,-7.9905600000000005e-26,-7.9888899999999998e-26,4.9967200000000001e-30,3.03623e-30,-8.9001099999999996e-30
4162.0,2.1772399999999999e-29,-7.9896500000000005e-26,-7.9906700000000006e-26,-7.98905e-26,5.02645e-30,2.3482399999999998e-30,-7.7462100000000004e-30
4163.0,1.99149e-29,-7.9895199999999997e-26,-7.9904500000000004e-26,-7.9888200000000001e-26,5.1958400000000003e-30,1.9292900000000001e-30,-5.8720300000000003e-30
4164.0,1.8429600000000001e-29,-7.9895699999999998e-26,-7.9905899999999999e-26,-7.9890099999999997e-26,5.1402199999999999e-30,1.19525e-30,-4.5736599999999997e-30
4165.0,1.6837000000000001e-29,-7.9894300000000004e-26,-7.9903400000000004e-26,-7.9888299999999999e-26,5.3974499999999999e-30,8.4719299999999999e-31,-2.7126200000000001e-30
4166.0,3.6230100000000002e-29,-7.9881699999999994e-26,-7.9913100000000003e-26,-7.98803e-26,-6.29694e-30,4.7467799999999998e-30,-5.7550299999999998e-30
4167.0,3.75991e-29,-7.9877400000000001e-26,-7.9910499999999998e-26,-7.9876399999999998e-26,-7.5233100000000007e-30,4.2991800000000003e-30,-4.2910100000000001e-30
4168.0,4.10019e-29,-7.9878500000000002e-26,-7.9914499999999997e-26,-7.9875199999999999e-26,-7.7784500000000003e-30,3.7028700000000002e-30,-3.52758e-30
4169.0,4.2458199999999999e-29,-7.9873499999999999e-26,-7.9910999999999999e-26,-7.9871100000000002e-26,-9.3169700000000007e-30,2.76456e-30,-2.4764500000000001e-30
4170.0,4.4845400000000002e-29,-7.9876499999999996e-26,-7.99155e-26,-7.9871500000000005e-26,-8.63238e-30,2.2935700000000001e-30,-3.1714199999999998e-30
4171.0,4.5809099999999998e-29,-7.9870699999999998e-26,-7.9910599999999996e-26,-7.9867100000000002e-26,-1.07642e-29,1.41596e-31,-1.2116599999999999e-30
4172.0,4.1670500000000002e-29,-7.9876700000000004e-26,-7.9912400000000005e-26,-7.9872100000000005e-26,-9.1656300000000007e-30,1.0048700000000001e-30,-2.97783e-30
4173.0,3.3365299999999998e-29,-7.9881099999999995e-26,-7.9908799999999998e-26,-7.9879199999999999e-26,-5.2653200000000002e-30,4.9846300000000001e-30,-6.6862699999999997e-30
4174.0,3.5082699999999998e-29,-7.9882e-26,-7.9911300000000005e-26,-7.9878500000000002e-26,-6.0071400000000001e-30,4.4472499999999999e-30,-5.3831899999999999e-30
4175.0,3.6431999999999998e-29,-7.9878e-26,-7.9909000000000005e-26,-7.9874400000000004e-26,-6.9571499999999994e-30,3.6979e-30,-4.2050600000000002e-30
4176.0,3.8489999999999997e-29,-7.9879299999999997e-26,-7.9911900000000004e-26,-7.9874400000000004e-26,-7.4445500000000003e-30,3.0766799999999999e-30,-3.75361e-30
4177.0,3.9541e-29,-7.9875100000000001e-26,-7.99087e-26,-7.9870099999999999e-26,-8.3518099999999994e-30,1.7639899999999999e-30,-2.8260099999999999e-30
4178.0,4.0002100000000002e-29,-7.9877499999999999e-26,-7.9911699999999997e-26,-7.9872399999999999e-26,-8.21192e-30,8.7418100000000002e-31,-2.93529e-30
4179.0,4.08897e-29,-7.9872800000000002e-26,-7.9906800000000004e-26,-7.9868599999999995e-26,-1.05925e-29,-7.3717899999999997e-31,-2.09341e-30
4180.0,3.1340000000000001e-29,-7.9884899999999999e-26,-7.9909000000000005e-26,-7.9880899999999999e-26,-3.6830099999999998e-30,4.9731299999999998e-30,-7.67768e-30
4181.0,3.1810899999999998e-29,-7.9882e-26,-7.9907400000000003e-26,-7.9877699999999995e-26,-4.5016399999999998e-30,4.45043e-30,-6.27328e-30
4182.0,3.2892999999999998e-29,-7.9882699999999997e-26,-7.9909200000000001e-26,-7.9877499999999999e-26,-5.2784400000000001e-30,3.8199399999999997e-30,-5.2656900000000001e-30
4183.0,3.3787800000000001e-29,-7.9879299999999997e-26,-7.9907e-26,-7.9873599999999997e-26,-5.93385e-30,2.8921500000000001e-30,-4.2719599999999997e-30
4184.0,3.45587e-29,-7.9880600000000005e-26,-7.9909100000000003e-26,-7.98746e-26,-6.3904100000000006e-30,1.9748999999999999e-30,-3.7037300000000001e-30
4185.0,3.4907199999999998e-29,-7.9877099999999995e-26,-7.9905899999999999e-26,-7.98712e-26,-7.2388100000000004e-30,7.7711900000000003e-31,-3.0745699999999999e-30
4186.0,3.5084e-29,-7.9878799999999996e-26,-7.9909200000000001e-26,-7.9874199999999997e-26,-6.2255900000000002e-30,-5.54155e-33,-3.2193100000000002e-30
4187.0,2.9514599999999998e-29,-7.9885300000000002e-26,-7.9906099999999995e-26,-7.9880100000000004e-26,-1.90851e-30,4.9832600000000003e-30,-8.4883299999999997e-30
4188.0,2.9302799999999999e-29,-7.9885800000000003e-26,-7.9907500000000001e-26,-7.9880200000000002e-26,-2.7339599999999999e-30,4.3609600000000001e-30,-7.2053899999999998e-30
4189.0,2.9525900000000002e-29,-7.9883000000000002e-26,-7.9905700000000003e-26,-7.9876899999999999e-26,-3.3106000000000002e-30,3.7259599999999998e-30,-6.0410999999999998e-30
4190.0,2.9671800000000003e-29,-7.98837e-26,-7.9907e-26,-7.9877300000000003e-26,-3.9019899999999997e-30,2.8921199999999999e-30,-5.0580199999999999e-30
4191.0,2.9912200000000002e-29,-7.9880800000000001e-26,-7.9904500000000004e-26,-7.9874000000000001e-26,-4.3707699999999998e-30,1.9590600000000002e-30,-4.2168799999999999e-30
4192.0,2.9974399999999997e-29,-7.9881900000000002e-26,-7.9906499999999998e-26,-7.9875700000000001e-26,-4.34756e-30,1.05648e-30,-3.58245e-30
4193.0,2.87975e-29,-7.9879600000000002e-26,-7.9902699999999995e-26,-7.9872800000000002e-26,-4.91839e-30,1.22885e-31,-2.5750799999999999e-30
4194.0,2.8317300000000002e-29,-7.9888000000000005e-26,-7.9906099999999995e-26,-7.9882e-26,-1.1700099999999999e-31,4.8396500000000002e-30,-9.2665299999999997e-30
4195.0,2.75713e-29,-7.9886199999999995e-26,-7.9904899999999996e-26,-7.98797e-26,-7.1429800000000001e-31,4.3158000000000002e-30,-7.9520400000000006e-30
4196.0,2.68043e-29,-7.9886599999999999e-26,-7.9905700000000003e-26,-7.9879899999999996e-26,-1.2926599999999999e-30,3.56466e-30,-6.7777900000000001e-30
4197.0,2.6545300000000002e-29,-7.9884200000000001e-26,-7.9903799999999995e-26,-7.9876999999999997e-26,-1.6338100000000001e-30,2.8755300000000001e-30,-5.7153700000000001e-30
4198.0,2.6058600000000001e-29,-7.9884899999999999e-26,-7.9904899999999996e-26,-7.9878e-26,-1.88427e-30,2.0334000000000001e-30,-4.7136500000000001e-30
4199.0,2.53713e-29,-7.9882699999999997e-26,-7.9902300000000003e-26,-7.9875299999999997e-26,-2.1578599999999999e-30,1.14448e-30,-3.68951e-30
4200.0,2.5555099999999998e-29,-7.9883399999999994e-26,-7.99047e-26,-7.9877400000000001e-26,-1.8849000000000002e-30,1.07461e-31,-2.9398599999999998e-30
4201.0,2.7919100000000002e-29,-7.9888299999999999e-26,-7.9904299999999997e-26,-7.98814e-26,1.71447e-30,4.7219799999999997e-30,-9.8172800000000001e-30
4202.0,2.63998e-29,-7.9888700000000002e-26,-7.9904899999999996e-26,-7.9881800000000004e-26,1.1712700000000001e-30,4.0653200000000001e-30,-8.6079399999999998e-30
4203.0,2.5564199999999997e-29,-7.9887000000000002e-26,-7.9903300000000006e-26,-7.9879500000000004e-26,9.4562900000000008e-31,3.5857300000000003e-30,-7.4791500000000001e-30
4204.0,2.43633e-29,-7.9887299999999996e-26,-7.9903900000000005e-26,-7.9880000000000006e-26,7.2838500000000003e-31,2.82673e-30,-6.2900799999999999e-30
4205.0,2.3497600000000001e-29,-7.9885300000000002e-26,-7.9901800000000001e-26,-7.9877599999999997e-26,5.98006e-31,2.0983899999999999e-30,-5.1322600000000002e-30
4206.0,2.2818400000000001e-29,-7.9885900000000001e-26,-7.9903099999999998e-26,-7.9878900000000005e-26,6.0836799999999998e-31,1.23128e-30,-4.03145e-30
4207.0,2.1177799999999999e-29,-7.9884299999999999e-26,-7.9900100000000001e-26,-7.9876800000000001e-26,6.7761399999999997e-31,5.5811299999999999e-31,-2.7877599999999998e-30
4208.0,2.7705900000000001e-29,-7.9889800000000003e-26,-7.9904299999999997e-26,-7.9882799999999995e-26,3.1976500000000003e-30,4.4717699999999998e-30,-1.0265799999999999e-29
4209.0,2.6703600000000001e-29,-7.98888e-26,-7.9903199999999996e-26,-7.9881300000000002e-26,3.166e-30,4.1731199999999998e-30,-9.2961400000000001e-30
4210.0,2.51388e-29,-7.9889100000000006e-26,-7.9903400000000004e-26,-7.9881699999999994e-26,3.1096900000000001e-30,3.4926200000000003e-30,-8.13523e-30
4211.0,2.39628e-29,-7.9887500000000003e-26,-7.9901800000000001e-26,-7.98797e-26,3.1495200000000002e-30,2.9215800000000002e-30,-6.8967200000000003e-30
4212.0,2.2682800000000001e-29,-7.9887799999999997e-26,-7.9902499999999999e-26,-7.9880499999999996e-26,3.1729700000000003e-30,2.1722099999999999e-30,-5.6285900000000002e-30
4213.0,2.1410299999999999e-29,-7.9886199999999995e-26,-7.9900399999999995e-26,-7.98786e-26,3.25812e-30,1.4808000000000001e-30,-4.2408899999999999e-30
4214.0,2.1009999999999999e-29,-7.9886699999999997e-26,-7.9902200000000005e-26,-7.9880399999999998e-26,3.4709900000000002e-30,5.5941100000000002e-31,-2.95258e-30
4215.0,4.5017400000000001e-29,-7.9867399999999996e-26,-7.9908000000000002e-26,-7.9867299999999998e-26,-9.0482300000000004e-30,6.0349400000000003e-30,-2.3045299999999998e-30
4216.0,4.9596300000000001e-29,-7.9867499999999994e-26,-7.9911900000000004e-26,-7.9865400000000002e-26,-9.8915399999999997e-30,5.44155e-30,-1.3540699999999999e-30
4217.0,5.3278499999999998e-29,-7.9862600000000001e-26,-7.9909999999999996e-26,-7.9859999999999997e-26,-1.15388e-29,4.6006199999999999e-30,-4.6299699999999996e-31
4218.0,5.7428399999999998e-29,-7.9863299999999999e-26,-7.9913899999999998e-26,-7.98587e-26,-1.21066e-29,3.9142399999999997e-30,-9.9243700000000003e-31
4219.0,6.0472199999999998e-29,-7.9858399999999994e-26,-7.9911400000000003e-26,-7.98536e-26,-1.3585700000000001e-29,2.20122e-30,-6.2761699999999997e-31
4220.0,6.0196000000000005e-29,-7.9861199999999995e-26,-7.9913600000000004e-26,-7.9855800000000001e-26,-1.3456400000000001e-29,1.7202099999999998e-30,-2.4485100000000001e-30
4221.0,6.2393599999999998e-29,-7.9856900000000002e-26,-7.9911599999999999e-26,-7.9852300000000003e-26,-1.4082900000000001e-29,-6.0598200000000001e-31,-3.4465699999999999e-30
4222.0,4.2035899999999998e-29,-7.9871600000000003e-26,-7.99081e-26,-7.9869199999999994e-26,-7.8355399999999994e-30,6.2362799999999997e-30,-3.7304899999999998e-30
4223.0,4.4716100000000002e-29,-7.9868399999999999e-26,-7.9907099999999998e-26,-7.9864999999999999e-26,-9.0045599999999999e-30,5.5215400000000002e-30,-2.6299000000000001e-30
4224.0,4.81705e-29,-7.9868300000000001e-26,-7.9909700000000003e-26,-7.9863600000000004e-26,-1.0198400000000001e-29,4.8013099999999998e-30,-2.06211e-30
4225.0,5.1061599999999999e-29,-7.9864499999999997e-26,-7.9907900000000004e-26,-7.9858600000000002e-26,-1.1277899999999999e-29,3.7200999999999998e-30,-1.6852300000000002e-30
4226.0,5.3126399999999998e-29,-7.9865400000000002e-26,-7.9910300000000002e-26,-7.9858899999999996e-26,-1.2083000000000001e-29,2.5325499999999999e-30,-2.0200199999999999e-30
4227.0,5.4645599999999999e-29,-7.9861699999999997e-26,-7.9907500000000001e-26,-7.9854999999999994e-26,-1.3129600000000001e-29,1.15061e-30,-2.3055299999999999e-30
4228.0,5.2976900000000001e-29,-7.9864800000000003e-26,-7.9909000000000005e-26,-7.9857699999999997e-26,-1.23157e-29,1.38464e-31,-3.3523400000000003e-30
4229.0,3.8280300000000003e-29,-7.9873200000000005e-26,-7.9904899999999996e-26,-7.98689e-26,-6.3138499999999994e-30,6.1250500000000003e-30,-5.0378799999999999e-30
4230.0,4.03791e-29,-7.9873099999999996e-26,-7.9906599999999996e-26,-7.9867999999999996e-26,-7.4936299999999999e-30,5.54322e-30,-4.0499299999999999e-30
4231.0,4.2643200000000003e-29,-7.9870000000000001e-26,-7.99053e-26,-7.98638e-26,-8.4444999999999998e-30,4.6989899999999997e-30,-3.2661400000000001e-30
4232.0,4.4769700000000003e-29,-7.9870099999999999e-26,-7.9906900000000002e-26,-7.9863000000000005e-26,-9.5374500000000007e-30,3.6670599999999998e-30,-2.8414499999999999e-30
4233.0,4.6435000000000001e-29,-7.9866799999999997e-26,-7.9904799999999998e-26,-7.9859100000000003e-26,-1.03083e-29,2.5168900000000001e-30,-2.7606900000000001e-30
4234.0,4.7132099999999997e-29,-7.9867999999999996e-26,-7.9906499999999998e-26,-7.9860099999999995e-26,-1.0643999999999999e-29,1.14747e-30,-2.9013800000000001e-30
4235.0,4.7781000000000002e-29,-7.9864599999999995e-26,-7.9903199999999996e-26,-7.9857e-26,-1.1737000000000001e-29,-3.4427900000000002e-31,-3.0474400000000001e-30
4236.0,3.5183300000000001e-29,-7.9876899999999999e-26,-7.9904299999999997e-26,-7.9871100000000002e-26,-4.5612299999999997e-30,6.1143700000000001e-30,-6.3179799999999997e-30
4237.0,3.6285099999999999e-29,-7.9874799999999996e-26,-7.9903599999999999e-26,-7.9868300000000001e-26,-5.4817099999999998e-30,5.3608699999999999e-30,-5.2707200000000001e-30
4238.0,3.7526499999999998e-29,-7.9874699999999998e-26,-7.9904600000000002e-26,-7.9867399999999996e-26,-6.5237700000000001e-30,4.5317099999999997e-30,-4.3866300000000001e-30
4239.0,3.8930599999999999e-29,-7.9871899999999997e-26,-7.9902900000000002e-26,-7.98638e-26,-7.2241400000000007e-30,3.5917399999999998e-30,-3.8797999999999999e-30
4240.0,3.9807399999999998e-29,-7.9872399999999999e-26,-7.9904100000000001e-26,-7.9863899999999998e-26,-7.9237300000000004e-30,2.4065299999999999e-30,-3.4163100000000001e-30
4241.0,4.0367300000000001e-29,-7.98695e-26,-7.9901600000000005e-26,-7.9860900000000001e-26,-8.4618099999999997e-30,1.21236e-30,-3.2873299999999999e-30
4242.0,4.0303699999999998e-29,-7.9870699999999998e-26,-7.9903500000000002e-26,-7.9862699999999999e-26,-7.9875500000000001e-30,-1.6151900000000001e-32,-3.2757200000000001e-30
4243.0,3.27313e-29,-7.9878400000000004e-26,-7.9902300000000003e-26,-7.9871399999999996e-26,-2.5656799999999999e-30,5.8804500000000002e-30,-7.3692000000000003e-30
4244.0,3.2788699999999998e-29,-7.9878500000000002e-26,-7.9903e-26,-7.9871000000000004e-26,-3.4840299999999997e-30,5.1389700000000002e-30,-6.2935500000000001e-30
4245.0,3.33399e-29,-7.9876399999999998e-26,-7.9901700000000003e-26,-7.9868200000000003e-26,-4.0906200000000003e-30,4.3644099999999997e-30,-5.4584099999999997e-30
4246.0,3.3655200000000002e-29,-7.9876399999999998e-26,-7.9902200000000005e-26,-7.9867700000000002e-26,-4.7384299999999997e-30,3.42338e-30,-4.64406e-30
4247.0,3.4052599999999999e-29,-7.9873900000000003e-26,-7.9900199999999999e-26,-7.9864900000000001e-26,-5.12645e-30,2.4286899999999999e-30,-4.1324100000000002e-30
4248.0,3.41456e-29,-7.9874500000000002e-26,-7.99013e-26,-7.98655e-26,-5.2706800000000003e-30,1.29978e-30,-3.5480899999999999e-30
4249.0,3.3209000000000002e-29,-7.9872300000000001e-26,-7.9898099999999996e-26,-7.9863100000000003e-26,-5.47275e-30,1.5460599999999999e-31,-2.9519e-30
4250.0,3.0900499999999999e-29,-7.9880899999999999e-26,-7.9901800000000001e-26,-7.9873200000000005e-26,-7.3624700000000002e-31,5.62746e-30,-8.1719299999999995e-30
4251.0,3.0562200000000001e-29,-7.9879600000000002e-26,-7.9900999999999995e-26,-7.9871500000000005e-26,-1.27621e-30,4.9788099999999999e-30,-7.2339200000000005e-30
4252.0,3.0076499999999998e-29,-7.98797e-26,-7.9901200000000002e-26,-7.9871000000000004e-26,-1.7659299999999998e-30,4.2088499999999998e-30,-6.2421299999999998e-30
4253.0,2.9976199999999998e-29,-7.9877699999999995e-26,-7.98996e-26,-7.9868700000000004e-26,-2.0651900000000001e-30,3.3867199999999997e-30,-5.4619700000000002e-30
4254.0,2.9657099999999998e-29,-7.9877900000000002e-26,-7.9900100000000001e-26,-7.9868700000000004e-26,-2.2975900000000001e-30,2.42882e-30,-4.5722899999999998e-30
4255.0,2.9151000000000002e-29,-7.9875799999999999e-26,-7.9897800000000002e-26,-7.9866400000000005e-26,-2.4376800000000002e-30,1.4017700000000001e-30,-3.8072500000000002e-30
4256.0,2.91433e-29,-7.9876399999999998e-26,-7.98996e-26,-7.9867899999999998e-26,-2.1407000000000001e-30,3.0067800000000001e-31,-3.0875899999999999e-30
4257.0,3.0266600000000002e-29,-7.9881499999999998e-26,-7.9900600000000003e-26,-7.9873300000000003e-26,9.8437899999999994e-31,5.5035800000000002e-30,-8.8735299999999999e-30
4258.0,2.9208500000000002e-29,-7.9881699999999994e-26,-7.9900600000000003e-26,-7.9873200000000005e-26,7.5604500000000004e-31,4.8864400000000003e-30,-7.9798899999999999e-30
4259.0,2.8489300000000001e-29,-7.98803e-26,-7.9899299999999995e-26,-7.9871500000000005e-26,6.5857499999999998e-31,4.2151600000000001e-30,-7.1048500000000007e-30
4260.0,2.7638799999999997e-29,-7.9880399999999998e-26,-7.9899299999999995e-26,-7.98712e-26,5.83695e-31,3.4276700000000003e-30,-6.1021200000000001e-30
4261.0,2.6899899999999998e-29,-7.9878500000000002e-26,-7.9897499999999996e-26,-7.9869099999999996e-26,5.4389400000000002e-31,2.5302799999999999e-30,-5.1038099999999999e-30
4262.0,2.6369100000000001e-29,-7.9878699999999998e-26,-7.9898200000000005e-26,-7.9869699999999996e-26,6.3439499999999997e-31,1.5804700000000001e-30,-4.0902599999999997e-30
4263.0,2.4956300000000001e-29,-7.9877200000000005e-26,-7.9895400000000004e-26,-7.98678e-26,8.8435900000000002e-31,6.9282999999999996e-31,-3.0246699999999999e-30
4264.0,5.8162600000000001e-29,-7.9856699999999994e-26,-7.9909000000000005e-26,-7.9856200000000004e-26,-1.21381e-29,7.6084299999999998e-30,1.8156900000000001e-30
4265.0,6.3468800000000004e-29,-7.9851999999999998e-26,-7.9908299999999996e-26,-7.9850399999999995e-26,-1.4106800000000001e-29,6.8502599999999995e-30,2.7164000000000001e-30
4266.0,6.9838300000000001e-29,-7.9851399999999998e-26,-7.9912500000000003e-26,-7.9847300000000001e-26,-1.56332e-29,6.1749799999999999e-30,2.6946399999999998e-30
4267.0,7.5692399999999996e-29,-7.9846100000000002e-26,-7.9911799999999995e-26,-7.98405e-26,-1.7650700000000001e-29,4.6421300000000003e-30,2.3363400000000001e-30
4268.0,7.8927900000000004e-29,-7.9846799999999999e-26,-7.9914800000000003e-26,-7.9839900000000001e-26,-1.8729300000000001e-29,3.5865700000000003e-30,3.3645699999999999e-31
4269.0,8.2309499999999997e-29,-7.9842899999999998e-26,-7.9913600000000004e-26,-7.9835300000000002e-26,-1.96337e-29,1.27709e-30,-1.65684e-30
4270.0,8.0640200000000004e-29,-7.9845799999999997e-26,-7.9914200000000003e-26,-7.9837799999999997e-26,-1.9704800000000001e-29,-7.6582499999999999e-32,-4.0492599999999999e-30
4271.0,5.3004300000000002e-29,-7.98587e-26,-7.99047e-26,-7.9856099999999995e-26,-1.1349100000000001e-29,7.7242699999999995e-30,-1.09655e-31
4272.0,5.7621400000000002e-29,-7.9858100000000001e-26,-7.9907500000000001e-26,-7.9853799999999996e-26,-1.2995100000000001e-29,6.9710300000000003e-30,6.2337999999999999e-31
4273.0,6.2457399999999998e-29,-7.9854100000000001e-26,-7.9906900000000002e-26,-7.9847999999999998e-26,-1.4639399999999999e-29,6.0220400000000003e-30,8.5175599999999995e-31
4274.0,6.6813200000000001e-29,-7.98536e-26,-7.9909399999999997e-26,-7.9846000000000004e-26,-1.6302500000000001e-29,4.7731199999999998e-30,3.9512199999999998e-31
4275.0,7.0331099999999995e-29,-7.9849799999999996e-26,-7.9907900000000004e-26,-7.9840900000000004e-26,-1.7645899999999999e-29,3.2863e-30,-5.9041599999999999e-31
4276.0,7.1527199999999996e-29,-7.9850999999999995e-26,-7.9909700000000003e-26,-7.9841400000000005e-26,-1.82537e-29,1.6023e-30,-2.25064e-30
4277.0,7.3423200000000005e-29,-7.9847300000000001e-26,-7.9907500000000001e-26,-7.9838200000000001e-26,-1.8991199999999999e-29,-5.53907e-31,-4.1023099999999998e-30
4278.0,4.7989799999999999e-29,-7.9863700000000002e-26,-7.9903699999999997e-26,-7.98587e-26,-9.8973100000000001e-30,7.6221400000000007e-30,-2.0327200000000002e-30
4279.0,5.1322699999999995e-29,-7.9860999999999999e-26,-7.9903400000000004e-26,-7.98547e-26,-1.1257800000000001e-29,6.8305600000000005e-30,-1.2960599999999999e-30
4280.0,5.5017799999999995e-29,-7.9860300000000002e-26,-7.9905200000000002e-26,-7.9852499999999999e-26,-1.2923100000000001e-29,5.8022400000000002e-30,-9.3685200000000005e-31
4281.0,5.8355099999999995e-29,-7.9857e-26,-7.9903900000000005e-26,-7.9847700000000004e-26,-1.4260900000000001e-29,4.6751900000000003e-30,-1.11814e-30
4282.0,6.0855699999999998e-29,-7.9857199999999996e-26,-7.9905499999999996e-26,-7.9846799999999999e-26,-1.5533600000000001e-29,3.1092600000000001e-30,-1.6555199999999999e-30
4283.0,6.2565700000000004e-29,-7.9854100000000001e-26,-7.9903199999999996e-26,-7.9843100000000005e-26,-1.64406e-29,1.4730400000000001e-30,-2.6382700000000002e-30
4284.0,6.2067500000000002e-29,-7.9855800000000001e-26,-7.9904199999999999e-26,-7.98445e-26,-1.6256499999999999e-29,-2.6161899999999999e-31,-3.79839e-30
4285.0,4.3231700000000002e-29,-7.9866500000000003e-26,-7.9900899999999997e-26,-7.9859499999999995e-26,-7.8891700000000003e-30,7.4016699999999999e-30,-3.7424299999999997e-30
4286.0,4.5424400000000003e-29,-7.98661e-26,-7.9902300000000003e-26,-7.9858299999999997e-26,-9.2728100000000001e-30,6.4765400000000004e-30,-2.9576e-30
4287.0,4.79973e-29,-7.9863499999999995e-26,-7.99013e-26,-7.9854299999999997e-26,-1.0423499999999999e-29,5.5740900000000001e-30,-2.58125e-30
4288.0,5.0215899999999998e-29,-7.9863100000000003e-26,-7.9902200000000005e-26,-7.9852800000000004e-26,-1.17003e-29,4.31887e-30,-2.3866599999999999e-30
4289.0,5.1971600000000005e-29,-7.9860200000000004e-26,-7.9900299999999997e-26,-7.9849000000000001e-26,-1.2547400000000001e-29,3.0369299999999998e-30,-2.6750400000000001e-30
4290.0,5.2887199999999999e-29,-7.9860800000000003e-26,-7.99013e-26,-7.9849099999999999e-26,-1.3105400000000001e-29,1.38148e-30,-3.0173900000000002e-30
4291.0,5.3311999999999996e-29,-7.9857799999999995e-26,-7.9898300000000003e-26,-7.9846100000000002e-26,-1.3645699999999999e-29,-3.2897499999999998e-31,-3.4956700000000002e-30
4292.0,3.90903e-29,-7.9870299999999995e-26,-7.9900100000000001e-26,-7.9862199999999998e-26,-5.8194699999999998e-30,7.0459600000000006e-30,-5.2012000000000003e-30
4293.0,4.0375400000000002e-29,-7.9868700000000004e-26,-7.98996e-26,-7.9859700000000003e-26,-6.8302099999999998e-30,6.1899299999999998e-30,-4.4398200000000001e-30
4294.0,4.17336e-29,-7.9868300000000001e-26,-7.9900100000000001e-26,-7.9858299999999997e-26,-7.8992399999999996e-30,5.1700400000000001e-30,-3.8304599999999999e-30
4295.0,4.3108899999999999e-29,-7.9865900000000004e-26,-7.9898599999999997e-26,-7.9854999999999994e-26,-8.6584600000000004e-30,4.1421600000000002e-30,-3.5791199999999999e-30
4296.0,4.4070099999999998e-29,-7.9866000000000002e-26,-7.9899099999999999e-26,-7.9854299999999997e-26,-9.4061800000000002e-30,2.8107499999999998e-30,-3.3384700000000001e-30
4297.0,4.4570399999999998e-29,-7.9863399999999997e-26,-7.9896799999999999e-26,-7.9851399999999998e-26,-9.8160700000000003e-30,1.4282800000000001e-30,-3.3695699999999998e-30
4298.0,4.4490900000000001e-29,-7.9864300000000002e-26,-7.98979e-26,-7.9852499999999999e-26,-9.6376600000000005e-30,-2.8101099999999997e-32,-3.4798600000000003e-30
4299.0,3.6119699999999998e-29,-7.9872200000000003e-26,-7.9898400000000001e-26,-7.9863200000000001e-26,-3.7241499999999997e-30,6.7003899999999996e-30,-6.3597800000000003e-30
4300.0,3.63478e-29,-7.9872100000000005e-26,-7.9898800000000005e-26,-7.9862400000000005e-26,-4.5456500000000003e-30,5.8431099999999998e-30,-5.55616e-30
4301.0,3.6916200000000003e-29,-7.9870400000000005e-26,-7.9897599999999994e-26,-7.9859899999999999e-26,-5.1239100000000001e-30,5.0086899999999999e-30,-4.9757100000000003e-30
4302.0,3.7273699999999999e-29,-7.9870199999999997e-26,-7.9897599999999994e-26,-7.9858899999999996e-26,-5.7000800000000001e-30,3.9484199999999999e-30,-4.3998900000000001e-30
4303.0,3.7615999999999998e-29,-7.9867999999999996e-26,-7.9895699999999998e-26,-7.9856200000000004e-26,-6.0383000000000003e-30,2.8238099999999999e-30,-4.0216399999999997e-30
4304.0,3.7737299999999997e-29,-7.9868200000000003e-26,-7.98962e-26,-7.9856200000000004e-26,-6.2359800000000002e-30,1.53242e-30,-3.6147499999999997e-30
4305.0,3.6679799999999998e-29,-7.9866299999999996e-26,-7.9893200000000003e-26,-7.9854000000000003e-26,-6.0217899999999999e-30,2.1980000000000001e-31,-3.1814899999999998e-30
4306.0,3.40675e-29,-7.9874299999999995e-26,-7.9897800000000002e-26,-7.9864700000000005e-26,-1.9663499999999999e-30,6.4661000000000006e-30,-7.1412699999999999e-30
4307.0,3.3782700000000001e-29,-7.9873300000000003e-26,-7.9896899999999997e-26,-7.9863299999999999e-26,-2.22898e-30,5.7960100000000003e-30,-6.5475500000000003e-30
4308.0,3.3497300000000001e-29,-7.9873200000000005e-26,-7.9896700000000001e-26,-7.9862400000000005e-26,-2.5526699999999999e-30,4.9436700000000002e-30,-5.8733800000000002e-30
4309.0,3.33387e-29,-7.9871399999999996e-26,-7.9895199999999997e-26,-7.9860200000000004e-26,-2.7573200000000001e-30,3.98364e-30,-5.2030900000000001e-30
4310.0,3.3121599999999999e-29,-7.9871399999999996e-26,-7.9895199999999997e-26,-7.9859700000000003e-26,-2.9320000000000001e-30,2.8713500000000001e-30,-4.5133000000000002e-30
4311.0,3.2679600000000001e-29,-7.9869400000000002e-26,-7.9893100000000005e-26,-7.9857400000000003e-26,-2.9132599999999999e-30,1.6792000000000001e-30,-3.85662e-30
4312.0,3.2540700000000002e-29,-7.9869900000000003e-26,-7.98945e-26,-7.98587e-26,-2.6033399999999999e-30,4.3269899999999999e-31,-3.25427e-30
4313.0,7.36045e-29,-7.9841699999999999e-26,-7.9906099999999995e-26,-7.9841899999999995e-26,-1.6923600000000001e-29,9.5567600000000006e-30,6.8935599999999994e-30
4314.0,8.1566800000000005e-29,-7.9840400000000002e-26,-7.9910800000000003e-26,-7.9837699999999999e-26,-1.90879e-29,8.9459599999999994e-30,7.4837799999999997e-30
4315.0,9.0330799999999999e-29,-7.9834600000000005e-26,-7.9911699999999997e-26,-7.9829299999999997e-26,-2.2004200000000001e-29,7.6961099999999994e-30,7.1592500000000005e-30
4316.0,9.7713799999999995e-29,-7.9833100000000001e-26,-7.9915699999999996e-26,-7.9825399999999995e-26,-2.45308e-29,6.5505199999999998e-30,5.5633500000000001e-30
4317.0,1.0478300000000001e-28,-7.9828199999999996e-26,-7.9916400000000005e-26,-7.9818100000000005e-26,-2.6699899999999998e-29,4.1342199999999997e-30,2.7824100000000001e-30
4318.0,1.0701799999999999e-28,-7.9828900000000005e-26,-7.9918200000000003e-26,-7.9817899999999998e-26,-2.7989000000000001e-29,2.0995000000000002e-30,-1.1114e-30
4319.0,1.0891400000000001e-28,-7.9826100000000004e-26,-7.99172e-26,-7.9815300000000004e-26,-2.8142300000000001e-29,-8.5146500000000008e-31,-5.6363100000000002e-30
4320.0,6.70684e-29,-7.9848099999999996e-26,-7.99047e-26,-7.9844900000000003e-26,-1.5982999999999999e-29,9.63676e-30,4.1382600000000003e-30
4321.0,7.3244599999999996e-29,-7.98445e-26,-7.9905399999999998e-26,-7.98388e-26,-1.8128799999999999e-29,8.7450400000000004e-30,4.4937799999999997e-30
4322.0,7.9964099999999995e-29,-7.9842899999999998e-26,-7.9908399999999994e-26,-7.9834899999999999e-26,-2.07024e-29,7.6515399999999998e-30,4.29051e-30
4323.0,8.6383199999999999e-29,-7.9838700000000002e-26,-7.9908399999999994e-26,-7.9828099999999998e-26,-2.3175799999999999e-29,6.1954000000000001e-30,3.1320100000000001e-30
4324.0,9.0927900000000005e-29,-7.9838299999999999e-26,-7.9910700000000005e-26,-7.9825799999999999e-26,-2.5216799999999999e-29,4.2157599999999997e-30,1.0481899999999999e-30
4325.0,9.4561900000000003e-29,-7.9834999999999997e-26,-7.9909700000000003e-26,-7.98212e-26,-2.6625000000000002e-29,1.8459800000000001e-30,-1.8000900000000001e-30
4326.0,9.4512900000000003e-29,-7.9836599999999999e-26,-7.9909899999999998e-26,-7.9822100000000005e-26,-2.7109099999999999e-29,-7.6362500000000001e-31,-4.86888e-30
4327.0,6.0069700000000001e-29,-7.9852300000000003e-26,-7.9901100000000004e-26,-7.9846000000000004e-26,-1.4304500000000001e-29,9.32972e-30,1.50992e-30
4328.0,6.4897800000000003e-29,-7.9851200000000002e-26,-7.9903300000000006e-26,-7.9843200000000003e-26,-1.63198e-29,8.34882e-30,1.8924500000000002e-30
4329.0,7.0006999999999996e-29,-7.98479e-26,-7.9903e-26,-7.9837600000000002e-26,-1.8389400000000001e-29,7.2984999999999999e-30,1.71128e-30
4330.0,7.4783100000000003e-29,-7.9846700000000001e-26,-7.9904600000000002e-26,-7.9834399999999997e-26,-2.0609999999999999e-29,5.7940100000000003e-30,9.9730599999999998e-31
4331.0,7.8560099999999995e-29,-7.9843599999999995e-26,-7.9903400000000004e-26,-7.9829399999999995e-26,-2.23329e-29,4.0186700000000001e-30,-4.2906299999999999e-31
4332.0,8.0650700000000001e-29,-7.9843999999999998e-26,-7.9904399999999995e-26,-7.9828400000000004e-26,-2.3466399999999999e-29,1.71639e-30,-2.3549499999999998e-30
4333.0,8.2466800000000003e-29,-7.98405e-26,-7.9902099999999995e-26,-7.98252e-26,-2.4278800000000001e-29,-8.8046500000000002e-31,-4.6480400000000002e-30
4334.0,5.3448599999999995e-29,-7.9857500000000001e-26,-7.9899400000000004e-26,-7.9849199999999997e-26,-1.2171199999999999e-29,8.89699e-30,-8.2023700000000006e-31
4335.0,5.6945999999999995e-29,-7.9855499999999996e-26,-7.98996e-26,-7.9845500000000003e-26,-1.3784300000000001e-29,7.8823699999999993e-30,-4.4944300000000002e-31
4336.0,6.0656000000000001e-29,-7.9854399999999995e-26,-7.9900600000000003e-26,-7.98428e-26,-1.5641399999999999e-29,6.7087699999999997e-30,-3.8454600000000001e-31
4337.0,6.4021900000000002e-29,-7.9851700000000004e-26,-7.9899400000000004e-26,-7.9838100000000003e-26,-1.7285e-29,5.4018800000000003e-30,-8.4950899999999998e-31
4338.0,6.6704399999999996e-29,-7.9851399999999998e-26,-7.9900199999999999e-26,-7.9836300000000005e-26,-1.8781400000000001e-29,3.5838e-30,-1.5979100000000001e-30
4339.0,6.8447800000000005e-29,-7.9848699999999995e-26,-7.9897999999999998e-26,-7.9832599999999999e-26,-1.97315e-29,1.61227e-30,-2.8163100000000001e-30
4340.0,6.8536299999999996e-29,-7.9849799999999996e-26,-7.9898300000000003e-26,-7.9833100000000001e-26,-2.00266e-29,-5.3547300000000003e-31,-4.1879600000000002e-30
4341.0,4.7630199999999998e-29,-7.9861199999999995e-26,-7.9897200000000003e-26,-7.98513e-26,-9.7434099999999996e-30,8.3581800000000002e-30,-2.80408e-30
4342.0,4.9892799999999998e-29,-7.9860599999999996e-26,-7.9898099999999996e-26,-7.9849500000000002e-26,-1.1117499999999999e-29,7.2827300000000006e-30,-2.30381e-30
4343.0,5.2264200000000003e-29,-7.9858500000000004e-26,-7.9897200000000003e-26,-7.9845899999999995e-26,-1.2394999999999999e-29,6.2218600000000003e-30,-2.1803800000000001e-30
4344.0,5.4431800000000003e-29,-7.9857799999999995e-26,-7.9897300000000001e-26,-7.9843700000000005e-26,-1.3688099999999999e-29,4.8890100000000001e-30,-2.2215599999999998e-30
4345.0,5.6034799999999999e-29,-7.9855399999999998e-26,-7.9895400000000004e-26,-7.9840099999999997e-26,-1.4595100000000001e-29,3.3883000000000001e-30,-2.6404199999999999e-30
4346.0,5.7045500000000004e-29,-7.9855600000000005e-26,-7.9895699999999998e-26,-7.98394e-26,-1.5268699999999999e-29,1.56526e-30,-3.1577100000000003e-30
4347.0,5.7049799999999996e-29,-7.9853e-26,-7.98928e-26,-7.9836699999999997e-26,-1.5378300000000001e-29,-4.2127800000000001e-31,-3.7642199999999998e-30
4348.0,4.2962499999999999e-29,-7.9864700000000005e-26,-7.9896100000000002e-26,-7.9853900000000005e-26,-7.3696399999999999e-30,7.8398399999999996e-30,-4.29723e-30
4349.0,4.4197500000000002e-29,-7.9863499999999995e-26,-7.9895699999999998e-26,-7.9851700000000004e-26,-8.3782600000000004e-30,6.8996400000000007e-30,-3.8021099999999999e-30
4350.0,4.5510800000000001e-29,-7.9862899999999995e-26,-7.9895699999999998e-26,-7.9849900000000006e-26,-9.3380200000000004e-30,5.83871e-30,-3.4734599999999997e-30
4351.0,4.6712500000000001e-29,-7.9860900000000001e-26,-7.9894199999999994e-26,-7.9846799999999999e-26,-1.01378e-29,4.6535400000000003e-30,-3.35878e-30
4352.0,4.7658199999999999e-29,-7.9860700000000005e-26,-7.9894099999999996e-26,-7.9845500000000003e-26,-1.08453e-29,3.1843599999999997e-30,-3.2900299999999999e-30
4353.0,4.8032499999999999e-29,-7.9858399999999994e-26,-7.9891899999999995e-26,-7.9842700000000002e-26,-1.11441e-29,1.5981199999999999e-30,-3.4419600000000002e-30
4354.0,4.7823200000000002e-29,-7.9859100000000003e-26,-7.9892500000000006e-26,-7.9843499999999997e-26,-1.1043999999999999e-29,-2.7274399999999998e-32,-3.6546e-30
4355.0,3.99096e-29,-7.9866500000000003e-26,-7.9894800000000005e-26,-7.9855200000000002e-26,-5.4359900000000001e-30,7.4946699999999998e-30,-5.3646800000000001e-30
4356.0,4.0170200000000002e-29,-7.9866299999999996e-26,-7.9894599999999998e-26,-7.9854000000000003e-26,-5.9409699999999997e-30,6.7153100000000004e-30,-4.9478400000000003e-30
4357.0,4.05353e-29,-7.9864800000000003e-26,-7.9893300000000001e-26,-7.9851700000000004e-26,-6.4502100000000004e-30,5.7608200000000001e-30,-4.5421900000000001e-30
4358.0,4.0883500000000001e-29,-7.98644e-26,-7.98928e-26,-7.9850100000000001e-26,-6.9239299999999994e-30,4.5863599999999999e-30,-4.1673000000000003e-30
4359.0,4.1149700000000002e-29,-7.9862500000000003e-26,-7.9890900000000004e-26,-7.9847499999999997e-26,-7.2066199999999996e-30,3.2500300000000001e-30,-3.8854300000000002e-30
4360.0,4.12834e-29,-7.9862400000000005e-26,-7.9891000000000002e-26,-7.9846999999999995e-26,-7.3745299999999998e-30,1.7935199999999999e-30,-3.6540600000000002e-30
4361.0,4.0102300000000001e-29,-7.9860800000000003e-26,-7.9888299999999999e-26,-7.9845099999999999e-26,-6.8661000000000006e-30,2.42272e-31,-3.3805199999999997e-30
4362.0,9.2448900000000001e-29,-7.9830399999999998e-26,-7.9908199999999998e-26,-7.9829899999999996e-26,-2.24554e-29,1.2169900000000001e-29,1.2841699999999999e-29
4363.0,1.02654e-28,-7.9824900000000006e-26,-7.9910300000000002e-26,-7.98212e-26,-2.59776e-29,1.1231600000000001e-29,1.29668e-29
4364.0,1.1398999999999999e-28,-7.9821799999999999e-26,-7.9915300000000004e-26,-7.9814599999999996e-26,-3.0057000000000003e-29,1.05144e-29,1.2669500000000001e-29
4365.0,1.2649299999999999e-28,-7.98155e-26,-7.9918300000000001e-26,-7.9803799999999996e-26,-3.4413899999999999e-29,8.4706200000000001e-30,1.02852e-29
4366.0,1.34997e-28,-7.9813899999999998e-26,-7.9922499999999996e-26,-7.9799000000000001e-26,-3.8157299999999998e-29,6.0367799999999997e-30,5.96674e-30
4367.0,1.41459e-28,-7.9809999999999997e-26,-7.9923499999999999e-26,-7.9792700000000002e-26,-4.0208699999999999e-29,2.2839000000000002e-30,-3.5549600000000002e-31
4368.0,1.4214000000000001e-28,-7.9811300000000005e-26,-7.9924000000000001e-26,-7.9793599999999995e-26,-4.1072399999999998e-29,-1.3800399999999999e-30,-6.9987899999999993e-30
4369.0,8.3207900000000001e-29,-7.9835800000000003e-26,-7.9903300000000006e-26,-7.9831200000000005e-26,-2.1513099999999999e-29,1.1848400000000001e-29,8.8044800000000002e-30
4370.0,9.1259000000000005e-29,-7.98337e-26,-7.9906700000000006e-26,-7.9826399999999998e-26,-2.4577199999999999e-29,1.10036e-29,9.0518099999999995e-30
4371.0,1.0075e-28,-7.9828900000000005e-26,-7.9907900000000004e-26,-7.9817899999999998e-26,-2.83371e-29,9.9426800000000006e-30,8.4139999999999997e-30
4372.0,1.0970999999999999e-28,-7.9826700000000004e-26,-7.9911199999999995e-26,-7.98121e-26,-3.2216900000000001e-29,8.1390200000000003e-30,6.6689500000000006e-30
4373.0,1.1743499999999999e-28,-7.9822499999999997e-26,-7.9911699999999997e-26,-7.9804500000000005e-26,-3.5495199999999998e-29,5.5322399999999997e-30,3.2818900000000002e-30
4374.0,1.2156399999999999e-28,-7.9822599999999995e-26,-7.9913399999999997e-26,-7.9802300000000003e-26,-3.7700299999999998e-29,2.3370100000000001e-30,-1.1575e-30
4375.0,1.24856e-28,-7.9819099999999997e-26,-7.9911799999999995e-26,-7.9798599999999997e-26,-3.8916799999999998e-29,-1.5234600000000001e-30,-6.5129799999999996e-30
4376.0,7.41287e-29,-7.98428e-26,-7.9900600000000003e-26,-7.9834899999999999e-26,-1.9682899999999999e-29,1.12919e-29,5.3659599999999997e-30
4377.0,8.0323e-29,-7.9839900000000001e-26,-7.9901499999999996e-26,-7.9829299999999997e-26,-2.2236999999999999e-29,1.0386300000000001e-29,5.3280399999999997e-30
4378.0,8.7519800000000003e-29,-7.9837799999999997e-26,-7.9903400000000004e-26,-7.9824299999999995e-26,-2.5539199999999998e-29,9.1948099999999993e-30,4.9567800000000001e-30
4379.0,9.4482199999999998e-29,-7.9834299999999999e-26,-7.9903300000000006e-26,-7.9817299999999998e-26,-2.88225e-29,7.49327e-30,3.6303299999999998e-30
4380.0,1.00026e-28,-7.9833500000000004e-26,-7.9904799999999998e-26,-7.9813499999999995e-26,-3.1637400000000001e-29,5.0620000000000001e-30,1.2453500000000001e-30
4381.0,1.03863e-28,-7.9830700000000003e-26,-7.9903500000000002e-26,-7.98087e-26,-3.3581399999999999e-29,1.9946099999999999e-30,-1.96094e-30
4382.0,1.0511000000000001e-28,-7.9831699999999994e-26,-7.9903300000000006e-26,-7.9808299999999997e-26,-3.46835e-29,-1.39358e-30,-5.5316999999999998e-30
4383.0,6.5354800000000004e-29,-7.9848099999999996e-26,-7.9897200000000003e-26,-7.9837500000000004e-26,-1.7059500000000001e-29,1.06274e-29,2.2272100000000001e-30
4384.0,6.99698e-29,-7.9846999999999995e-26,-7.9898800000000005e-26,-7.9834399999999997e-26,-1.92588e-29,9.4976199999999995e-30,2.3176400000000001e-30
4385.0,7.5043299999999995e-29,-7.9844099999999996e-26,-7.9898200000000005e-26,-7.9828799999999996e-26,-2.1777e-29,8.3671699999999998e-30,1.9928100000000001e-30
4386.0,8.0056800000000005e-29,-7.9842899999999998e-26,-7.9898900000000003e-26,-7.9824699999999998e-26,-2.4354699999999999e-29,6.6905500000000001e-30,1.1674499999999999e-30
4387.0,8.3895399999999998e-29,-7.9840199999999995e-26,-7.9897399999999999e-26,-7.98195e-26,-2.6401100000000002e-29,4.5233099999999997e-30,-4.5860200000000001e-31
4388.0,8.6223000000000004e-29,-7.9840400000000002e-26,-7.9897700000000004e-26,-7.98178e-26,-2.7831999999999998e-29,1.8441199999999998e-30,-2.5522900000000001e-30
4389.0,8.7922399999999995e-29,-7.9837299999999996e-26,-7.9895099999999999e-26,-7.9814300000000002e-26,-2.8619900000000002e-29,-1.1916899999999999e-30,-4.96218e-30
4390.0,5.7468199999999997e-29,-7.9853500000000002e-26,-7.9895400000000004e-26,-7.9841400000000005e-26,-1.4174399999999999e-29,9.7462399999999997e-30,-2.9838900000000002e-31
4391.0,6.0659300000000005e-29,-7.9851800000000002e-26,-7.9895500000000002e-26,-7.9838000000000005e-26,-1.58503e-29,8.6960800000000003e-30,-1.90587e-31
4392.0,6.4238000000000004e-29,-7.9850600000000003e-26,-7.9895699999999998e-26,-7.9834600000000005e-26,-1.7808899999999999e-29,7.5085900000000005e-30,-2.5551099999999999e-31
4393.0,6.7488599999999997e-29,-7.9848300000000003e-26,-7.9894300000000004e-26,-7.9829999999999994e-26,-1.96078e-29,5.9702999999999998e-30,-7.7743400000000003e-31
4394.0,7.0180199999999996e-29,-7.9847800000000002e-26,-7.9894300000000004e-26,-7.9827499999999999e-26,-2.11705e-29,4.0064100000000002e-30,-1.7013500000000001e-30
4395.0,7.1733200000000005e-29,-7.9845500000000003e-26,-7.9892100000000002e-26,-7.9823900000000003e-26,-2.2098599999999999e-29,1.7230399999999999e-30,-2.9700800000000001e-30
4396.0,7.1920500000000003e-29,-7.9846500000000005e-26,-7.9891799999999997e-26,-7.9823900000000003e-26,-2.25377e-29,-7.2357799999999997e-31,-4.4446600000000002e-30
4397.0,5.11659e-29,-7.9857300000000005e-26,-7.9893599999999995e-26,-7.9844199999999994e-26,-1.14613e-29,9.0359499999999999e-30,-2.2148299999999999e-30
4398.0,5.3251099999999997e-29,-7.9856499999999998e-26,-7.98939e-26,-7.9842000000000004e-26,-1.2716800000000001e-29,8.0220900000000002e-30,-1.99484e-30
4399.0,5.5409900000000001e-29,-7.98547e-26,-7.98928e-26,-7.9838499999999995e-26,-1.40358e-29,6.9129900000000003e-30,-1.9467400000000001e-30
4400.0,5.74827e-29,-7.9853900000000005e-26,-7.9892299999999998e-26,-7.9835800000000003e-26,-1.5306299999999999e-29,5.4661500000000003e-30,-2.1175e-30
4401.0,5.8984100000000005e-29,-7.9851800000000002e-26,-7.9890400000000002e-26,-7.9832199999999996e-26,-1.6205700000000001e-29,3.7660399999999999e-30,-2.63236e-30
4402.0,5.9905099999999996e-29,-7.9851800000000002e-26,-7.9890099999999997e-26,-7.9830999999999997e-26,-1.6904899999999999e-29,1.7270599999999999e-30,-3.2744800000000003e-30
4403.0,5.9426800000000005e-29,-7.9849699999999998e-26,-7.9887400000000005e-26,-7.98286e-26,-1.65662e-29,-4.9974799999999997e-31,-3.9114600000000001e-30
4404.0,4.6777000000000002e-29,-7.9859999999999997e-26,-7.9892500000000006e-26,-7.9846399999999996e-26,-9.1194599999999994e-30,8.61343e-30,-3.5263199999999997e-30
4405.0,4.7741600000000001e-29,-7.9858899999999996e-26,-7.9891699999999999e-26,-7.9844300000000004e-26,-9.9426100000000002e-30,7.7774300000000003e-30,-3.28496e-30
4406.0,4.8925899999999998e-29,-7.9858199999999999e-26,-7.98911e-26,-7.9842000000000004e-26,-1.08777e-29,6.6781600000000007e-30,-3.13455e-30
4407.0,5.0087199999999999e-29,-7.9856499999999998e-26,-7.9889499999999997e-26,-7.98388e-26,-1.16734e-29,5.3002300000000002e-30,-3.0871100000000001e-30
4408.0,5.10058e-29,-7.9856099999999995e-26,-7.9888999999999996e-26,-7.9837000000000002e-26,-1.2348399999999999e-29,3.6257100000000001e-30,-3.19218e-30
4409.0,5.1250899999999995e-29,-7.9854199999999999e-26,-7.9886900000000004e-26,-7.9834399999999997e-26,-1.2513799999999999e-29,1.8097199999999998e-30,-3.4755200000000002e-30
4410.0,5.1053300000000002e-29,-7.98547e-26,-7.9887199999999998e-26,-7.9834800000000001e-26,-1.24537e-29,-6.0049699999999999e-32,-3.7777999999999998e-30
4411.0,1.1127999999999999e-28,-7.9817600000000004e-26,-7.9907799999999995e-26,-7.9816699999999999e-26,-2.87183e-29,1.4708299999999999e-29,1.8505199999999999e-29
4412.0,1.24988e-28,-7.9813399999999997e-26,-7.9912699999999999e-26,-7.9809100000000003e-26,-3.3790399999999998e-29,1.49694e-29,2.0096800000000001e-29
4413.0,1.43635e-28,-7.9805200000000002e-26,-7.9917600000000004e-26,-7.9794900000000003e-26,-4.0660999999999998e-29,1.4080699999999999e-29,1.9885700000000001e-29
4414.0,1.6138699999999999e-28,-7.9800500000000005e-26,-7.9924699999999998e-26,-7.9784000000000006e-26,-4.8125200000000002e-29,1.2232599999999999e-29,1.7249200000000001e-29
4415.0,1.77183e-28,-7.9794300000000004e-26,-7.99297e-26,-7.9771000000000004e-26,-5.4278199999999995e-29,8.2871900000000002e-30,1.04619e-29
4416.0,1.8593200000000001e-28,-7.9792999999999996e-26,-7.9933500000000004e-26,-7.9766299999999996e-26,-5.8705799999999997e-29,3.3564799999999998e-30,1.0257899999999999e-30
4417.0,1.89956e-28,-7.9790199999999995e-26,-7.9932799999999995e-26,-7.9762899999999996e-26,-5.9958199999999997e-29,-2.81389e-30,-9.9868700000000003e-30
4418.0,9.9266300000000005e-29,-7.9826800000000002e-26,-7.9903900000000005e-26,-7.9821100000000002e-26,-2.7436500000000003e-29,1.4392699999999999e-29,1.3656e-29
4419.0,1.1052e-28,-7.9821899999999997e-26,-7.9905600000000005e-26,-7.98121e-26,-3.2079799999999997e-29,1.4188600000000001e-29,1.41574e-29
4420.0,1.2450700000000001e-28,-7.9817899999999998e-26,-7.9909600000000005e-26,-7.9803e-26,-3.8227999999999998e-29,1.3352199999999999e-29,1.4100800000000001e-29
4421.0,1.3898499999999999e-28,-7.9812600000000002e-26,-7.9912299999999996e-26,-7.9791199999999998e-26,-4.4736000000000002e-29,1.12412e-29,1.16824e-29
4422.0,1.50363e-28,-7.9810700000000006e-26,-7.9916099999999999e-26,-7.97837e-26,-5.0396099999999999e-29,7.72011e-30,6.7442300000000001e-30
4423.0,1.5824100000000001e-28,-7.9807500000000001e-26,-7.9916500000000003e-26,-7.9776599999999994e-26,-5.4201800000000005e-29,2.9726499999999999e-30,-4.0952299999999996e-31
4424.0,1.61267e-28,-7.9808199999999999e-26,-7.9916400000000005e-26,-7.9775500000000005e-26,-5.6212500000000004e-29,-2.7567500000000001e-30,-8.1959300000000002e-30
4425.0,8.7734000000000003e-29,-7.9834000000000005e-26,-7.9899099999999999e-26,-7.9823699999999995e-26,-2.50716e-29,1.35252e-29,9.0543899999999999e-30
4426.0,9.6397400000000005e-29,-7.9831200000000005e-26,-7.9900999999999995e-26,-7.98178e-26,-2.9031300000000002e-29,1.3053300000000001e-29,9.4270200000000001e-30
4427.0,1.07092e-28,-7.98269e-26,-7.9901700000000003e-26,-7.9808500000000004e-26,-3.4051200000000002e-29,1.20631e-29,9.0842399999999993e-30
4428.0,1.17493e-28,-7.98246e-26,-7.9903799999999995e-26,-7.9800799999999999e-26,-3.9231899999999998e-29,1.0011099999999999e-29,7.1799299999999996e-30
4429.0,1.2596200000000001e-28,-7.9821600000000003e-26,-7.9903799999999995e-26,-7.9792600000000004e-26,-4.3618299999999999e-29,6.8132900000000004e-30,3.5572200000000003e-30
4430.0,1.3121399999999999e-28,-7.9821500000000005e-26,-7.9904399999999995e-26,-7.97888e-26,-4.66988e-29,2.5543499999999999e-30,-1.4176700000000001e-30
4431.0,1.34672e-28,-7.9818499999999997e-26,-7.9902200000000005e-26,-7.9784899999999999e-26,-4.83819e-29,-2.44308e-30,-7.1807399999999998e-30
4432.0,7.6831699999999999e-29,-7.9841000000000002e-26,-7.9896100000000002e-26,-7.9828099999999998e-26,-2.19161e-29,1.24688e-29,5.1798799999999997e-30
4433.0,8.3273100000000003e-29,-7.9838200000000001e-26,-7.9896100000000002e-26,-7.9822300000000001e-26,-2.5131299999999999e-29,1.18301e-29,5.3676299999999997e-30
4434.0,9.1253799999999999e-29,-7.9835900000000001e-26,-7.9896999999999995e-26,-7.9815900000000004e-26,-2.9135000000000002e-29,1.0652699999999999e-29,5.10564e-30
4435.0,9.8620400000000002e-29,-7.9833000000000003e-26,-7.9896399999999996e-26,-7.9808399999999995e-26,-3.3040499999999998e-29,8.6684199999999995e-30,3.6808700000000003e-30
4436.0,1.0445900000000001e-28,-7.9832300000000005e-26,-7.9896899999999997e-26,-7.9803500000000002e-26,-3.6299100000000003e-29,5.77613e-30,1.1481099999999999e-30
4437.0,1.08204e-28,-7.9830100000000004e-26,-7.9895000000000001e-26,-7.9798699999999995e-26,-3.8462299999999999e-29,2.16052e-30,-2.2328900000000002e-30
4438.0,1.0967799999999999e-28,-7.9831200000000005e-26,-7.9894099999999996e-26,-7.9797800000000002e-26,-3.97461e-29,-1.9404099999999999e-30,-5.9197699999999999e-30
4439.0,6.6937100000000003e-29,-7.9846799999999999e-26,-7.9893300000000001e-26,-7.9832199999999996e-26,-1.8469299999999999e-29,1.13006e-29,1.9370100000000001e-30
4440.0,7.16814e-29,-7.9845099999999999e-26,-7.9893599999999995e-26,-7.9828e-26,-2.0998800000000001e-29,1.05382e-29,2.14803e-30
4441.0,7.7019400000000001e-29,-7.9842600000000004e-26,-7.9892600000000004e-26,-7.9822100000000005e-26,-2.39035e-29,9.3180599999999996e-30,1.97646e-30
4442.0,8.2066199999999997e-29,-7.9841299999999996e-26,-7.9892399999999996e-26,-7.9817100000000002e-26,-2.6677500000000002e-29,7.4940400000000003e-30,1.0444999999999999e-30
4443.0,8.5705800000000005e-29,-7.9839300000000002e-26,-7.9890599999999998e-26,-7.9812000000000002e-26,-2.8816500000000002e-29,4.9913899999999999e-30,-6.0498300000000002e-31
4444.0,8.7948099999999996e-29,-7.9839499999999998e-26,-7.9889999999999999e-26,-7.9809700000000003e-26,-3.0278500000000001e-29,1.97798e-30,-2.7372599999999998e-30
4445.0,8.8901200000000005e-29,-7.9836900000000004e-26,-7.9887400000000005e-26,-7.9806599999999997e-26,-3.0665500000000002e-29,-1.4519800000000001e-30,-5.0745300000000003e-30
4446.0,5.8933099999999997e-29,-7.9851499999999996e-26,-7.9891600000000001e-26,-7.9835999999999999e-26,-1.5100500000000001e-29,1.02556e-29,-5.1183000000000004e-31
4447.0,6.1949600000000003e-29,-7.9849900000000006e-26,-7.9891000000000002e-26,-7.9832500000000001e-26,-1.69534e-29,9.46713e-30,-2.0371699999999998e-31
4448.0,6.5556200000000001e-29,-7.9848499999999999e-26,-7.98905e-26,-7.9828400000000004e-26,-1.89377e-29,8.3062500000000005e-30,-3.0653699999999999e-31
4449.0,6.8616200000000003e-29,-7.9846600000000003e-26,-7.9888899999999998e-26,-7.9823800000000005e-26,-2.08004e-29,6.6107600000000005e-30,-8.8008199999999994e-31
4450.0,7.1050999999999998e-29,-7.98462e-26,-7.9888299999999999e-26,-7.9820699999999999e-26,-2.22608e-29,4.3853100000000001e-30,-1.7804500000000002e-30
4451.0,7.2325199999999999e-29,-7.9844199999999994e-26,-7.9886099999999997e-26,-7.9817299999999998e-26,-2.2970800000000001e-29,1.8970600000000002e-30,-3.1033900000000001e-30
4452.0,7.2235999999999996e-29,-7.9845099999999999e-26,-7.98854e-26,-7.9817299999999998e-26,-2.33046e-29,-8.2508500000000006e-31,-4.50814e-30
4453.0,5.3391599999999995e-29,-7.9854999999999994e-26,-7.9890699999999996e-26,-7.9839300000000002e-26,-1.2721600000000001e-29,9.4517000000000007e-30,-1.87152e-30
4454.0,5.5348099999999999e-29,-7.98536e-26,-7.9889900000000001e-26,-7.9836300000000005e-26,-1.3826800000000001e-29,8.8078000000000004e-30,-1.84592e-30
4455.0,5.7399299999999998e-29,-7.9852099999999996e-26,-7.9888600000000004e-26,-7.9832699999999997e-26,-1.5207999999999999e-29,7.6020099999999999e-30,-1.8053700000000001e-30
4456.0,5.9290399999999997e-29,-7.9851100000000004e-26,-7.9887600000000001e-26,-7.9829500000000004e-26,-1.6381799999999999e-29,6.0246399999999999e-30,-2.0356299999999999e-30
4457.0,6.0610600000000003e-29,-7.9849500000000002e-26,-7.9885800000000003e-26,-7.9825999999999995e-26,-1.7181199999999999e-29,4.1183000000000003e-30,-2.6124300000000002e-30
4458.0,6.1512599999999997e-29,-7.9849400000000004e-26,-7.9885099999999994e-26,-7.9824500000000002e-26,-1.7854100000000001e-29,1.88142e-30,-3.2687800000000003e-30
4459.0,6.0750100000000002e-29,-7.9847399999999999e-26,-7.9882699999999997e-26,-7.9822300000000001e-26,-1.7169500000000001e-29,-6.1751200000000004e-31,-3.9637199999999998e-30
4460.0,3.6236900000000002e-29,-7.9957599999999999e-26,-7.9935200000000004e-26,-7.9958600000000002e-26,-5.7179199999999999e-30,-4.8666800000000001e-30,1.43563e-29
4461.0,3.5792400000000001e-29,-7.9950100000000001e-26,-7.9930700000000003e-26,-7.9952699999999995e-26,-5.7528299999999999e-30,-5.0347900000000002e-30,1.49603e-29
4462.0,3.2383400000000002e-29,-7.9943599999999995e-26,-7.9929399999999995e-26,-7.9946000000000004e-26,-5.5395599999999999e-30,-5.5236900000000003e-30,1.4424800000000001e-29
4463.0,3.0839900000000003e-29,-7.9934100000000003e-26,-7.9924199999999996e-26,-7.9937000000000002e-26,-5.7082099999999998e-30,-5.6538199999999999e-30,1.4412800000000001e-29
4464.0,2.7720399999999998e-29,-7.9927099999999995e-26,-7.99229e-26,-7.9929600000000002e-26,-5.53954e-30,-6.1468499999999997e-30,1.3272699999999999e-29
4465.0,2.6312200000000002e-29,-7.9916199999999997e-26,-7.9917299999999998e-26,-7.9918599999999995e-26,-5.9207200000000001e-30,-6.3372600000000005e-30,1.24149e-29
4466.0,2.5319500000000001e-29,-7.9908399999999994e-26,-7.9915699999999996e-26,-7.9910099999999994e-26,-5.7017600000000001e-30,-6.8036199999999995e-30,1.09693e-29
4467.0,3.41456e-29,-7.9954000000000003e-26,-7.9932599999999999e-26,-7.9955200000000001e-26,-5.6059200000000003e-30,-4.3232999999999998e-30,1.3292600000000001e-29
4468.0,3.1404599999999997e-29,-7.9948800000000005e-26,-7.9931499999999998e-26,-7.9949900000000005e-26,-5.2150499999999999e-30,-4.5803499999999998e-30,1.31993e-29
4469.0,2.9707600000000002e-29,-7.9939999999999999e-26,-7.9926600000000005e-26,-7.9942000000000004e-26,-5.4080199999999999e-30,-4.7408899999999999e-30,1.31421e-29
4470.0,2.65001e-29,-7.9933500000000004e-26,-7.9925600000000003e-26,-7.9935099999999994e-26,-5.1562800000000001e-30,-5.0223099999999997e-30,1.2488999999999999e-29
4471.0,2.4683199999999999e-29,-7.99229e-26,-7.9919800000000005e-26,-7.9925199999999999e-26,-5.4672499999999999e-30,-5.1669599999999997e-30,1.1801699999999999e-29
4472.0,2.2815000000000001e-29,-7.9915800000000006e-26,-7.9918999999999998e-26,-7.99172e-26,-5.3593200000000001e-30,-5.5893899999999999e-30,1.0535599999999999e-29
4473.0,2.2811399999999999e-29,-7.9903699999999997e-26,-7.9912899999999995e-26,-7.9906099999999995e-26,-6.0350799999999997e-30,-5.6828799999999998e-30,9.0613100000000005e-30
4474.0,3.73205e-29,-7.9957799999999995e-26,-7.9935200000000004e-26,-7.9959000000000005e-26,-7.4433299999999997e-30,-5.0239399999999999e-30,1.4279299999999999e-29
4475.0,3.53701e-29,-7.9951399999999998e-26,-7.99331e-26,-7.9953099999999998e-26,-7.4678000000000006e-30,-5.2925999999999998e-30,1.4486300000000001e-29
4476.0,3.3788699999999998e-29,-7.9943499999999997e-26,-7.9929299999999997e-26,-7.9945799999999996e-26,-7.6263399999999999e-30,-5.5591999999999999e-30,1.4548499999999999e-29
4477.0,3.1161700000000001e-29,-7.9936500000000001e-26,-7.9927200000000005e-26,-7.9938700000000002e-26,-7.7590100000000002e-30,-5.7219799999999998e-30,1.39161e-29
4478.0,2.9263899999999998e-29,-7.9927200000000005e-26,-7.99229e-26,-7.9929399999999995e-26,-7.97936e-30,-5.8748399999999998e-30,1.3283799999999999e-29
4479.0,2.7173200000000002e-29,-7.99195e-26,-7.9920799999999996e-26,-7.9921000000000004e-26,-8.1011999999999999e-30,-5.91808e-30,1.20325e-29
4480.0,2.6490000000000002e-29,-7.9907199999999996e-26,-7.9915300000000004e-26,-7.9908799999999998e-26,-8.2168000000000006e-30,-6.0951599999999997e-30,1.05445e-29
4481.0,3.3226999999999999e-29,-7.9954000000000003e-26,-7.9934000000000005e-26,-7.9954500000000004e-26,-6.8752699999999994e-30,-4.3895299999999999e-30,1.2804300000000001e-29
4482.0,3.1651899999999998e-29,-7.9947499999999996e-26,-7.9930899999999999e-26,-7.9948599999999997e-26,-6.8716500000000005e-30,-4.5986599999999997e-30,1.29329e-29
4483.0,2.9213700000000003e-29,-7.9941099999999999e-26,-7.9928900000000005e-26,-7.9942399999999996e-26,-6.9340099999999994e-30,-4.6884800000000002e-30,1.26214e-29
4484.0,2.7185e-29,-7.9932199999999996e-26,-7.9924699999999998e-26,-7.99337e-26,-7.0833200000000002e-30,-4.86419e-30,1.2218200000000001e-29
4485.0,2.4863499999999999e-29,-7.9924900000000005e-26,-7.9922800000000002e-26,-7.9926200000000002e-26,-7.2106199999999997e-30,-4.9221399999999997e-30,1.12653e-29
4486.0,2.37448e-29,-7.9914300000000001e-26,-7.9917999999999996e-26,-7.9915900000000004e-26,-7.4495399999999997e-30,-5.0758199999999998e-30,1.0162e-29
4487.0,2.3856600000000001e-29,-7.9906599999999996e-26,-7.9916500000000003e-26,-7.9907500000000001e-26,-7.3917400000000001e-30,-5.2674599999999997e-30,8.7818700000000001e-30
4488.0,3.7157999999999999e-29,-7.9957699999999997e-26,-7.9936400000000003e-26,-7.9958299999999996e-26,-8.9598200000000004e-30,-5.1790500000000003e-30,1.4036400000000001e-29
4489.0,3.5921900000000003e-29,-7.9951100000000004e-26,-7.9933500000000004e-26,-7.9952300000000003e-26,-9.2265699999999998e-30,-5.4143899999999999e-30,1.4316599999999999e-29
4490.0,3.39661e-29,-7.9944300000000004e-26,-7.9931099999999995e-26,-7.9945699999999998e-26,-9.4228400000000007e-30,-5.5575399999999998e-30,1.4150400000000001e-29
4491.0,3.2247200000000002e-29,-7.9935999999999999e-26,-7.9927499999999999e-26,-7.9937500000000003e-26,-9.7570300000000002e-30,-5.6890999999999997e-30,1.3774699999999999e-29
4492.0,3.0071299999999998e-29,-7.9928500000000001e-26,-7.9925199999999999e-26,-7.9929600000000002e-26,-9.9823499999999996e-30,-5.6148999999999999e-30,1.28372e-29
4493.0,2.8691700000000002e-29,-7.9918200000000003e-26,-7.99206e-26,-7.9919300000000004e-26,-1.01617e-29,-5.6473900000000002e-30,1.17399e-29
4494.0,2.7626e-29,-7.9909100000000003e-26,-7.9917999999999996e-26,-7.9909700000000003e-26,-9.8690100000000006e-30,-5.3771499999999999e-30,1.01899e-29
4495.0,3.3059999999999999e-29,-7.9953e-26,-7.9934200000000001e-26,-7.9953400000000003e-26,-8.2945999999999994e-30,-4.4226299999999998e-30,1.24627e-29
4496.0,3.1284300000000002e-29,-7.9947499999999996e-26,-7.9932300000000005e-26,-7.9948200000000005e-26,-8.3740799999999996e-30,-4.5132199999999998e-30,1.24537e-29
4497.0,2.95564e-29,-7.9939999999999999e-26,-7.9928900000000005e-26,-7.9940900000000003e-26,-8.5765800000000004e-30,-4.6418000000000003e-30,1.23206e-29
4498.0,2.7483200000000002e-29,-7.9933000000000002e-26,-7.9926800000000001e-26,-7.9934000000000005e-26,-8.7988799999999998e-30,-4.6283700000000003e-30,1.17292e-29
4499.0,2.6022100000000001e-29,-7.9923800000000005e-26,-7.9922800000000002e-26,-7.9924900000000005e-26,-9.0221300000000001e-30,-4.7210400000000001e-30,1.0995999999999999e-29
4500.0,2.49323e-29,-7.9916099999999999e-26,-7.9920899999999994e-26,-7.9917000000000004e-26,-9.1779800000000002e-30,-4.6173600000000001e-30,9.7544200000000006e-30
4501.0,2.53844e-29,-7.9904600000000002e-26,-7.9915900000000004e-26,-7.9906200000000004e-26,-9.3906100000000001e-30,-4.6807600000000002e-30,8.1989700000000001e-30
4502.0,3.6962200000000001e-29,-7.9956800000000004e-26,-7.9937000000000002e-26,-7.9957e-26,-1.0464799999999999e-29,-5.0701800000000002e-30,1.37087e-29
4503.0,3.5808500000000003e-29,-7.9950700000000001e-26,-7.9934600000000004e-26,-7.99513e-26,-1.0728899999999999e-29,-5.2761699999999998e-30,1.3959599999999999e-29
4504.0,3.4370200000000001e-29,-7.9943499999999997e-26,-7.9931599999999996e-26,-7.9944200000000006e-26,-1.1182899999999999e-29,-5.3312199999999997e-30,1.3804500000000001e-29
4505.0,3.2695700000000002e-29,-7.9936300000000005e-26,-7.9929100000000001e-26,-7.9936799999999994e-26,-1.14881e-29,-5.2877599999999997e-30,1.3327099999999999e-29
4506.0,3.1242299999999998e-29,-7.9927499999999999e-26,-7.9925399999999995e-26,-7.9927900000000002e-26,-1.1828e-29,-5.1806999999999998e-30,1.25208e-29
4507.0,2.9851200000000002e-29,-7.9919099999999996e-26,-7.9922700000000004e-26,-7.9919200000000006e-26,-1.19079e-29,-4.8039100000000002e-30,1.13124e-29
4508.0,2.9342300000000001e-29,-7.9907599999999999e-26,-7.99178e-26,-7.9908199999999998e-26,-1.18284e-29,-4.7534100000000002e-30,9.5880400000000003e-30
4509.0,3.2691700000000002e-29,-7.9952099999999995e-26,-7.9934999999999996e-26,-7.9952099999999995e-26,-9.6370299999999996e-30,-4.3713500000000002e-30,1.2091700000000001e-29
4510.0,3.1281400000000002e-29,-7.9946299999999998e-26,-7.9932599999999999e-26,-7.9946500000000005e-26,-9.8550399999999994e-30,-4.3992699999999999e-30,1.20778e-29
4511.0,2.9666700000000003e-29,-7.9939800000000003e-26,-7.99303e-26,-7.9940300000000004e-26,-1.00889e-29,-4.3849300000000002e-30,1.18547e-29
4512.0,2.82163e-29,-7.9931900000000002e-26,-7.9926999999999997e-26,-7.9932300000000005e-26,-1.03929e-29,-4.3855599999999997e-30,1.1378e-29
4513.0,2.69058e-29,-7.9924400000000004e-26,-7.9924699999999998e-26,-7.9924799999999996e-26,-1.06277e-29,-4.2153300000000001e-30,1.0514e-29
4514.0,2.6457500000000002e-29,-7.9914700000000005e-26,-7.9920799999999996e-26,-7.9915300000000004e-26,-1.08026e-29,-4.1284699999999999e-30,9.4009900000000002e-30
4515.0,2.6650200000000003e-29,-7.9906900000000002e-26,-7.99189e-26,-7.9907099999999998e-26,-1.06231e-29,-3.8766299999999998e-30,7.8638400000000003e-30
4516.0,3.6551699999999999e-29,-7.9955499999999995e-26,-7.9937600000000001e-26,-7.9955299999999999e-26,-1.176e-29,-4.9002999999999999e-30,1.3325600000000001e-29
4517.0,3.5711699999999998e-29,-7.9949500000000002e-26,-7.9935200000000004e-26,-7.9949500000000002e-26,-1.2285299999999999e-29,-4.9223900000000001e-30,1.3488999999999999e-29
4518.0,3.4516700000000002e-29,-7.9942899999999997e-26,-7.9932799999999995e-26,-7.9942999999999995e-26,-1.2648700000000001e-29,-4.9228600000000002e-30,1.33503e-29
4519.0,3.3397199999999998e-29,-7.9935300000000002e-26,-7.9929600000000002e-26,-7.9935200000000004e-26,-1.3145600000000001e-29,-4.7599300000000003e-30,1.28811e-29
4520.0,3.2098000000000003e-29,-7.9927599999999997e-26,-7.9926899999999999e-26,-7.9927200000000005e-26,-1.3372100000000001e-29,-4.4304300000000001e-30,1.20365e-29
4521.0,3.1268499999999998e-29,-7.9917899999999998e-26,-7.99229e-26,-7.9917600000000004e-26,-1.3461500000000001e-29,-4.1393300000000001e-30,1.0892299999999999e-29
4522.0,3.0433500000000001e-29,-7.9909399999999997e-26,-7.9920000000000001e-26,-7.9908500000000004e-26,-1.30426e-29,-3.4444800000000002e-30,9.2484600000000002e-30
4523.0,3.2394899999999997e-29,-7.9950700000000001e-26,-7.99354e-26,-7.9950399999999995e-26,-1.09728e-29,-4.1355499999999997e-30,1.16499e-29
4524.0,3.1210299999999997e-29,-7.9945400000000004e-26,-7.9933399999999994e-26,-7.9945299999999995e-26,-1.11406e-29,-4.1383899999999998e-30,1.16661e-29
4525.0,3.0037699999999998e-29,-7.9938600000000004e-26,-7.9930700000000003e-26,-7.9938600000000004e-26,-1.15359e-29,-4.0428799999999999e-30,1.14183e-29
4526.0,2.8815999999999997e-29,-7.9931700000000006e-26,-7.9928400000000003e-26,-7.9931800000000004e-26,-1.1811099999999999e-29,-3.8657700000000003e-30,1.0892299999999999e-29
4527.0,2.81075e-29,-7.9923400000000001e-26,-7.9925100000000001e-26,-7.9923300000000003e-26,-1.2084000000000001e-29,-3.6691500000000002e-30,1.01389e-29
4528.0,2.77559e-29,-7.9915699999999996e-26,-7.99229e-26,-7.99155e-26,-1.21762e-29,-3.2736600000000003e-30,8.9380200000000003e-30
4529.0,2.86414e-29,-7.9905200000000002e-26,-7.9918800000000002e-26,-7.9905800000000001e-26,-1.22714e-29,-3.0362700000000001e-30,7.4097899999999997e-30
4530.0,3.62185e-29,-7.9953900000000005e-26,-7.9938299999999999e-26,-7.9953400000000003e-26,-1.3130200000000001e-29,-4.5322500000000002e-30,1.2847899999999999e-29
4531.0,3.5604099999999998e-29,-7.9948400000000001e-26,-7.9935999999999999e-26,-7.9948099999999996e-26,-1.35158e-29,-4.54925e-30,1.30164e-29
4532.0,3.4817199999999998e-29,-7.9941899999999995e-26,-7.9933500000000004e-26,-7.9941500000000003e-26,-1.41036e-29,-4.3522100000000002e-30,1.2796699999999999e-29
4533.0,3.3881400000000002e-29,-7.99348e-26,-7.9930800000000001e-26,-7.9934200000000001e-26,-1.4446499999999999e-29,-4.06601e-30,1.2361799999999999e-29
4534.0,3.3105599999999999e-29,-7.9926700000000003e-26,-7.9927599999999997e-26,-7.9925799999999999e-26,-1.47697e-29,-3.6188500000000001e-30,1.1546400000000001e-29
4535.0,3.2316800000000003e-29,-7.9918399999999999e-26,-7.9924500000000002e-26,-7.9917100000000002e-26,-1.4713400000000001e-29,-2.9661300000000002e-30,1.0344299999999999e-29
4536.0,3.2096399999999998e-29,-7.9907900000000004e-26,-7.9920400000000004e-26,-7.9907500000000001e-26,-1.4492899999999999e-29,-2.54795e-30,8.5233999999999997e-30
4537.0,3.2251899999999998e-29,-7.9949500000000002e-26,-7.9935900000000001e-26,-7.9948900000000002e-26,-1.20083e-29,-3.9311699999999998e-30,1.1329e-29
4538.0,3.14168e-29,-7.9944300000000004e-26,-7.9934000000000005e-26,-7.99439e-26,-1.2401100000000001e-29,-3.7914500000000003e-30,1.1250699999999999e-29
4539.0,3.0462899999999999e-29,-7.9938200000000001e-26,-7.9931800000000004e-26,-7.9937899999999995e-26,-1.2710000000000001e-29,-3.6376100000000002e-30,1.1025e-29
4540.0,2.9752299999999998e-29,-7.9930899999999999e-26,-7.9929000000000003e-26,-7.9930499999999995e-26,-1.3120500000000001e-29,-3.3615299999999998e-30,1.05186e-29
4541.0,2.9207099999999999e-29,-7.9923599999999997e-26,-7.9926600000000005e-26,-7.9923099999999996e-26,-1.3328200000000001e-29,-2.9562899999999999e-30,9.7138000000000006e-30
4542.0,2.9325800000000001e-29,-7.9914700000000005e-26,-7.9923300000000003e-26,-7.9914300000000001e-26,-1.3404099999999999e-29,-2.59016e-30,8.6229200000000003e-30
4543.0,2.9892399999999998e-29,-7.9907099999999998e-26,-7.99212e-26,-7.9906200000000004e-26,-1.3089200000000001e-29,-1.98998e-30,7.1936200000000006e-30
4544.0,3.5991900000000002e-29,-7.9952499999999999e-26,-7.9938700000000002e-26,-7.9951999999999997e-26,-1.4055099999999999e-29,-4.26553e-30,1.2444999999999999e-29
4545.0,3.5581600000000001e-29,-7.9947499999999996e-26,-7.9936799999999994e-26,-7.9946899999999997e-26,-1.4676900000000001e-29,-4.0522799999999999e-30,1.2406800000000001e-29
4546.0,3.49894e-29,-7.9941199999999997e-26,-7.9934399999999997e-26,-7.9940599999999998e-26,-1.51403e-29,-3.7460599999999999e-30,1.22674e-29
4547.0,3.44065e-29,-7.9934100000000003e-26,-7.9931599999999996e-26,-7.9933199999999998e-26,-1.56489e-29,-3.2834999999999998e-30,1.17196e-29
4548.0,3.3815499999999998e-29,-7.99263e-26,-7.9928699999999997e-26,-7.9925100000000001e-26,-1.58167e-29,-2.7016200000000001e-30,1.09754e-29
4549.0,3.3442600000000001e-29,-7.9917500000000006e-26,-7.9925299999999997e-26,-7.9916400000000005e-26,-1.5795199999999999e-29,-1.9807200000000001e-30,9.7879199999999994e-30
4550.0,3.3218299999999998e-29,-7.9909100000000003e-26,-7.9921999999999995e-26,-7.9906700000000006e-26,-1.51831e-29,-1.0840200000000001e-30,8.2577299999999999e-30
4551.0,3.21695e-29,-7.9948599999999997e-26,-7.9936500000000001e-26,-7.9947700000000004e-26,-1.29227e-29,-3.61753e-30,1.09305e-29
4552.0,3.1606299999999997e-29,-7.9943700000000004e-26,-7.9934700000000002e-26,-7.9943200000000003e-26,-1.32466e-29,-3.5186200000000003e-30,1.09251e-29
4553.0,3.10271e-29,-7.9937699999999999e-26,-7.9932500000000001e-26,-7.99371e-26,-1.37651e-29,-3.2241099999999998e-30,1.06331e-29
4554.0,3.0502500000000002e-29,-7.9930700000000003e-26,-7.9930000000000006e-26,-7.9930200000000002e-26,-1.4078300000000001e-29,-2.8479200000000002e-30,1.01827e-29
4555.0,3.0291399999999999e-29,-7.9922999999999998e-26,-7.9927300000000003e-26,-7.99223e-26,-1.4314599999999999e-29,-2.3559900000000001e-30,9.3927299999999996e-30
4556.0,3.0504999999999998e-29,-7.9915199999999995e-26,-7.9924699999999998e-26,-7.9914300000000001e-26,-1.43264e-29,-1.7180899999999999e-30,8.2754399999999996e-30
4557.0,3.1581700000000002e-29,-7.9905899999999999e-26,-7.9921500000000005e-26,-7.9905700000000003e-26,-1.4259299999999999e-29,-1.0936999999999999e-30,6.7676399999999998e-30
4558.0,2.10371e-29,-7.9904799999999998e-26,-7.9915699999999996e-26,-7.9905600000000005e-26,-5.5366100000000003e-30,-5.04003e-30,7.3783900000000005e-30
4559.0,1.97391e-29,-7.9900299999999997e-26,-7.9912699999999999e-26,-7.9902599999999997e-26,-6.3218899999999995e-30,-3.9966700000000002e-30,5.5016599999999998e-30
4560.0,1.9546999999999999e-29,-7.9902800000000004e-26,-7.9917100000000002e-26,-7.9902300000000003e-26,-5.4646199999999997e-30,-3.4317300000000002e-30,3.9475500000000001e-30
4561.0,2.0035800000000001e-29,-7.9897700000000004e-26,-7.9913200000000001e-26,-7.9899500000000002e-26,-6.9857900000000004e-30,-2.5968500000000001e-30,2.5277200000000001e-30
4562.0,2.06924e-29,-7.9902200000000005e-26,-7.9919400000000002e-26,-7.9899799999999996e-26,-4.90194e-30,-1.7730900000000001e-30,8.3878200000000004e-31
4563.0,2.2617000000000001e-29,-7.9894699999999996e-26,-7.9912600000000001e-26,-7.9896999999999995e-26,-8.4807999999999996e-30,-1.7489599999999999e-30,6.23968e-31
4564.0,2.37052e-29,-7.9905399999999998e-26,-7.9925399999999995e-26,-7.9902300000000003e-26,-1.8617299999999999e-30,2.3821500000000001e-30,-4.5569500000000001e-30
4565.0,2.01981e-29,-7.9911900000000004e-26,-7.9916000000000001e-26,-7.9913899999999998e-26,-5.61537e-30,-4.5996499999999997e-30,8.8894299999999993e-30
4566.0,1.7527000000000001e-29,-7.9913600000000004e-26,-7.9919300000000004e-26,-7.9913899999999998e-26,-5.1804400000000001e-30,-3.8678400000000001e-30,7.0960099999999997e-30
4567.0,1.6034400000000001e-29,-7.9910099999999994e-26,-7.9916199999999997e-26,-7.9911300000000005e-26,-5.7415699999999999e-30,-3.1561799999999997e-30,5.6737300000000002e-30
4568.0,1.3766999999999999e-29,-7.9913100000000003e-26,-7.99206e-26,-7.9912299999999996e-26,-4.8912900000000003e-30,-2.3018500000000002e-30,3.6046199999999999e-30
4569.0,1.45398e-29,-7.99087e-26,-7.9916799999999997e-26,-7.9909399999999997e-26,-6.0930899999999999e-30,-2.0885699999999999e-30,2.9434499999999999e-30
4570.0,1.19375e-29,-7.9913700000000002e-26,-7.99223e-26,-7.9912299999999996e-26,-4.2255999999999999e-30,-3.36578e-31,-5.5047499999999999e-31
4571.0,1.7213999999999999e-29,-7.9907199999999996e-26,-7.9920500000000002e-26,-7.9906599999999996e-26,-5.8292400000000003e-30,-1.6568100000000001e-30,-3.9316499999999998e-31
4572.0,2.0922799999999999e-29,-7.9923499999999999e-26,-7.9922100000000004e-26,-7.9924500000000002e-26,-5.05463e-30,-4.4550600000000003e-30,9.95322e-30
4573.0,1.8556699999999999e-29,-7.9920799999999996e-26,-7.99195e-26,-7.9921999999999995e-26,-5.2894099999999998e-30,-3.7005200000000002e-30,8.4571299999999997e-30
4574.0,1.48816e-29,-7.9923200000000005e-26,-7.9922800000000002e-26,-7.9923099999999996e-26,-4.78382e-30,-2.90871e-30,6.5143199999999996e-30
4575.0,1.36916e-29,-7.9920400000000004e-26,-7.9920299999999995e-26,-7.99206e-26,-5.2314200000000003e-30,-2.5401799999999999e-30,5.3511899999999997e-30
4576.0,9.4292400000000006e-30,-7.9923699999999995e-26,-7.9923800000000005e-26,-7.99229e-26,-4.4787400000000002e-30,-1.4092299999999999e-30,2.7121000000000001e-30
4577.0,1.00492e-29,-7.9920000000000001e-26,-7.9922200000000002e-26,-7.99189e-26,-4.9892199999999999e-30,-1.6610100000000001e-30,1.8222899999999999e-30
4578.0,7.8750300000000005e-30,-7.9924299999999994e-26,-7.9924199999999996e-26,-7.9922100000000004e-26,-4.3695200000000001e-30,-2.1326e-31,2.1000100000000001e-32
4579.0,2.3713000000000001e-29,-7.9930399999999997e-26,-7.99229e-26,-7.9932e-26,-5.21572e-30,-4.2642599999999997e-30,1.08834e-29
4580.0,2.0196200000000001e-29,-7.9932300000000005e-26,-7.9925500000000005e-26,-7.9932699999999997e-26,-4.7941500000000003e-30,-3.5100299999999997e-30,9.1813099999999996e-30
4581.0,1.8139899999999999e-29,-7.9930399999999997e-26,-7.9923499999999999e-26,-7.9930700000000003e-26,-4.9856500000000001e-30,-3.0572099999999999e-30,7.6871500000000004e-30
4582.0,1.4704500000000001e-29,-7.9933399999999994e-26,-7.9926399999999998e-26,-7.9932900000000004e-26,-4.5318799999999997e-30,-2.1517499999999999e-30,5.6053499999999998e-30
4583.0,1.2772699999999999e-29,-7.9931200000000004e-26,-7.9925000000000003e-26,-7.9930000000000006e-26,-4.6839600000000001e-30,-2.0510699999999999e-30,4.18465e-30
4584.0,1.08546e-29,-7.9934399999999997e-26,-7.9927099999999995e-26,-7.9932799999999995e-26,-4.3775800000000001e-30,-1.0191199999999999e-30,2.1126599999999999e-30
4585.0,8.7806699999999995e-30,-7.9931300000000002e-26,-7.9926399999999998e-26,-7.99297e-26,-4.3029599999999999e-30,-1.0414399999999999e-30,1.4941599999999999e-31
4586.0,2.6086899999999999e-29,-7.9940599999999998e-26,-7.9928400000000003e-26,-7.9941500000000003e-26,-4.9555900000000002e-30,-4.07441e-30,1.1479899999999999e-29
4587.0,2.3711900000000001e-29,-7.9938999999999996e-26,-7.9926700000000003e-26,-7.9939599999999995e-26,-5.0147099999999999e-30,-3.57424e-30,9.8115499999999995e-30
4588.0,2.12596e-29,-7.9941899999999995e-26,-7.9929000000000003e-26,-7.9941699999999999e-26,-4.6679700000000003e-30,-2.7962199999999999e-30,8.1851300000000004e-30
4589.0,1.8884300000000001e-29,-7.9940699999999996e-26,-7.9928099999999998e-26,-7.9939700000000005e-26,-4.6828299999999999e-30,-2.56172e-30,6.4593600000000007e-30
4590.0,1.7299499999999999e-29,-7.9943700000000004e-26,-7.9930100000000004e-26,-7.9942399999999996e-26,-4.4628999999999998e-30,-1.6932000000000002e-30,4.5131300000000002e-30
4591.0,1.4694300000000001e-29,-7.9941899999999995e-26,-7.9929500000000004e-26,-7.9939800000000003e-26,-4.29472e-30,-1.5757300000000001e-30,2.5424299999999999e-30
4592.0,1.5166999999999999e-29,-7.9944900000000003e-26,-7.9930700000000003e-26,-7.9942100000000002e-26,-4.3031399999999999e-30,-8.5055100000000008e-31,8.6024699999999992e-31
4593.0,2.90049e-29,-7.9946600000000003e-26,-7.99297e-26,-7.9947399999999998e-26,-5.20899e-30,-4.0738099999999997e-30,1.1679e-29
4594.0,2.7195699999999999e-29,-7.9949e-26,-7.9931499999999998e-26,-7.9949099999999998e-26,-4.91268e-30,-3.3700000000000001e-30,1.04228e-29
4595.0,2.4812799999999999e-29,-7.9948699999999995e-26,-7.9931099999999995e-26,-7.9947800000000002e-26,-4.8676199999999997e-30,-3.1128499999999998e-30,8.5810999999999998e-30
4596.0,2.3852000000000001e-29,-7.9952099999999995e-26,-7.9933000000000002e-26,-7.9950799999999999e-26,-4.7049999999999998e-30,-2.34366e-30,6.9253e-30
4597.0,2.1391199999999999e-29,-7.9951399999999998e-26,-7.9932699999999997e-26,-7.9949099999999998e-26,-4.5191600000000002e-30,-2.14334e-30,4.8925699999999999e-30
4598.0,2.1280899999999999e-29,-7.9954199999999999e-26,-7.9934100000000003e-26,-7.9951600000000005e-26,-4.5102399999999997e-30,-1.4575200000000001e-30,3.0498e-30
4599.0,1.90904e-29,-7.9952599999999997e-26,-7.9933799999999998e-26,-7.9949699999999998e-26,-4.1790099999999997e-30,-1.15023e-30,6.8846100000000002e-31
4600.0,3.19279e-29,-7.9954500000000004e-26,-7.9933600000000002e-26,-7.9954899999999996e-26,-5.2202699999999999e-30,-3.8189099999999998e-30,1.22027e-29
4601.0,2.9874899999999999e-29,-7.9954799999999998e-26,-7.9933500000000004e-26,-7.9954199999999999e-26,-5.1631200000000003e-30,-3.6658899999999998e-30,1.04998e-29
4602.0,2.9690699999999998e-29,-7.9958600000000002e-26,-7.99354e-26,-7.9957699999999997e-26,-5.08734e-30,-2.97573e-30,9.2733099999999994e-30
4603.0,2.74607e-29,-7.9959200000000001e-26,-7.9935700000000005e-26,-7.9956900000000002e-26,-4.8945200000000002e-30,-2.7583099999999999e-30,7.2180799999999994e-30
4604.0,2.73912e-29,-7.9962400000000005e-26,-7.9937299999999996e-26,-7.9959899999999998e-26,-4.9041000000000001e-30,-2.0888399999999998e-30,5.4306699999999999e-30
4605.0,2.5435499999999998e-29,-7.9962000000000002e-26,-7.99371e-26,-7.9958500000000004e-26,-4.5931400000000003e-30,-1.83292e-30,3.1691400000000002e-30
4606.0,2.6053799999999999e-29,-7.9964800000000003e-26,-7.9938399999999997e-26,-7.9960599999999996e-26,-4.6422799999999997e-30,-1.31433e-30,1.2526100000000001e-30
4607.0,2.2389100000000001e-29,-7.9902200000000005e-26,-7.9914300000000001e-26,-7.9904299999999997e-26,-7.5969899999999999e-30,-4.4902299999999998e-30,6.8659100000000007e-30
4608.0,2.1403600000000001e-29,-7.9903400000000004e-26,-7.99172e-26,-7.9903900000000005e-26,-7.0967299999999995e-30,-3.7003400000000003e-30,5.1903100000000003e-30
4609.0,2.1833200000000001e-29,-7.9899099999999999e-26,-7.9914999999999999e-26,-7.9900799999999999e-26,-7.7479199999999995e-30,-3.0561700000000001e-30,3.6711099999999997e-30
4610.0,2.1991900000000001e-29,-7.9901700000000003e-26,-7.9919200000000006e-26,-7.9901200000000002e-26,-6.8501700000000006e-30,-2.0369099999999998e-30,1.9917900000000001e-30
4611.0,2.36816e-29,-7.9896799999999999e-26,-7.9915800000000006e-26,-7.9897800000000002e-26,-8.1771100000000003e-30,-2.0368300000000002e-30,1.3124999999999999e-30
4612.0,2.42106e-29,-7.9900799999999999e-26,-7.9922100000000004e-26,-7.9900199999999999e-26,-6.1791899999999998e-30,2.1378599999999998e-31,-1.1875500000000001e-30
4613.0,2.4179400000000001e-29,-7.9897999999999998e-26,-7.9915699999999996e-26,-7.9894400000000002e-26,-8.0378799999999994e-30,-5.2779099999999998e-31,2.3086400000000002e-31
4614.0,2.11309e-29,-7.9914200000000003e-26,-7.9919699999999996e-26,-7.9914999999999999e-26,-7.0536100000000002e-30,-4.3286599999999998e-30,8.4656700000000004e-30
4615.0,1.9154699999999999e-29,-7.9910900000000001e-26,-7.9917700000000002e-26,-7.99121e-26,-7.0366099999999997e-30,-3.5927900000000003e-30,6.8362499999999998e-30
4616.0,1.7421300000000001e-29,-7.9912600000000001e-26,-7.99206e-26,-7.9912799999999997e-26,-6.8127600000000005e-30,-2.7712e-30,5.1148500000000001e-30
4617.0,1.6819600000000001e-29,-7.9909499999999995e-26,-7.9918499999999997e-26,-7.9909999999999996e-26,-6.9569700000000002e-30,-2.3000100000000001e-30,3.8613799999999997e-30
4618.0,1.5681200000000001e-29,-7.9912199999999998e-26,-7.9922200000000002e-26,-7.9911900000000004e-26,-6.4945199999999996e-30,-1.2966500000000001e-30,1.89668e-30
4619.0,1.6392300000000001e-29,-7.9908899999999996e-26,-7.9919699999999996e-26,-7.9908299999999996e-26,-6.8628900000000007e-30,-8.8471700000000003e-31,8.4125399999999995e-31
4620.0,1.47757e-29,-7.9913200000000001e-26,-7.9924699999999998e-26,-7.9911500000000001e-26,-4.4829600000000001e-30,1.79509e-31,-1.2170000000000001e-30
4621.0,2.1840100000000001e-29,-7.9921700000000001e-26,-7.9921000000000004e-26,-7.9922800000000002e-26,-6.8726500000000006e-30,-4.2532500000000001e-30,9.6366699999999997e-30
4622.0,1.8957599999999999e-29,-7.9922499999999996e-26,-7.9922800000000002e-26,-7.9922999999999998e-26,-6.6839499999999996e-30,-3.4504399999999999e-30,7.9458300000000006e-30
4623.0,1.6698599999999999e-29,-7.9920500000000002e-26,-7.9921399999999996e-26,-7.9920799999999996e-26,-6.54878e-30,-2.8529499999999998e-30,6.4599300000000004e-30
4624.0,1.43452e-29,-7.9922599999999994e-26,-7.9924099999999999e-26,-7.9922499999999996e-26,-6.4397099999999994e-30,-2.1259099999999999e-30,4.6758299999999997e-30
4625.0,1.2821699999999999e-29,-7.9920500000000002e-26,-7.9922499999999996e-26,-7.9919900000000003e-26,-6.3553600000000006e-30,-1.5696900000000001e-30,3.1876100000000002e-30
4626.0,1.0715099999999999e-29,-7.9923400000000001e-26,-7.9925700000000001e-26,-7.99223e-26,-5.7011499999999999e-30,-9.8491199999999992e-31,1.3078500000000001e-30
4627.0,1.23374e-29,-7.9920099999999999e-26,-7.9924199999999996e-26,-7.9919200000000006e-26,-6.5276500000000007e-30,-9.3349700000000005e-31,8.6341800000000004e-32
4628.0,2.3601099999999999e-29,-7.9931800000000004e-26,-7.9925600000000003e-26,-7.9932599999999999e-26,-6.6927099999999995e-30,-4.1154600000000002e-30,1.0454e-29
4629.0,2.0740199999999999e-29,-7.9930000000000006e-26,-7.9924299999999994e-26,-7.9930399999999997e-26,-6.4513400000000005e-30,-3.4558299999999998e-30,8.8438e-30
4630.0,1.8210299999999999e-29,-7.9931800000000004e-26,-7.9926399999999998e-26,-7.9931800000000004e-26,-6.3705600000000002e-30,-2.8075100000000001e-30,7.2203599999999997e-30
4631.0,1.5796899999999999e-29,-7.9930700000000003e-26,-7.9925299999999997e-26,-7.9930100000000004e-26,-6.1852499999999998e-30,-2.2286200000000001e-30,5.5988299999999997e-30
4632.0,1.3547899999999999e-29,-7.99331e-26,-7.9927800000000004e-26,-7.9932199999999996e-26,-5.9830299999999999e-30,-1.7093599999999999e-30,3.7961199999999997e-30
4633.0,1.2067e-29,-7.9931200000000004e-26,-7.9926700000000003e-26,-7.9929899999999996e-26,-6.0445400000000002e-30,-1.3048e-30,2.1933100000000001e-30
4634.0,1.10013e-29,-7.99348e-26,-7.9928799999999995e-26,-7.9932599999999999e-26,-5.51269e-30,-6.0492799999999998e-31,5.1042800000000004e-31
4635.0,2.6027499999999998e-29,-7.99388e-26,-7.9927499999999999e-26,-7.9939399999999999e-26,-6.5423299999999996e-30,-4.07357e-30,1.10161e-29
4636.0,2.34907e-29,-7.9939900000000001e-26,-7.9928799999999995e-26,-7.9940099999999997e-26,-6.3951e-30,-3.4177700000000003e-30,9.4712099999999998e-30
4637.0,2.11092e-29,-7.9939399999999999e-26,-7.9928199999999996e-26,-7.9938899999999998e-26,-6.1906199999999997e-30,-2.8689200000000001e-30,7.8396600000000004e-30
4638.0,1.9154999999999999e-29,-7.9941799999999997e-26,-7.99303e-26,-7.9941000000000001e-26,-6.0834900000000001e-30,-2.3514999999999999e-30,6.1727100000000003e-30
4639.0,1.71811e-29,-7.9941199999999997e-26,-7.9929600000000002e-26,-7.9939599999999995e-26,-5.9725200000000003e-30,-1.8778600000000001e-30,4.4323199999999999e-30
4640.0,1.6099799999999999e-29,-7.99439e-26,-7.9931499999999998e-26,-7.9941899999999995e-26,-5.7740800000000001e-30,-1.37726e-30,2.6145899999999999e-30
4641.0,1.4474600000000001e-29,-7.99422e-26,-7.9931099999999995e-26,-7.9940400000000002e-26,-5.7635599999999999e-30,-1.01861e-30,6.2512400000000002e-31
4642.0,2.8685699999999999e-29,-7.9946999999999995e-26,-7.9931300000000002e-26,-7.9947499999999996e-26,-6.5611299999999996e-30,-3.97609e-30,1.14194e-29
4643.0,2.64283e-29,-7.9946799999999999e-26,-7.9930800000000001e-26,-7.9946500000000005e-26,-6.3329299999999996e-30,-3.46567e-30,9.8617399999999994e-30
4644.0,2.4842e-29,-7.9949199999999996e-26,-7.9932599999999999e-26,-7.9948499999999999e-26,-6.2187699999999999e-30,-2.98496e-30,8.3916899999999997e-30
4645.0,2.3028700000000001e-29,-7.9949500000000002e-26,-7.9932400000000003e-26,-7.9947999999999998e-26,-6.0819500000000002e-30,-2.50199e-30,6.6347e-30
4646.0,2.19403e-29,-7.9952300000000003e-26,-7.9934299999999999e-26,-7.9950299999999997e-26,-5.9563799999999998e-30,-2.0200600000000001e-30,4.8535900000000001e-30
4647.0,2.03363e-29,-7.9951700000000003e-26,-7.9934000000000005e-26,-7.9949299999999994e-26,-5.8370799999999998e-30,-1.6386399999999999e-30,2.9124600000000001e-30
4648.0,2.0875799999999999e-29,-7.9955100000000003e-26,-7.9935499999999998e-26,-7.9951800000000001e-26,-5.7416399999999997e-30,-1.13227e-30,1.1172500000000001e-30
4649.0,3.0927500000000001e-29,-7.9952599999999997e-26,-7.9933000000000002e-26,-7.9952599999999997e-26,-6.5689799999999998e-30,-3.9656300000000002e-30,1.15227e-29
4650.0,3.0001600000000001e-29,-7.9955000000000006e-26,-7.9934600000000004e-26,-7.9954600000000002e-26,-6.4718000000000006e-30,-3.5857500000000002e-30,1.04377e-29
4651.0,2.8562800000000001e-29,-7.99564e-26,-7.9934899999999998e-26,-7.9955000000000006e-26,-6.3504700000000007e-30,-3.1408599999999999e-30,8.8045599999999999e-30
4652.0,2.77633e-29,-7.9959600000000004e-26,-7.9936799999999994e-26,-7.9957599999999999e-26,-6.2652499999999999e-30,-2.6860200000000001e-30,7.1692299999999995e-30
4653.0,2.6464499999999998e-29,-7.9960300000000002e-26,-7.9936900000000004e-26,-7.9957500000000001e-26,-6.1573599999999999e-30,-2.2878099999999999e-30,5.2712999999999998e-30
4654.0,2.6225199999999998e-29,-7.9963200000000001e-26,-7.9938600000000004e-26,-7.99598e-26,-6.0782800000000001e-30,-1.8408600000000001e-30,3.3648699999999998e-30
4655.0,2.4844999999999999e-29,-7.9962600000000001e-26,-7.9938600000000004e-26,-7.9959100000000003e-26,-5.8812299999999997e-30,-1.37695e-30,1.1134e-30
4656.0,2.37009e-29,-7.9904899999999996e-26,-7.9917899999999998e-26,-7.9905499999999996e-26,-8.6846600000000003e-30,-3.89454e-30,6.5186900000000003e-30
4657.0,2.3624e-29,-7.9900700000000001e-26,-7.9916199999999997e-26,-7.9902300000000003e-26,-8.9128800000000002e-30,-3.2163100000000001e-30,4.9106999999999999e-30
4658.0,2.3443599999999999e-29,-7.9902200000000005e-26,-7.99195e-26,-7.9902499999999999e-26,-8.3212099999999997e-30,-2.32672e-30,3.2166400000000001e-30
4659.0,2.48479e-29,-7.9898099999999996e-26,-7.9917399999999996e-26,-7.9899000000000001e-26,-8.8408100000000006e-30,-2.04139e-30,2.2163700000000001e-30
4660.0,2.5494099999999997e-29,-7.9900299999999997e-26,-7.9921799999999999e-26,-7.9900600000000003e-26,-7.9432800000000007e-30,-6.7923400000000003e-31,3.7385700000000001e-31
4661.0,2.6537800000000001e-29,-7.9897300000000001e-26,-7.9918499999999997e-26,-7.9896000000000004e-26,-8.5982999999999994e-30,-8.2396500000000001e-31,3.6395100000000001e-31
4662.0,2.8772799999999998e-29,-7.9898800000000005e-26,-7.9924199999999996e-26,-7.9899199999999997e-26,-7.7364999999999996e-30,-2.6925800000000002e-31,-1.8491299999999999e-30
4663.0,2.2506500000000001e-29,-7.9912299999999996e-26,-7.9918999999999998e-26,-7.9913299999999999e-26,-8.6776099999999996e-30,-3.863e-30,8.0843299999999995e-30
4664.0,2.0750600000000001e-29,-7.9912799999999997e-26,-7.9921000000000004e-26,-7.9913299999999999e-26,-8.4394900000000005e-30,-3.1454799999999999e-30,6.4179999999999996e-30
4665.0,1.9662399999999999e-29,-7.9910099999999994e-26,-7.9919699999999996e-26,-7.9910599999999996e-26,-8.2658699999999996e-30,-2.50608e-30,5.0002500000000001e-30
4666.0,1.8846999999999999e-29,-7.9911900000000004e-26,-7.9922599999999994e-26,-7.99121e-26,-8.1250199999999999e-30,-1.7599699999999999e-30,3.4387800000000002e-30
4667.0,1.8705e-29,-7.9909299999999999e-26,-7.9920899999999994e-26,-7.9909000000000005e-26,-8.0292099999999999e-30,-1.20791e-30,2.14869e-30
4668.0,1.8184300000000001e-29,-7.9911900000000004e-26,-7.99246e-26,-7.9911300000000005e-26,-7.3257999999999994e-30,-5.3354399999999998e-31,7.0825999999999999e-31
4669.0,1.9092000000000001e-29,-7.9909600000000005e-26,-7.9921299999999998e-26,-7.9907900000000004e-26,-8.2448100000000006e-30,-3.5883999999999999e-31,7.7567899999999997e-33
4670.0,2.2659700000000001e-29,-7.9922700000000004e-26,-7.9923400000000001e-26,-7.9923400000000001e-26,-8.4838799999999994e-30,-3.8416300000000002e-30,9.1793299999999995e-30
4671.0,2.0186599999999999e-29,-7.9920500000000002e-26,-7.99223e-26,-7.9920899999999994e-26,-8.1263599999999999e-30,-3.2102700000000001e-30,7.6554499999999996e-30
4672.0,1.8254100000000001e-29,-7.9921799999999999e-26,-7.9924299999999994e-26,-7.9921999999999995e-26,-8.0861900000000002e-30,-2.5393299999999999e-30,6.1068899999999998e-30
4673.0,1.63343e-29,-7.9920199999999997e-26,-7.9923300000000003e-26,-7.9919900000000003e-26,-7.8052799999999996e-30,-1.8941500000000001e-30,4.5796399999999999e-30
4674.0,1.49463e-29,-7.9922399999999998e-26,-7.9925899999999997e-26,-7.9921899999999997e-26,-7.6299699999999995e-30,-1.3824699999999999e-30,3.0876599999999999e-30
4675.0,1.42492e-29,-7.9920400000000004e-26,-7.9924400000000004e-26,-7.99195e-26,-7.6000899999999996e-30,-8.3797600000000004e-31,1.5731599999999999e-30
4676.0,1.23193e-29,-7.9923699999999995e-26,-7.9927800000000004e-26,-7.9922499999999996e-26,-6.5251199999999993e-30,-3.0485600000000001e-31,-2.3878899999999999e-32
4677.0,2.4008799999999999e-29,-7.9930100000000004e-26,-7.9925199999999999e-26,-7.9930600000000005e-26,-8.1906699999999997e-30,-3.8944700000000003e-30,1.00599e-29
4678.0,2.14172e-29,-7.9930600000000005e-26,-7.9926499999999996e-26,-7.9930899999999999e-26,-8.0157399999999994e-30,-3.2578299999999998e-30,8.4859899999999997e-30
4679.0,1.88924e-29,-7.9929600000000002e-26,-7.9925799999999999e-26,-7.9929399999999995e-26,-7.7243700000000005e-30,-2.5925199999999999e-30,6.9204199999999994e-30
4680.0,1.70964e-29,-7.9931700000000006e-26,-7.9927900000000002e-26,-7.9931200000000004e-26,-7.6971200000000001e-30,-2.1248199999999999e-30,5.4292500000000002e-30
4681.0,1.5082399999999999e-29,-7.9930700000000003e-26,-7.9927099999999995e-26,-7.99297e-26,-7.4707300000000002e-30,-1.5223199999999999e-30,3.7667900000000003e-30
4682.0,1.3572600000000001e-29,-7.9933399999999994e-26,-7.99297e-26,-7.9932099999999998e-26,-7.1916499999999997e-30,-1.1461399999999999e-30,2.1843799999999999e-30
4683.0,1.3430799999999999e-29,-7.9931599999999996e-26,-7.9928599999999999e-26,-7.99303e-26,-7.5390699999999993e-30,-8.2093600000000008e-31,5.5775100000000003e-31
4684.0,2.6045000000000002e-29,-7.99388e-26,-7.9929000000000003e-26,-7.9939300000000001e-26,-8.05754e-30,-3.8861799999999999e-30,1.06122e-29
4685.0,2.3379e-29,-7.9937899999999995e-26,-7.9928400000000003e-26,-7.9937799999999997e-26,-7.7273099999999994e-30,-3.2709700000000003e-30,9.0447800000000001e-30
4686.0,2.1491100000000001e-29,-7.9939599999999995e-26,-7.9930000000000006e-26,-7.9939200000000003e-26,-7.67079e-30,-2.78537e-30,7.6047899999999995e-30
4687.0,1.9399900000000001e-29,-7.9939599999999995e-26,-7.99297e-26,-7.9938499999999995e-26,-7.4466800000000005e-30,-2.2175e-30,5.9563599999999999e-30
4688.0,1.79443e-29,-7.9942000000000004e-26,-7.9931800000000004e-26,-7.9940699999999996e-26,-7.3639199999999999e-30,-1.8325199999999999e-30,4.3511599999999997e-30
4689.0,1.6550400000000001e-29,-7.9941299999999995e-26,-7.9931200000000004e-26,-7.9939599999999995e-26,-7.2989800000000007e-30,-1.3456900000000001e-30,2.61657e-30
4690.0,1.62791e-29,-7.9945000000000001e-26,-7.9933399999999994e-26,-7.9942500000000006e-26,-7.0176199999999999e-30,-8.2129900000000007e-31,9.1985799999999993e-31
4691.0,2.8224599999999998e-29,-7.9945400000000004e-26,-7.9931099999999995e-26,-7.9945500000000002e-26,-7.8814500000000003e-30,-3.8630799999999997e-30,1.09452e-29
4692.0,2.6331799999999998e-29,-7.9946500000000005e-26,-7.9932099999999998e-26,-7.99462e-26,-7.7371599999999996e-30,-3.4203500000000001e-30,9.5981900000000007e-30
4693.0,2.4470500000000001e-29,-7.9947100000000004e-26,-7.9932099999999998e-26,-7.9946100000000002e-26,-7.5223900000000003e-30,-2.8926999999999999e-30,8.0443200000000006e-30
4694.0,2.31121e-29,-7.9949699999999998e-26,-7.9934100000000003e-26,-7.9948300000000003e-26,-7.4500200000000005e-30,-2.48284e-30,6.49108e-30
4695.0,2.17494e-29,-7.9950000000000003e-26,-7.9933899999999996e-26,-7.9947999999999998e-26,-7.3368199999999996e-30,-2.00969e-30,4.7637199999999999e-30
4696.0,2.11172e-29,-7.9952900000000002e-26,-7.9935900000000001e-26,-7.9950500000000005e-26,-7.2270799999999996e-30,-1.56941e-30,3.0022799999999998e-30
4697.0,1.9923000000000001e-29,-7.9952200000000005e-26,-7.9935800000000003e-26,-7.9949799999999996e-26,-7.1376000000000005e-30,-1.1865800000000001e-30,1.0397999999999999e-30
4698.0,3.06465e-29,-7.9952099999999995e-26,-7.9934100000000003e-26,-7.9951999999999997e-26,-7.9209900000000006e-30,-3.9403999999999998e-30,1.12627e-29
4699.0,2.9291999999999999e-29,-7.9953199999999996e-26,-7.9934299999999999e-26,-7.9952400000000001e-26,-7.7131200000000005e-30,-3.5194299999999997e-30,9.9916600000000006e-30
4700.0,2.8250199999999997e-29,-7.9956099999999995e-26,-7.9936099999999997e-26,-7.99547e-26,-7.6306499999999995e-30,-3.13051e-30,8.6015099999999993e-30
4701.0,2.7207400000000002e-29,-7.9957400000000003e-26,-7.9936400000000003e-26,-7.9955399999999997e-26,-7.5354300000000005e-30,-2.69762e-30,6.9673500000000003e-30
4702.0,2.6442299999999998e-29,-7.99604e-26,-7.9938399999999997e-26,-7.9957799999999995e-26,-7.4508500000000006e-30,-2.2776900000000002e-30,5.2376600000000001e-30
4703.0,2.5395900000000001e-29,-7.9960700000000005e-26,-7.9938299999999999e-26,-7.9957599999999999e-26,-7.3296499999999994e-30,-1.8680400000000001e-30,3.3390699999999997e-30
4704.0,2.6010200000000002e-29,-7.9964499999999997e-26,-7.9940199999999995e-26,-7.9960300000000002e-26,-7.2333299999999994e-30,-1.4035699999999999e-30,1.4797899999999999e-30
4705.0,2.5769700000000001e-29,-7.9902800000000004e-26,-7.9917399999999996e-26,-7.9904100000000001e-26,-1.03986e-29,-3.19351e-30,6.1639700000000003e-30
4706.0,2.50961e-29,-7.9903300000000006e-26,-7.9919800000000005e-26,-7.9903799999999995e-26,-9.7289099999999999e-30,-2.4705800000000001e-30,4.5350399999999998e-30
4707.0,2.5919700000000003e-29,-7.9899699999999998e-26,-7.9918499999999997e-26,-7.9900700000000001e-26,-9.8707500000000004e-30,-1.9085600000000001e-30,3.30073e-30
4708.0,2.65052e-29,-7.9900799999999999e-26,-7.9921999999999995e-26,-7.9901499999999996e-26,-9.2425100000000005e-30,-1.0133000000000001e-30,1.65893e-30
4709.0,2.7719799999999998e-29,-7.9897999999999998e-26,-7.9920199999999997e-26,-7.9897800000000002e-26,-9.3955300000000005e-30,-8.2226599999999996e-31,1.0972699999999999e-30
4710.0,2.9221100000000003e-29,-7.9899099999999999e-26,-7.9924299999999994e-26,-7.9899799999999996e-26,-8.8401900000000004e-30,-1.9038200000000001e-31,-5.74042e-31
4711.0,2.8924600000000001e-29,-7.9897499999999996e-26,-7.9921299999999998e-26,-7.98962e-26,-8.8554699999999996e-30,3.0558000000000002e-31,-6.08973e-31
4712.0,2.4069700000000001e-29,-7.9913600000000004e-26,-7.9921700000000001e-26,-7.9914200000000003e-26,-1.0149400000000001e-29,-3.3350700000000003e-30,7.6608600000000001e-30
4713.0,2.2611099999999999e-29,-7.9910900000000001e-26,-7.9920699999999998e-26,-7.9911400000000003e-26,-9.7508200000000002e-30,-2.6181999999999999e-30,6.1588000000000002e-30
4714.0,2.1793699999999999e-29,-7.9911699999999997e-26,-7.99229e-26,-7.99121e-26,-9.5934600000000001e-30,-2.00457e-30,4.7271599999999998e-30
4715.0,2.1295199999999999e-29,-7.9909600000000005e-26,-7.9921999999999995e-26,-7.9909600000000005e-26,-9.3274999999999994e-30,-1.38426e-30,3.3909600000000002e-30
4716.0,2.1022e-29,-7.9911300000000005e-26,-7.9924699999999998e-26,-7.9911199999999995e-26,-9.0347900000000005e-30,-8.3009000000000001e-31,2.11238e-30
4717.0,2.1213900000000001e-29,-7.9909299999999999e-26,-7.9923099999999996e-26,-7.9908600000000002e-26,-9.0795899999999998e-30,-4.6772899999999998e-31,9.9746600000000001e-31
4718.0,2.1525800000000001e-29,-7.9911199999999995e-26,-7.9927099999999995e-26,-7.9911199999999995e-26,-8.3603300000000003e-30,-1.5521100000000001e-31,-5.0870700000000001e-31
4719.0,2.3864600000000001e-29,-7.99212e-26,-7.9923499999999999e-26,-7.9921600000000003e-26,-9.91245e-30,-3.4965999999999998e-30,8.8287199999999999e-30
4720.0,2.1766300000000001e-29,-7.99212e-26,-7.99246e-26,-7.9921500000000005e-26,-9.6485900000000004e-30,-2.80207e-30,7.3134299999999999e-30
4721.0,1.9871199999999999e-29,-7.9919800000000005e-26,-7.9924099999999999e-26,-7.9919800000000005e-26,-9.3134600000000006e-30,-2.17084e-30,5.8430000000000003e-30
4722.0,1.8678600000000001e-29,-7.9921399999999996e-26,-7.9926100000000004e-26,-7.99212e-26,-9.2394599999999999e-30,-1.6445e-30,4.5193100000000003e-30
4723.0,1.7437800000000001e-29,-7.9920099999999999e-26,-7.9925299999999997e-26,-7.9919599999999998e-26,-8.9919199999999995e-30,-1.0771799999999999e-30,3.0437400000000001e-30
4724.0,1.6480300000000001e-29,-7.9922399999999998e-26,-7.9928e-26,-7.9921700000000001e-26,-8.6566599999999995e-30,-6.9008899999999998e-31,1.7166900000000002e-30
4725.0,1.67246e-29,-7.9921100000000002e-26,-7.9926200000000002e-26,-7.9919800000000005e-26,-9.0365500000000002e-30,-3.6781499999999999e-31,4.3708300000000004e-31
4726.0,2.47608e-29,-7.9930200000000002e-26,-7.9926899999999999e-26,-7.9930499999999995e-26,-9.7276800000000001e-30,-3.59286e-30,9.6392799999999993e-30
4727.0,2.2091699999999999e-29,-7.9928799999999995e-26,-7.9926399999999998e-26,-7.9928699999999997e-26,-9.3081400000000004e-30,-2.9224400000000001e-30,8.0988900000000004e-30
4728.0,2.0323600000000001e-29,-7.9930000000000006e-26,-7.9927900000000002e-26,-7.9929799999999998e-26,-9.2357200000000001e-30,-2.41489e-30,6.72279e-30
4729.0,1.8333300000000001e-29,-7.9929500000000004e-26,-7.9927499999999999e-26,-7.9928900000000005e-26,-8.97485e-30,-1.80909e-30,5.2138500000000001e-30
4730.0,1.7023399999999999e-29,-7.9931700000000006e-26,-7.99297e-26,-7.9930800000000001e-26,-8.8889499999999999e-30,-1.43119e-30,3.8189299999999997e-30
4731.0,1.5859899999999999e-29,-7.9930800000000001e-26,-7.9928900000000005e-26,-7.99297e-26,-8.7770399999999999e-30,-9.3491600000000004e-31,2.2333300000000001e-30
4732.0,1.4621300000000001e-29,-7.9934000000000005e-26,-7.9931800000000004e-26,-7.9932599999999999e-26,-8.3295400000000007e-30,-4.9485499999999998e-31,6.1559999999999998e-31
4733.0,2.61707e-29,-7.9937299999999996e-26,-7.9929100000000001e-26,-7.9937299999999996e-26,-9.42653e-30,-3.6688100000000002e-30,1.01785e-29
4734.0,2.3840100000000001e-29,-7.9937600000000001e-26,-7.9929899999999996e-26,-7.9937400000000005e-26,-9.1746999999999999e-30,-3.09344e-30,8.7221199999999994e-30
4735.0,2.18101e-29,-7.9937600000000001e-26,-7.9929799999999998e-26,-7.9937000000000002e-26,-8.9487099999999998e-30,-2.54477e-30,7.2751800000000006e-30
4736.0,2.0319099999999999e-29,-7.9939700000000005e-26,-7.9931599999999996e-26,-7.99388e-26,-8.9074099999999999e-30,-2.1377800000000001e-30,5.8543399999999999e-30
4737.0,1.8779e-29,-7.9939800000000003e-26,-7.99314e-26,-7.9938499999999995e-26,-8.7425799999999995e-30,-1.62629e-30,4.26016e-30
4738.0,1.77799e-29,-7.9942399999999996e-26,-7.9933600000000002e-26,-7.9940800000000005e-26,-8.6406499999999998e-30,-1.26253e-30,2.6846299999999999e-30
4739.0,1.7184000000000001e-29,-7.9941799999999997e-26,-7.99331e-26,-7.9940199999999995e-26,-8.6658099999999999e-30,-9.3792000000000008e-31,1.02549e-30
4740.0,2.8125400000000003e-29,-7.9944699999999996e-26,-7.9932199999999996e-26,-7.9944699999999996e-26,-9.2648099999999999e-30,-3.7528199999999997e-30,1.05549e-29
4741.0,2.6101699999999999e-29,-7.9944599999999998e-26,-7.9932e-26,-7.9944099999999996e-26,-8.9963699999999998e-30,-3.2165399999999999e-30,9.1964099999999996e-30
4742.0,2.4516199999999999e-29,-7.9946500000000005e-26,-7.9933500000000004e-26,-7.99456e-26,-8.8825199999999995e-30,-2.8076e-30,7.8158099999999998e-30
4743.0,2.31377e-29,-7.9947399999999998e-26,-7.99337e-26,-7.9946000000000004e-26,-8.7518400000000001e-30,-2.3350599999999999e-30,6.28906e-30
4744.0,2.2034799999999999e-29,-7.9949900000000005e-26,-7.9935700000000005e-26,-7.9948099999999996e-26,-8.69431e-30,-1.9533800000000001e-30,4.7136300000000002e-30
4745.0,2.1050900000000001e-29,-7.9950100000000001e-26,-7.9935499999999998e-26,-7.9948099999999996e-26,-8.5849299999999999e-30,-1.5315099999999999e-30,3.0339400000000001e-30
4746.0,2.12579e-29,-7.9954000000000003e-26,-7.9937699999999999e-26,-7.9950999999999994e-26,-8.5097499999999999e-30,-1.052e-30,1.2864899999999999e-30
4747.0,3.01599e-29,-7.9950399999999995e-26,-7.9934100000000003e-26,-7.9950100000000001e-26,-9.1954699999999994e-30,-3.7861000000000002e-30,1.0821900000000001e-29
4748.0,2.8912899999999998e-29,-7.9952300000000003e-26,-7.9935300000000002e-26,-7.9951399999999998e-26,-9.0301100000000004e-30,-3.45208e-30,9.6804399999999998e-30
4749.0,2.7875399999999999e-29,-7.9953900000000005e-26,-7.9935900000000001e-26,-7.9952599999999997e-26,-8.8942999999999993e-30,-3.04536e-30,8.3215000000000006e-30
4750.0,2.6850999999999999e-29,-7.9956800000000004e-26,-7.9937799999999997e-26,-7.9954799999999998e-26,-8.8105099999999996e-30,-2.6395999999999999e-30,6.8141499999999996e-30
4751.0,2.6008000000000002e-29,-7.9957900000000004e-26,-7.9938000000000005e-26,-7.9955499999999995e-26,-8.7167199999999996e-30,-2.24082e-30,5.1816699999999999e-30
4752.0,2.5508900000000003e-29,-7.9960900000000001e-26,-7.9939999999999999e-26,-7.9957799999999995e-26,-8.6378599999999996e-30,-1.81379e-30,3.4099500000000001e-30
4753.0,2.44496e-29,-7.9960800000000003e-26,-7.9940099999999997e-26,-7.9957699999999997e-26,-8.42417e-30,-1.4275e-30,1.4776499999999999e-30
4754.0,2.7197200000000003e-29,-7.9905000000000006e-26,-7.9920400000000004e-26,-7.9905200000000002e-26,-1.13056e-29,-2.4035199999999999e-30,5.8570599999999997e-30
4755.0,2.7313400000000002e-29,-7.9901499999999996e-26,-7.9919300000000004e-26,-7.9902200000000005e-26,-1.1157800000000001e-29,-1.67932e-30,4.5258800000000002e-30
4756.0,2.75513e-29,-7.9901999999999997e-26,-7.99223e-26,-7.9902699999999995e-26,-1.0555100000000001e-29,-1.07007e-30,2.9632800000000001e-30
4757.0,2.8519899999999999e-29,-7.9899299999999995e-26,-7.9921100000000002e-26,-7.9899299999999995e-26,-1.0433300000000001e-29,-5.7465699999999997e-31,2.1297799999999998e-30
4758.0,2.9638999999999999e-29,-7.9899900000000005e-26,-7.9924500000000002e-26,-7.9900799999999999e-26,-9.92319e-30,-6.5628999999999998e-32,6.2506200000000004e-31
4759.0,3.0224500000000003e-29,-7.98979e-26,-7.9922800000000002e-26,-7.9897399999999999e-26,-9.6752899999999996e-30,2.76346e-31,2.1408200000000001e-31
4760.0,3.2137200000000001e-29,-7.9898599999999997e-26,-7.9926700000000003e-26,-7.98996e-26,-9.4108699999999995e-30,2.5754599999999999e-31,-1.11839e-30
4761.0,2.5765499999999999e-29,-7.9912299999999996e-26,-7.9921799999999999e-26,-7.9912500000000003e-26,-1.14247e-29,-2.6530999999999999e-30,7.3749400000000002e-30
4762.0,2.46326e-29,-7.9912199999999998e-26,-7.9923300000000003e-26,-7.9912500000000003e-26,-1.10744e-29,-2.0923599999999998e-30,5.9240500000000003e-30
4763.0,2.3914199999999999e-29,-7.9910099999999994e-26,-7.9922800000000002e-26,-7.9910200000000004e-26,-1.07003e-29,-1.40464e-30,4.61385e-30
4764.0,2.3581799999999999e-29,-7.9911300000000005e-26,-7.9925100000000001e-26,-7.9911400000000003e-26,-1.04774e-29,-9.3061599999999996e-31,3.3997000000000001e-30
4765.0,2.3497e-29,-7.9909499999999995e-26,-7.9924199999999996e-26,-7.9909200000000001e-26,-1.02458e-29,-4.7668000000000003e-31,2.2161899999999998e-30
4766.0,2.3563700000000001e-29,-7.9910999999999999e-26,-7.9927200000000005e-26,-7.9911199999999995e-26,-9.8705899999999996e-30,-1.24674e-31,9.9305500000000001e-31
4767.0,2.3190899999999999e-29,-7.9909899999999998e-26,-7.9925100000000001e-26,-7.9909000000000005e-26,-9.8614400000000007e-30,2.9303199999999998e-31,2.1471500000000001e-32
4768.0,2.5283200000000002e-29,-7.9921600000000003e-26,-7.9925299999999997e-26,-7.9921700000000001e-26,-1.1331300000000001e-29,-2.97103e-30,8.4589999999999996e-30
4769.0,2.33084e-29,-7.9919699999999996e-26,-7.9924799999999996e-26,-7.9919699999999996e-26,-1.08586e-29,-2.33871e-30,7.0210799999999994e-30
4770.0,2.2072399999999999e-29,-7.99206e-26,-7.99263e-26,-7.9920500000000002e-26,-1.07134e-29,-1.8023999999999999e-30,5.7573499999999999e-30
4771.0,2.0805300000000001e-29,-7.99195e-26,-7.9925999999999995e-26,-7.9919300000000004e-26,-1.04287e-29,-1.2455200000000001e-30,4.3933200000000002e-30
4772.0,1.9983e-29,-7.9921299999999998e-26,-7.9928199999999996e-26,-7.9920899999999994e-26,-1.0262099999999999e-29,-8.3760200000000006e-31,3.1928999999999998e-30
4773.0,1.93511e-29,-7.9920199999999997e-26,-7.9927300000000003e-26,-7.9919599999999998e-26,-1.0153400000000001e-29,-4.4626200000000004e-31,1.81329e-30
4774.0,1.8852900000000001e-29,-7.9922499999999996e-26,-7.9930700000000003e-26,-7.99223e-26,-9.7600100000000004e-30,-1.41823e-31,3.6195000000000001e-31
4775.0,2.5595400000000002e-29,-7.9928900000000005e-26,-7.9927300000000003e-26,-7.9928799999999995e-26,-1.1031600000000001e-29,-3.1944900000000002e-30,9.2542900000000004e-30
4776.0,2.34821e-29,-7.9928799999999995e-26,-7.9928099999999998e-26,-7.9928699999999997e-26,-1.07283e-29,-2.6327400000000001e-30,7.8490899999999995e-30
4777.0,2.1584200000000001e-29,-7.9928300000000005e-26,-7.9927900000000002e-26,-7.9927900000000002e-26,-1.04495e-29,-2.0428399999999999e-30,6.4720799999999994e-30
4778.0,2.0365700000000001e-29,-7.9930000000000006e-26,-7.9929799999999998e-26,-7.9929399999999995e-26,-1.03988e-29,-1.6315899999999999e-30,5.2320199999999998e-30
4779.0,1.8941599999999999e-29,-7.9929600000000002e-26,-7.9929500000000004e-26,-7.9928900000000005e-26,-1.01944e-29,-1.1337e-30,3.7702e-30
4780.0,1.8002500000000001e-29,-7.9932e-26,-7.9931900000000002e-26,-7.9931099999999995e-26,-1.00689e-29,-7.9063499999999994e-31,2.4012700000000002e-30
4781.0,1.76523e-29,-7.9931499999999998e-26,-7.9930700000000003e-26,-7.9930200000000002e-26,-1.01129e-29,-4.7356499999999999e-31,9.49725e-31
4782.0,2.6668300000000001e-29,-7.9936799999999994e-26,-7.99303e-26,-7.9936699999999996e-26,-1.07684e-29,-3.3792799999999999e-30,9.7995399999999999e-30
4783.0,2.4383999999999999e-29,-7.9935999999999999e-26,-7.9930000000000006e-26,-7.9935599999999996e-26,-1.0429199999999999e-29,-2.80903e-30,8.3804100000000005e-30
4784.0,2.2847299999999999e-29,-7.9937400000000005e-26,-7.99314e-26,-7.9936699999999996e-26,-1.0338000000000001e-29,-2.3617e-30,7.1171200000000006e-30
4785.0,2.1272000000000001e-29,-7.9937699999999999e-26,-7.9931499999999998e-26,-7.9936799999999994e-26,-1.0177900000000001e-29,-1.8803399999999999e-30,5.6986699999999997e-30
4786.0,2.0225000000000001e-29,-7.9939999999999999e-26,-7.9933399999999994e-26,-7.99388e-26,-1.01575e-29,-1.52655e-30,4.3298599999999997e-30
4787.0,1.9115399999999999e-29,-7.9939900000000001e-26,-7.99331e-26,-7.9938499999999995e-26,-1.00025e-29,-1.1053e-30,2.76307e-30
4788.0,1.86218e-29,-7.9943300000000001e-26,-7.9935900000000001e-26,-7.9941500000000003e-26,-9.9442799999999995e-30,-6.6526e-31,1.12212e-30
4789.0,2.8145900000000003e-29,-7.9943200000000003e-26,-7.9932400000000003e-26,-7.9942899999999997e-26,-1.05377e-29,-3.4871300000000001e-30,1.01493e-29
4790.0,2.6335199999999998e-29,-7.9943800000000002e-26,-7.99331e-26,-7.9943300000000001e-26,-1.03056e-29,-3.0456299999999999e-30,8.9090199999999995e-30
4791.0,2.482e-29,-7.9944599999999998e-26,-7.9933399999999994e-26,-7.9943599999999995e-26,-1.01566e-29,-2.6011900000000002e-30,7.5740900000000002e-30
4792.0,2.36727e-29,-7.9946799999999999e-26,-7.9935200000000004e-26,-7.9945500000000002e-26,-1.01327e-29,-2.23242e-30,6.2159499999999998e-30
4793.0,2.25366e-29,-7.9947599999999994e-26,-7.99354e-26,-7.9945900000000006e-26,-1.00062e-29,-1.8151599999999999e-30,4.6952000000000001e-30
4794.0,2.1892200000000001e-29,-7.9950399999999995e-26,-7.9937500000000003e-26,-7.9948300000000003e-26,-1.0005399999999999e-29,-1.4482100000000001e-30,3.1237000000000001e-30
4795.0,2.1045200000000001e-29,-7.9950399999999995e-26,-7.9937400000000005e-26,-7.9948300000000003e-26,-9.7637100000000003e-30,-1.1351600000000001e-30,1.4562499999999999e-30
4796.0,2.9926099999999999e-29,-7.9949299999999994e-26,-7.9934899999999998e-26,-7.9948800000000005e-26,-1.0434899999999999e-29,-3.6415799999999997e-30,1.04646e-29
4797.0,2.8734300000000001e-29,-7.9950399999999995e-26,-7.9935300000000002e-26,-7.9949400000000004e-26,-1.02414e-29,-3.2906400000000001e-30,9.3789800000000003e-30
4798.0,2.76265e-29,-7.9952699999999995e-26,-7.9936900000000004e-26,-7.9951399999999998e-26,-1.01525e-29,-2.8920999999999999e-30,8.1151699999999997e-30
4799.0,2.6675e-29,-7.9954199999999999e-26,-7.9937500000000003e-26,-7.9952499999999999e-26,-1.00509e-29,-2.5381200000000001e-30,6.6893299999999996e-30
4800.0,2.5825600000000002e-29,-7.9956900000000002e-26,-7.9939399999999999e-26,-7.99547e-26,-1.00069e-29,-2.156e-30,5.1510400000000003e-30
4801.0,2.48895e-29,-7.9957599999999999e-26,-7.9939599999999995e-26,-7.9955000000000006e-26,-9.82587e-30,-1.7710600000000001e-30,3.4810199999999997e-30
4802.0,2.5267200000000002e-29,-7.9961400000000002e-26,-7.9941600000000001e-26,-7.9957799999999995e-26,-9.87151e-30,-1.32054e-30,1.7056300000000001e-30
4803.0,2.9177700000000002e-29,-7.9903699999999997e-26,-7.9920099999999999e-26,-7.9903799999999995e-26,-1.2616499999999999e-29,-1.3887199999999999e-30,5.7872699999999997e-30
4804.0,2.8905900000000002e-29,-7.9903599999999999e-26,-7.9922499999999996e-26,-7.9904000000000003e-26,-1.19469e-29,-9.9676099999999998e-31,4.3386600000000001e-30
4805.0,2.9395400000000002e-29,-7.9901200000000002e-26,-7.9921600000000003e-26,-7.9901100000000004e-26,-1.1676e-29,-2.3396300000000001e-31,3.40358e-30
4806.0,3.0189799999999997e-29,-7.9901399999999998e-26,-7.9924699999999998e-26,-7.9902200000000005e-26,-1.11948e-29,1.4800399999999999e-31,1.9693100000000001e-30
4807.0,3.0833600000000002e-29,-7.9899500000000002e-26,-7.9923699999999995e-26,-7.9899199999999997e-26,-1.07643e-29,5.7661799999999997e-31,1.33673e-30
4808.0,3.2132600000000001e-29,-7.9899900000000005e-26,-7.9926899999999999e-26,-7.9900799999999999e-26,-1.04105e-29,6.6325499999999997e-31,3.6853699999999999e-32
4809.0,3.1906400000000001e-29,-7.9898499999999999e-26,-7.9925100000000001e-26,-7.9898200000000005e-26,-9.9532799999999997e-30,1.08317e-30,-4.6584300000000002e-31
4810.0,2.7525900000000002e-29,-7.9913399999999997e-26,-7.9923900000000003e-26,-7.9913299999999999e-26,-1.26583e-29,-2.0196999999999999e-30,7.1585599999999999e-30
4811.0,2.6509599999999999e-29,-7.9911199999999995e-26,-7.9923499999999999e-26,-7.9911099999999997e-26,-1.21486e-29,-1.3490799999999999e-30,5.8628000000000003e-30
4812.0,2.6069099999999998e-29,-7.9911699999999997e-26,-7.9925299999999997e-26,-7.9911799999999995e-26,-1.1908800000000001e-29,-9.1653400000000001e-31,4.7296399999999999e-30
4813.0,2.5771000000000003e-29,-7.9910200000000004e-26,-7.9925000000000003e-26,-7.9909999999999996e-26,-1.1589000000000001e-29,-3.61791e-31,3.5464199999999998e-30
4814.0,2.5651200000000001e-29,-7.9911199999999995e-26,-7.9927400000000001e-26,-7.9911400000000003e-26,-1.12744e-29,-2.5086199999999999e-32,2.4065399999999999e-30
4815.0,2.5444900000000001e-29,-7.9909999999999996e-26,-7.9926399999999998e-26,-7.9909600000000005e-26,-1.1020900000000001e-29,3.2263699999999998e-31,1.32453e-30
4816.0,2.6120700000000001e-29,-7.9911199999999995e-26,-7.9929899999999996e-26,-7.9911900000000004e-26,-1.07257e-29,3.9233099999999999e-31,7.7432600000000005e-32
4817.0,2.6719199999999998e-29,-7.9920799999999996e-26,-7.9925799999999999e-26,-7.9920500000000002e-26,-1.24943e-29,-2.4158599999999998e-30,8.1958199999999999e-30
4818.0,2.5353200000000001e-29,-7.9920500000000002e-26,-7.9926700000000003e-26,-7.9920400000000004e-26,-1.2194400000000001e-29,-1.9028700000000001e-30,7.0000699999999996e-30
4819.0,2.4117399999999999e-29,-7.99195e-26,-7.9926700000000003e-26,-7.9919300000000004e-26,-1.1898400000000001e-29,-1.33971e-30,5.72863e-30
4820.0,2.3273499999999999e-29,-7.9920799999999996e-26,-7.9928500000000001e-26,-7.9920500000000002e-26,-1.17394e-29,-8.9657899999999996e-31,4.6101000000000002e-30
4821.0,2.24519e-29,-7.9920000000000001e-26,-7.9928300000000005e-26,-7.9919699999999996e-26,-1.15359e-29,-4.9417800000000002e-31,3.31719e-30
4822.0,2.1855299999999999e-29,-7.9921799999999999e-26,-7.9930800000000001e-26,-7.9921600000000003e-26,-1.12924e-29,-1.57023e-31,2.04852e-30
4823.0,2.12782e-29,-7.99212e-26,-7.9929199999999999e-26,-7.9920400000000004e-26,-1.12314e-29,1.83831e-31,7.6855600000000003e-31
4824.0,2.6841199999999998e-29,-7.9929000000000003e-26,-7.9928699999999997e-26,-7.9928699999999997e-26,-1.2299399999999999e-29,-2.7802699999999999e-30,9.0068400000000002e-30
4825.0,2.49155e-29,-7.9927900000000002e-26,-7.9928599999999999e-26,-7.9927599999999997e-26,-1.1931e-29,-2.2493500000000001e-30,7.6984999999999999e-30
4826.0,2.3629000000000001e-29,-7.9928799999999995e-26,-7.9929899999999996e-26,-7.9928400000000003e-26,-1.18129e-29,-1.7920300000000002e-30,6.5412800000000005e-30
4827.0,2.2295900000000001e-29,-7.9928699999999997e-26,-7.9930000000000006e-26,-7.9928199999999996e-26,-1.16435e-29,-1.3001800000000001e-30,5.2475500000000002e-30
4828.0,2.1319099999999999e-29,-7.9930600000000005e-26,-7.9932e-26,-7.9929899999999996e-26,-1.1552100000000001e-29,-9.5046699999999995e-31,4.0078900000000003e-30
4829.0,2.0354e-29,-7.99303e-26,-7.9931499999999998e-26,-7.9929500000000004e-26,-1.14033e-29,-5.7560700000000004e-31,2.5775199999999999e-30
4830.0,1.9822700000000001e-29,-7.9932699999999997e-26,-7.9934700000000002e-26,-7.9932099999999998e-26,-1.1317e-29,-2.4873299999999999e-31,1.02939e-30
4831.0,2.7443399999999998e-29,-7.9935800000000003e-26,-7.9930800000000001e-26,-7.9935499999999998e-26,-1.19914e-29,-3.0447600000000001e-30,9.4972700000000003e-30
4832.0,2.5614e-29,-7.9935999999999999e-26,-7.99314e-26,-7.9935499999999998e-26,-1.1716200000000001e-29,-2.5824800000000002e-30,8.2762800000000002e-30
4833.0,2.41203e-29,-7.9936199999999995e-26,-7.9931700000000006e-26,-7.9935599999999996e-26,-1.15744e-29,-2.1045400000000001e-30,7.0517400000000003e-30
4834.0,2.30007e-29,-7.9938000000000005e-26,-7.9933299999999996e-26,-7.99371e-26,-1.15434e-29,-1.7288800000000001e-30,5.8276799999999998e-30
4835.0,2.1767199999999999e-29,-7.9938399999999997e-26,-7.9933500000000004e-26,-7.9937400000000005e-26,-1.14072e-29,-1.3176e-30,4.4155599999999999e-30
4836.0,2.0980000000000001e-29,-7.9940800000000005e-26,-7.9935800000000003e-26,-7.9939599999999995e-26,-1.1396999999999999e-29,-9.6349900000000008e-31,2.9845900000000001e-30
4837.0,2.0285100000000001e-29,-7.9940900000000003e-26,-7.9935099999999994e-26,-7.9939200000000003e-26,-1.12086e-29,-6.8078300000000001e-31,1.47485e-30
4838.0,2.8557e-29,-7.9942600000000004e-26,-7.9933399999999994e-26,-7.9942100000000002e-26,-1.17023e-29,-3.2663899999999998e-30,9.86547e-30
4839.0,2.7016699999999998e-29,-7.9942700000000001e-26,-7.9933500000000004e-26,-7.9942000000000004e-26,-1.15201e-29,-2.83177e-30,8.7409800000000006e-30
4840.0,2.57645e-29,-7.9944200000000006e-26,-7.9934700000000002e-26,-7.9943200000000003e-26,-1.1454399999999999e-29,-2.46171e-30,7.5553399999999993e-30
4841.0,2.4593e-29,-7.9945099999999999e-26,-7.9935200000000004e-26,-7.99439e-26,-1.13775e-29,-2.0532499999999999e-30,6.2229300000000001e-30
4842.0,2.3718400000000001e-29,-7.9947499999999996e-26,-7.99371e-26,-7.9945900000000006e-26,-1.1378899999999999e-29,-1.7364900000000002e-30,4.8586899999999998e-30
4843.0,2.262e-29,-7.9947999999999998e-26,-7.9937199999999998e-26,-7.99462e-26,-1.1153699999999999e-29,-1.33979e-30,3.2977999999999997e-30
4844.0,2.2431200000000001e-29,-7.9951200000000002e-26,-7.9939700000000005e-26,-7.9949e-26,-1.12822e-29,-8.7568199999999992e-31,1.5631000000000001e-30
4845.0,3.0039999999999998e-29,-7.99479e-26,-7.9935200000000004e-26,-7.99473e-26,-1.1572199999999999e-29,-3.4245200000000002e-30,1.0199999999999999e-29
4846.0,2.8839700000000001e-29,-7.9949199999999996e-26,-7.9936199999999995e-26,-7.9948300000000003e-26,-1.14157e-29,-3.0923599999999999e-30,9.1744399999999996e-30
4847.0,2.7935600000000002e-29,-7.9950700000000001e-26,-7.9936900000000004e-26,-7.9949500000000002e-26,-1.1372199999999999e-29,-2.7609300000000001e-30,8.0111400000000004e-30
4848.0,2.6975199999999999e-29,-7.9953099999999998e-26,-7.9938600000000004e-26,-7.9951499999999996e-26,-1.13317e-29,-2.4269e-30,6.7195099999999997e-30
4849.0,2.5958599999999998e-29,-7.9954299999999997e-26,-7.9939100000000005e-26,-7.9952300000000003e-26,-1.11931e-29,-2.0412699999999998e-30,5.1967100000000002e-30
4850.0,2.5417000000000001e-29,-7.9957e-26,-7.9941000000000001e-26,-7.9954500000000004e-26,-1.12273e-29,-1.6837899999999999e-30,3.6036299999999999e-30
4851.0,2.41713e-29,-7.9957199999999995e-26,-7.9941199999999997e-26,-7.9954600000000002e-26,-1.07656e-29,-1.3615900000000001e-30,1.91698e-30
4852.0,3.0486699999999998e-29,-7.9905399999999998e-26,-7.9922700000000004e-26,-7.9905200000000002e-26,-1.3297499999999999e-29,-8.8248000000000002e-31,5.6077700000000003e-30
4853.0,3.06539e-29,-7.9903500000000002e-26,-7.9921899999999997e-26,-7.9902699999999995e-26,-1.3071500000000001e-29,3.6169200000000001e-32,4.886e-30
4854.0,3.0997299999999998e-29,-7.9903300000000006e-26,-7.9924500000000002e-26,-7.9903699999999997e-26,-1.2673299999999999e-29,3.7585699999999998e-31,3.4952399999999998e-30
4855.0,3.1421000000000002e-29,-7.9901600000000005e-26,-7.9924099999999999e-26,-7.9900999999999995e-26,-1.21587e-29,1.02452e-30,2.77345e-30
4856.0,3.22624e-29,-7.9901600000000005e-26,-7.9926800000000001e-26,-7.9902400000000001e-26,-1.17593e-29,1.1763399999999999e-30,1.44474e-30
4857.0,3.25422e-29,-7.9900100000000001e-26,-7.9926100000000004e-26,-7.9899900000000005e-26,-1.11466e-29,1.45459e-30,7.9241600000000007e-31
4858.0,3.3911899999999999e-29,-7.9900600000000003e-26,-7.9929199999999999e-26,-7.9901600000000005e-26,-1.08741e-29,1.2166e-30,-3.67527e-31
4859.0,2.9076599999999999e-29,-7.9912899999999995e-26,-7.9924199999999996e-26,-7.9912199999999998e-26,-1.3567299999999999e-29,-1.29307e-30,7.1077099999999999e-30
4860.0,2.8614100000000001e-29,-7.9912799999999997e-26,-7.9925600000000003e-26,-7.9912600000000001e-26,-1.3393e-29,-9.2366299999999998e-31,6.15246e-30
4861.0,2.8210399999999998e-29,-7.9911599999999999e-26,-7.9925600000000003e-26,-7.9911199999999995e-26,-1.3106599999999999e-29,-2.4638699999999998e-31,5.0650499999999999e-30
4862.0,2.7931699999999997e-29,-7.9912199999999998e-26,-7.9927599999999997e-26,-7.9912199999999998e-26,-1.2836700000000001e-29,1.5157599999999999e-31,3.9840399999999997e-30
4863.0,2.7655e-29,-7.9911099999999997e-26,-7.9927400000000001e-26,-7.9910900000000001e-26,-1.24982e-29,5.3025199999999999e-31,2.8896300000000001e-30
4864.0,2.7684900000000002e-29,-7.99121e-26,-7.9930000000000006e-26,-7.9912500000000003e-26,-1.2161500000000001e-29,7.0015200000000002e-31,1.69298e-30
4865.0,2.7114699999999998e-29,-7.9911099999999997e-26,-7.9928500000000001e-26,-7.9910900000000001e-26,-1.1871199999999999e-29,1.0279800000000001e-30,5.2852500000000004e-31
4866.0,2.8338300000000001e-29,-7.9921399999999996e-26,-7.9927099999999995e-26,-7.9920899999999994e-26,-1.3584099999999999e-29,-1.9722099999999999e-30,8.1991499999999993e-30
4867.0,2.73206e-29,-7.9920400000000004e-26,-7.9927400000000001e-26,-7.9920000000000001e-26,-1.33688e-29,-1.45146e-30,7.12866e-30
4868.0,2.6547799999999999e-29,-7.9921100000000002e-26,-7.9928799999999995e-26,-7.9920699999999998e-26,-1.3259500000000001e-29,-9.33484e-31,6.1083599999999999e-30
4869.0,2.5774499999999998e-29,-7.9920500000000002e-26,-7.9929000000000003e-26,-7.9920199999999997e-26,-1.30948e-29,-4.9034400000000004e-31,4.9553299999999999e-30
4870.0,2.50143e-29,-7.9921799999999999e-26,-7.9930999999999997e-26,-7.9921600000000003e-26,-1.2871200000000001e-29,-1.21178e-31,3.7590099999999998e-30
4871.0,2.4280899999999999e-29,-7.9921299999999998e-26,-7.9930600000000005e-26,-7.9921000000000004e-26,-1.26666e-29,1.6923300000000001e-31,2.45743e-30
4872.0,2.4192200000000001e-29,-7.9922800000000002e-26,-7.99337e-26,-7.9923099999999996e-26,-1.24572e-29,3.4145e-31,1.0323399999999999e-30
4873.0,2.8087100000000002e-29,-7.9928699999999997e-26,-7.9929399999999995e-26,-7.9928099999999998e-26,-1.33412e-29,-2.4248099999999999e-30,8.8723399999999999e-30
4874.0,2.7010700000000001e-29,-7.9928900000000005e-26,-7.9930200000000002e-26,-7.9928300000000005e-26,-1.32626e-29,-1.9632499999999998e-30,7.9054600000000003e-30
4875.0,2.5902500000000002e-29,-7.9928699999999997e-26,-7.9930700000000003e-26,-7.9928300000000005e-26,-1.3163800000000001e-29,-1.4773e-30,6.8197899999999999e-30
4876.0,2.4884500000000001e-29,-7.9930100000000004e-26,-7.9932300000000005e-26,-7.9929600000000002e-26,-1.30851e-29,-1.0658899999999999e-30,5.6506799999999997e-30
4877.0,2.38408e-29,-7.9930100000000004e-26,-7.9932500000000001e-26,-7.9929600000000002e-26,-1.29475e-29,-6.8994699999999998e-31,4.3509999999999997e-30
4878.0,2.2985100000000001e-29,-7.9932e-26,-7.99348e-26,-7.9931599999999996e-26,-1.2809700000000001e-29,-3.6268100000000001e-31,2.9668699999999999e-30
4879.0,2.2216199999999999e-29,-7.9931800000000004e-26,-7.99337e-26,-7.9930800000000001e-26,-1.26517e-29,-2.0762000000000001e-32,1.4959900000000001e-30
4880.0,2.84938e-29,-7.9935900000000001e-26,-7.9931900000000002e-26,-7.99354e-26,-1.3026299999999999e-29,-2.7781099999999999e-30,9.4031200000000004e-30
4881.0,2.7284900000000002e-29,-7.9935800000000003e-26,-7.9932300000000005e-26,-7.9935300000000002e-26,-1.2947099999999999e-29,-2.3902800000000002e-30,8.4366800000000003e-30
4882.0,2.6132800000000003e-29,-7.99371e-26,-7.9933500000000004e-26,-7.9936300000000005e-26,-1.2920299999999999e-29,-1.9567100000000002e-30,7.3115900000000006e-30
4883.0,2.5013399999999999e-29,-7.9937600000000001e-26,-7.9934100000000003e-26,-7.9936900000000004e-26,-1.28651e-29,-1.5443100000000001e-30,6.1090599999999998e-30
4884.0,2.40098e-29,-7.9939599999999995e-26,-7.9935900000000001e-26,-7.9938600000000004e-26,-1.2816800000000001e-29,-1.1902300000000001e-30,4.7859200000000003e-30
4885.0,2.2929000000000001e-29,-7.9939900000000001e-26,-7.9935999999999999e-26,-7.99388e-26,-1.26281e-29,-8.5920200000000008e-31,3.3068099999999999e-30
4886.0,2.2301900000000001e-29,-7.9942100000000002e-26,-7.9938899999999998e-26,-7.9941199999999997e-26,-1.2646499999999999e-29,-4.7787599999999998e-31,1.6700700000000001e-30
4887.0,2.9407599999999999e-29,-7.99422e-26,-7.9934000000000005e-26,-7.9941600000000001e-26,-1.2731600000000001e-29,-3.0932799999999999e-30,9.7830699999999993e-30
4888.0,2.8165800000000002e-29,-7.9942899999999997e-26,-7.9934700000000002e-26,-7.9942100000000002e-26,-1.2640200000000001e-29,-2.7012499999999999e-30,8.7888999999999994e-30
4889.0,2.71855e-29,-7.9943800000000002e-26,-7.9935499999999998e-26,-7.9942899999999997e-26,-1.26563e-29,-2.3242e-30,7.7455900000000001e-30
4890.0,2.6148200000000003e-29,-7.9945699999999998e-26,-7.9937000000000002e-26,-7.99445e-26,-1.26378e-29,-1.99166e-30,6.4958199999999998e-30
4891.0,2.5022799999999999e-29,-7.9946600000000003e-26,-7.9937600000000001e-26,-7.9945299999999995e-26,-1.2514200000000001e-29,-1.5931400000000001e-30,5.0853100000000001e-30
4892.0,2.4244e-29,-7.9948900000000002e-26,-7.9939700000000005e-26,-7.99473e-26,-1.2527e-29,-1.26685e-30,3.5997599999999999e-30
4893.0,2.32653e-29,-7.9949400000000004e-26,-7.9939300000000001e-26,-7.99473e-26,-1.21335e-29,-9.8857200000000005e-31,1.9822400000000001e-30
4894.0,3.0194900000000003e-29,-7.9946999999999995e-26,-7.9935700000000005e-26,-7.9946299999999998e-26,-1.2440700000000001e-29,-3.2057000000000003e-30,9.9358999999999995e-30
4895.0,2.9612099999999998e-29,-7.9948300000000003e-26,-7.9936500000000001e-26,-7.99473e-26,-1.24704e-29,-3.0043200000000001e-30,9.23776e-30
4896.0,2.8488499999999999e-29,-7.9949900000000005e-26,-7.9937699999999999e-26,-7.9948699999999995e-26,-1.23909e-29,-2.6342e-30,8.0621000000000006e-30
4897.0,2.7585899999999998e-29,-7.9951499999999996e-26,-7.9938600000000004e-26,-7.9950000000000003e-26,-1.2360099999999999e-29,-2.2819499999999999e-30,6.8079999999999994e-30
4898.0,2.66471e-29,-7.9953699999999997e-26,-7.9940300000000004e-26,-7.9951700000000003e-26,-1.23265e-29,-1.9717799999999999e-30,5.3802600000000002e-30
4899.0,2.54653e-29,-7.9954500000000004e-26,-7.9940699999999996e-26,-7.9952400000000001e-26,-1.20126e-29,-1.57029e-30,3.7631200000000002e-30
4900.0,2.5315199999999997e-29,-7.9957500000000001e-26,-7.9943100000000005e-26,-7.9954799999999998e-26,-1.2246400000000001e-29,-1.0998000000000001e-30,1.9934000000000001e-30
4901.0,3.0516100000000001e-29,-7.9972999999999998e-26,-7.9941699999999999e-26,-7.9967899999999997e-26,-4.9050700000000003e-30,-1.6126399999999999e-30,1.11203e-30
4902.0,3.6734300000000001e-29,-7.99848e-26,-7.9946899999999997e-26,-7.9978099999999998e-26,-5.7995600000000002e-30,-1.86606e-30,1.6738799999999999e-30
4903.0,3.1687199999999997e-29,-7.9973400000000001e-26,-7.9942000000000004e-26,-7.9968999999999998e-26,-5.2592399999999997e-30,-1.9568100000000001e-30,3.7205799999999998e-30
4904.0,3.6690000000000003e-29,-7.9982099999999997e-26,-7.9945099999999999e-26,-7.9976100000000004e-26,-5.76806e-30,-2.4287100000000001e-30,3.9859700000000001e-30
4905.0,3.1617799999999998e-29,-7.9970299999999995e-26,-7.9940300000000004e-26,-7.9966400000000005e-26,-5.1974000000000001e-30,-2.5398299999999999e-30,5.8331200000000002e-30
4906.0,3.7496899999999998e-29,-7.9981200000000004e-26,-7.9945299999999995e-26,-7.9976399999999998e-26,-6.0488599999999997e-30,-2.7161899999999999e-30,6.6809600000000002e-30
4907.0,3.3235800000000002e-29,-7.9969400000000002e-26,-7.9939999999999999e-26,-7.9966899999999995e-26,-5.4626500000000002e-30,-2.7957500000000001e-30,8.0525700000000004e-30
4908.0,3.7767499999999997e-29,-7.9976899999999999e-26,-7.9942799999999999e-26,-7.9973200000000005e-26,-5.9327399999999997e-30,-3.3265100000000003e-30,8.9284900000000002e-30
4909.0,3.2998200000000002e-29,-7.9965099999999997e-26,-7.9938000000000005e-26,-7.9963100000000003e-26,-5.3598200000000001e-30,-3.4182499999999997e-30,9.7376200000000007e-30
4910.0,3.8520199999999997e-29,-7.9974299999999994e-26,-7.9942000000000004e-26,-7.9972399999999998e-26,-6.1251000000000001e-30,-3.5946600000000002e-30,1.07983e-29
4911.0,3.47553e-29,-7.9963000000000005e-26,-7.9937000000000002e-26,-7.9962699999999999e-26,-5.5655100000000002e-30,-3.6229800000000003e-30,1.15946e-29
4912.0,3.7974399999999998e-29,-7.9968499999999997e-26,-7.9939399999999999e-26,-7.9967399999999996e-26,-5.8786799999999998e-30,-4.1093399999999999e-30,1.25368e-29
4913.0,3.37268e-29,-7.9958600000000002e-26,-7.9935300000000002e-26,-7.9958500000000004e-26,-5.3895100000000001e-30,-4.2490100000000003e-30,1.23218e-29
4914.0,3.8479299999999999e-29,-7.9964100000000005e-26,-7.9937000000000002e-26,-7.9964999999999999e-26,-6.0012400000000002e-30,-4.3448700000000001e-30,1.36409e-29
4915.0,3.1334699999999999e-29,-7.9974699999999998e-26,-7.9943300000000001e-26,-7.9969400000000002e-26,-6.2832299999999998e-30,-1.70179e-30,1.5752599999999999e-30
4916.0,3.6345100000000001e-29,-7.9983199999999998e-26,-7.9946299999999998e-26,-7.9976700000000003e-26,-6.7891300000000004e-30,-2.05038e-30,1.5751400000000001e-30
4917.0,3.0944799999999998e-29,-7.9971500000000005e-26,-7.9941600000000001e-26,-7.9967100000000002e-26,-6.3890400000000001e-30,-2.1504500000000001e-30,3.6579100000000002e-30
4918.0,3.69438e-29,-7.99831e-26,-7.9946799999999999e-26,-7.9977200000000005e-26,-7.0393899999999994e-30,-2.53469e-30,4.3044899999999998e-30
4919.0,3.1931000000000002e-29,-7.9970900000000006e-26,-7.9941500000000003e-26,-7.99672e-26,-6.5457000000000003e-30,-2.5548800000000002e-30,5.8991e-30
4920.0,3.7340299999999999e-29,-7.9979899999999996e-26,-7.9944900000000003e-26,-7.9975000000000003e-26,-7.1690500000000002e-30,-3.01559e-30,6.68051e-30
4921.0,3.2398399999999998e-29,-7.9967399999999996e-26,-7.9939599999999995e-26,-7.9964599999999995e-26,-6.6450200000000003e-30,-3.02254e-30,7.8785899999999997e-30
4922.0,3.8024400000000002e-29,-7.9977900000000002e-26,-7.9944300000000004e-26,-7.9974199999999996e-26,-7.2729299999999994e-30,-3.4557899999999999e-30,8.8978300000000007e-30
4923.0,3.32595e-29,-7.99655e-26,-7.9938999999999996e-26,-7.9963700000000002e-26,-6.7042999999999994e-30,-3.4052500000000001e-30,9.6471600000000001e-30
4924.0,3.83934e-29,-7.9973300000000003e-26,-7.9941899999999995e-26,-7.9970900000000006e-26,-7.3598000000000003e-30,-3.9129500000000002e-30,1.08577e-29
4925.0,3.3594399999999998e-29,-7.9961400000000002e-26,-7.9936900000000004e-26,-7.99604e-26,-6.7913499999999996e-30,-3.8386000000000003e-30,1.11203e-29
4926.0,3.8498400000000001e-29,-7.9969499999999999e-26,-7.9940599999999998e-26,-7.9968599999999995e-26,-7.3526100000000002e-30,-4.2874200000000003e-30,1.23053e-29
4927.0,3.421e-29,-7.9958600000000002e-26,-7.9935800000000003e-26,-7.99587e-26,-6.83555e-30,-4.1675000000000001e-30,1.2303399999999999e-29
4928.0,3.8012499999999997e-29,-7.99638e-26,-7.9938000000000005e-26,-7.9963899999999998e-26,-7.4132799999999998e-30,-4.68767e-30,1.3509100000000001e-29
4929.0,2.9914199999999999e-29,-7.9971700000000001e-26,-7.9942999999999995e-26,-7.9967100000000002e-26,-7.4739299999999995e-30,-1.71655e-30,1.52943e-30
4930.0,3.5901599999999999e-29,-7.99837e-26,-7.9948099999999996e-26,-7.9977300000000003e-26,-7.8158600000000003e-30,-2.14988e-30,2.0709499999999999e-30
4931.0,3.0926500000000003e-29,-7.9971899999999997e-26,-7.9943100000000005e-26,-7.9967600000000003e-26,-7.6422899999999999e-30,-2.1791899999999999e-30,3.8037500000000001e-30
4932.0,3.6141999999999999e-29,-7.9980800000000001e-26,-7.9946299999999998e-26,-7.9975199999999999e-26,-8.1616799999999996e-30,-2.6515300000000001e-30,4.3647499999999997e-30
4933.0,3.1262299999999999e-29,-7.9968700000000004e-26,-7.9941299999999995e-26,-7.9965199999999995e-26,-7.7956600000000006e-30,-2.66398e-30,5.8624900000000002e-30
4934.0,3.68891e-29,-7.9979799999999998e-26,-7.99462e-26,-7.9975000000000003e-26,-8.3129300000000006e-30,-3.1311500000000002e-30,6.7098000000000003e-30
4935.0,3.2052400000000002e-29,-7.9967299999999998e-26,-7.9940900000000003e-26,-7.9964599999999995e-26,-7.8796900000000007e-30,-3.0525999999999999e-30,7.7485599999999997e-30
4936.0,3.75353e-29,-7.9976100000000004e-26,-7.9944200000000006e-26,-7.9972399999999998e-26,-8.5135000000000004e-30,-3.6290300000000003e-30,8.8996300000000002e-30
4937.0,3.26966e-29,-7.9963600000000004e-26,-7.99388e-26,-7.9961699999999996e-26,-8.0136500000000004e-30,-3.5100800000000002e-30,9.4474699999999994e-30
4938.0,3.8051299999999998e-29,-7.9973099999999996e-26,-7.9943100000000005e-26,-7.9970699999999998e-26,-8.5702000000000004e-30,-4.0243700000000002e-30,1.0682600000000001e-29
4939.0,3.3244800000000001e-29,-7.9960999999999999e-26,-7.9937899999999995e-26,-7.9959999999999996e-26,-8.0758100000000001e-30,-3.8682599999999997e-30,1.08419e-29
4940.0,3.8223100000000001e-29,-7.9968399999999999e-26,-7.9940800000000005e-26,-7.9967000000000004e-26,-8.71813e-30,-4.50965e-30,1.22234e-29
4941.0,3.3581700000000002e-29,-7.9957400000000003e-26,-7.9936099999999997e-26,-7.9957099999999998e-26,-8.2086599999999996e-30,-4.2252799999999999e-30,1.19181e-29
4942.0,3.8061400000000002e-29,-7.9963700000000002e-26,-7.99388e-26,-7.9963499999999994e-26,-8.8184300000000001e-30,-4.77962e-30,1.33062e-29
4943.0,3.0055800000000002e-29,-7.99723e-26,-7.99445e-26,-7.9967299999999998e-26,-8.6400899999999994e-30,-1.75575e-30,1.90204e-30
4944.0,3.4155599999999998e-29,-7.99797e-26,-7.99473e-26,-7.9973900000000002e-26,-9.0848500000000003e-30,-2.12614e-30,2.10818e-30
4945.0,2.9778800000000001e-29,-7.9968700000000004e-26,-7.9942700000000001e-26,-7.9964900000000001e-26,-8.8617100000000002e-30,-2.2083899999999998e-30,3.862e-30
4946.0,3.5031300000000003e-29,-7.9979799999999998e-26,-7.9947599999999994e-26,-7.9974400000000004e-26,-9.1606300000000005e-30,-2.6701399999999998e-30,4.4976800000000003e-30
4947.0,3.0596699999999998e-29,-7.9967799999999999e-26,-7.9942399999999996e-26,-7.9964499999999997e-26,-8.98727e-30,-2.62061e-30,5.8008800000000003e-30
4948.0,3.5767500000000003e-29,-7.9976899999999999e-26,-7.9945900000000006e-26,-7.9972399999999998e-26,-9.4910299999999997e-30,-3.1962e-30,6.7368199999999995e-30
4949.0,3.1399099999999999e-29,-7.9964800000000003e-26,-7.9940599999999998e-26,-7.9962199999999998e-26,-9.16026e-30,-3.0957700000000001e-30,7.6436499999999998e-30
4950.0,3.6552299999999999e-29,-7.9974799999999996e-26,-7.9945099999999999e-26,-7.9971299999999998e-26,-9.6186700000000006e-30,-3.63496e-30,8.7345300000000002e-30
4951.0,3.2007999999999997e-29,-7.9962600000000001e-26,-7.9939800000000003e-26,-7.9960700000000005e-26,-9.2177300000000003e-30,-3.4407199999999998e-30,9.1872399999999994e-30
4952.0,3.7260200000000001e-29,-7.9971000000000004e-26,-7.9943100000000005e-26,-7.9968599999999995e-26,-9.83695e-30,-4.1301299999999999e-30,1.05368e-29
4953.0,3.2752299999999999e-29,-7.9959100000000003e-26,-7.9937899999999995e-26,-7.9958000000000002e-26,-9.3787999999999996e-30,-3.8921400000000002e-30,1.0577600000000001e-29
4954.0,3.7549899999999998e-29,-7.9967399999999996e-26,-7.9941699999999999e-26,-7.9965900000000003e-26,-9.9532500000000006e-30,-4.4436800000000001e-30,1.1957e-29
4955.0,3.3109300000000002e-29,-7.99564e-26,-7.9936799999999994e-26,-7.9955800000000001e-26,-9.4918e-30,-4.1434900000000002e-30,1.1551399999999999e-29
4956.0,3.7577100000000002e-29,-7.9962400000000005e-26,-7.9939300000000001e-26,-7.9961900000000004e-26,-1.01612e-29,-4.8529300000000001e-30,1.30338e-29
4957.0,2.7860900000000002e-29,-7.9967500000000005e-26,-7.9944200000000006e-26,-7.99638e-26,-9.7854799999999998e-30,-1.6718699999999999e-30,1.9467999999999999e-30
4958.0,3.27678e-29,-7.9978199999999996e-26,-7.9948499999999999e-26,-7.9972700000000004e-26,-9.8591299999999998e-30,-2.1394299999999998e-30,2.4859300000000001e-30
4959.0,2.91217e-29,-7.9967500000000005e-26,-7.99439e-26,-7.9963899999999998e-26,-1.00328e-29,-2.1164399999999998e-30,3.9269599999999998e-30
4960.0,3.3242899999999999e-29,-7.9975399999999995e-26,-7.9946999999999995e-26,-7.9970799999999996e-26,-1.0417200000000001e-29,-2.6217299999999999e-30,4.5800600000000003e-30
4961.0,2.9748000000000001e-29,-7.9964599999999995e-26,-7.9942100000000002e-26,-7.9961699999999996e-26,-1.0212099999999999e-29,-2.6054800000000001e-30,5.8125899999999998e-30
4962.0,3.4292200000000002e-29,-7.9974400000000004e-26,-7.9946600000000003e-26,-7.9970500000000002e-26,-1.05726e-29,-3.13361e-30,6.6413200000000004e-30
4963.0,3.05826e-29,-7.9963000000000005e-26,-7.9941500000000003e-26,-7.9960700000000005e-26,-1.03315e-29,-2.9683699999999999e-30,7.47515e-30
4964.0,3.5304700000000002e-29,-7.9971399999999996e-26,-7.9945000000000001e-26,-7.9968300000000001e-26,-1.08602e-29,-3.65745e-30,8.6218800000000004e-30
4965.0,3.14681e-29,-7.9959999999999996e-26,-7.9939599999999995e-26,-7.9958299999999996e-26,-1.04857e-29,-3.4111799999999998e-30,8.9977800000000002e-30
4966.0,3.6156699999999997e-29,-7.9968800000000002e-26,-7.9943700000000004e-26,-7.9966600000000001e-26,-1.1036599999999999e-29,-3.98717e-30,1.0269499999999999e-29
4967.0,3.2128200000000003e-29,-7.9957599999999999e-26,-7.9938600000000004e-26,-7.99564e-26,-1.0594700000000001e-29,-3.6833199999999999e-30,1.02518e-29
4968.0,3.6720399999999999e-29,-7.9964999999999999e-26,-7.9941899999999995e-26,-7.9963600000000004e-26,-1.12284e-29,-4.4657800000000003e-30,1.1649699999999999e-29
4969.0,3.26994e-29,-7.9954600000000002e-26,-7.9937000000000002e-26,-7.9953900000000005e-26,-1.0739299999999999e-29,-4.0674299999999997e-30,1.12032e-29
4970.0,3.6910900000000001e-29,-7.9960800000000003e-26,-7.9939999999999999e-26,-7.9960099999999994e-26,-1.14817e-29,-4.6276599999999998e-30,1.26848e-29
4971.0,2.8171099999999998e-29,-7.9966600000000001e-26,-7.9945000000000001e-26,-7.9962600000000001e-26,-1.1129600000000001e-29,-1.6128500000000001e-30,2.2007600000000002e-30
4972.0,3.0083200000000003e-29,-7.9971700000000001e-26,-7.99479e-26,-7.9967700000000001e-26,-1.1358800000000001e-29,-1.8688800000000001e-30,2.48579e-30
4973.0,2.79622e-29,-7.9963200000000001e-26,-7.9943399999999999e-26,-7.9960300000000002e-26,-1.11972e-29,-2.0458699999999999e-30,4.0352700000000002e-30
4974.0,3.1614100000000001e-29,-7.99723e-26,-7.9947599999999994e-26,-7.9968200000000003e-26,-1.1390700000000001e-29,-2.5182799999999999e-30,4.6168200000000002e-30
4975.0,2.9041000000000002e-29,-7.9962400000000005e-26,-7.9942899999999997e-26,-7.99598e-26,-1.13691e-29,-2.47161e-30,5.7917499999999999e-30
4976.0,3.2751799999999999e-29,-7.9969800000000005e-26,-7.99462e-26,-7.9966600000000001e-26,-1.18122e-29,-3.07061e-30,6.6658600000000002e-30
4977.0,3.0116100000000001e-29,-7.99598e-26,-7.9941199999999997e-26,-7.9957799999999995e-26,-1.15641e-29,-2.9217600000000001e-30,7.4359400000000005e-30
4978.0,3.3980099999999998e-29,-7.9968200000000003e-26,-7.9945299999999995e-26,-7.99655e-26,-1.20465e-29,-3.4445699999999998e-30,8.4383299999999997e-30
4979.0,3.1002700000000001e-29,-7.9957900000000004e-26,-7.9940199999999995e-26,-7.9956300000000002e-26,-1.16617e-29,-3.1987999999999997e-30,8.8335300000000001e-30
4980.0,3.5105800000000001e-29,-7.9965300000000004e-26,-7.9943599999999995e-26,-7.9963399999999996e-26,-1.22815e-29,-3.9459900000000003e-30,1.00408e-29
4981.0,3.1932999999999999e-29,-7.9955299999999999e-26,-7.9938600000000004e-26,-7.9954199999999999e-26,-1.1789999999999999e-29,-3.5896999999999999e-30,1.00362e-29
4982.0,3.5884100000000001e-29,-7.9962400000000005e-26,-7.99422e-26,-7.9960999999999999e-26,-1.2496400000000001e-29,-4.1645899999999997e-30,1.13496e-29
4983.0,3.2389399999999999e-29,-7.9953e-26,-7.9937500000000003e-26,-7.9952099999999995e-26,-1.18773e-29,-3.7401400000000001e-30,1.08697e-29
4984.0,3.6301400000000003e-29,-7.9958600000000002e-26,-7.9940300000000004e-26,-7.9957799999999995e-26,-1.2680300000000001e-29,-4.5178100000000003e-30,1.22972e-29
4985.0,2.6123199999999998e-29,-7.99615e-26,-7.9944900000000003e-26,-7.9958899999999996e-26,-1.18419e-29,-1.5268099999999999e-30,2.2566600000000001e-30
4986.0,2.9472999999999997e-29,-7.9968499999999997e-26,-7.9947100000000004e-26,-7.9964200000000003e-26,-1.22624e-29,-1.8736399999999999e-30,2.7166999999999999e-30
4987.0,2.7839300000000002e-29,-7.9961099999999997e-26,-7.9943800000000002e-26,-7.9958400000000006e-26,-1.2283599999999999e-29,-1.9234799999999999e-30,4.0995999999999999e-30
4988.0,2.9887600000000001e-29,-7.9966099999999999e-26,-7.9946799999999999e-26,-7.9963200000000001e-26,-1.27104e-29,-2.3337999999999999e-30,4.76787e-30
4989.0,2.8711600000000002e-29,-7.9958899999999996e-26,-7.9942500000000006e-26,-7.9956800000000004e-26,-1.24519e-29,-2.3262700000000001e-30,5.8746799999999997e-30
4990.0,3.1571099999999999e-29,-7.9965300000000004e-26,-7.9945799999999996e-26,-7.9962600000000001e-26,-1.30124e-29,-2.7819000000000001e-30,6.6572999999999995e-30
4991.0,2.9837500000000001e-29,-7.9957300000000005e-26,-7.9941400000000005e-26,-7.9955499999999995e-26,-1.25889e-29,-2.6795999999999999e-30,7.4052900000000002e-30
4992.0,3.2993299999999998e-29,-7.9963299999999998e-26,-7.9944599999999998e-26,-7.9961199999999995e-26,-1.3293e-29,-3.3197299999999999e-30,8.3986899999999999e-30
4993.0,3.0944700000000002e-29,-7.9955200000000001e-26,-7.9939999999999999e-26,-7.9953900000000005e-26,-1.2711100000000001e-29,-3.1197099999999999e-30,8.7669700000000006e-30
4994.0,3.43507e-29,-7.9961099999999997e-26,-7.9943200000000003e-26,-7.9959600000000004e-26,-1.3543699999999999e-29,-3.5885399999999998e-30,9.9298399999999995e-30
4995.0,3.1726900000000001e-29,-7.9953199999999996e-26,-7.99388e-26,-7.9952200000000005e-26,-1.2741900000000001e-29,-3.28077e-30,9.8666200000000001e-30
4996.0,3.5284999999999998e-29,-7.9958799999999998e-26,-7.9941799999999997e-26,-7.9957599999999999e-26,-1.3661599999999999e-29,-4.00762e-30,1.1066200000000001e-29
4997.0,3.2271299999999998e-29,-7.9951399999999998e-26,-7.9937500000000003e-26,-7.9950500000000005e-26,-1.2706500000000001e-29,-3.6044200000000001e-30,1.06059e-29
4998.0,3.5839299999999997e-29,-7.9956099999999995e-26,-7.99405e-26,-7.9955299999999999e-26,-1.37774e-29,-4.1946400000000003e-30,1.19815e-29
4999.0,3.4206100000000001e-29,-7.9908000000000002e-26,-7.9923400000000001e-26,-7.9907099999999998e-26,-1.58979e-29,1.0689299999999999e-31,7.2979899999999999e-30
5000.0,3.4538099999999999e-29,-7.9907500000000001e-26,-7.9923800000000005e-26,-7.9905100000000004e-26,-1.5758e-29,1.0804099999999999e-30,6.7125900000000005e-30
5001.0,3.4885900000000002e-29,-7.9907500000000001e-26,-7.9926200000000002e-26,-7.99064e-26,-1.57098e-29,2.1458799999999999e-30,5.5328899999999997e-30
5002.0,3.4857500000000002e-29,-7.9905800000000001e-26,-7.9926200000000002e-26,-7.99047e-26,-1.51178e-29,2.68345e-30,4.7580900000000002e-30
5003.0,3.5000099999999998e-29,-7.9905999999999997e-26,-7.9928799999999995e-26,-7.9905899999999999e-26,-1.46537e-29,2.9358999999999999e-30,3.3728999999999999e-30
5004.0,3.48658e-29,-7.9904000000000003e-26,-7.9928699999999997e-26,-7.9904399999999995e-26,-1.38366e-29,3.0464300000000001e-30,2.3452099999999999e-30
5005.0,3.5153299999999998e-29,-7.99047e-26,-7.99314e-26,-7.9905899999999999e-26,-1.33563e-29,2.4559499999999999e-30,8.3796199999999996e-31
5006.0,3.2100299999999997e-29,-7.9906200000000004e-26,-7.99223e-26,-7.9904500000000004e-26,-1.4307999999999999e-29,-5.9900600000000003e-32,6.5376600000000002e-30
5007.0,3.24385e-29,-7.9905700000000003e-26,-7.9924299999999994e-26,-7.9905499999999996e-26,-1.4345600000000001e-29,4.1804099999999997e-31,5.2688300000000003e-30
5008.0,3.2686600000000003e-29,-7.9904299999999997e-26,-7.9924199999999996e-26,-7.9903099999999998e-26,-1.3908299999999999e-29,1.3081799999999999e-30,4.62225e-30
5009.0,3.3115899999999999e-29,-7.9904299999999997e-26,-7.9926800000000001e-26,-7.9904399999999995e-26,-1.3582600000000001e-29,1.7007e-30,3.2984699999999997e-30
5010.0,3.3279799999999997e-29,-7.9902599999999997e-26,-7.9926499999999996e-26,-7.9902300000000003e-26,-1.2883799999999999e-29,2.0687100000000002e-30,2.5311999999999999e-30
5011.0,3.3901400000000003e-29,-7.9902900000000002e-26,-7.9929100000000001e-26,-7.9903599999999999e-26,-1.2452800000000001e-29,1.96983e-30,1.1981600000000001e-30
5012.0,3.3825699999999998e-29,-7.99013e-26,-7.9928099999999998e-26,-7.9901600000000005e-26,-1.1815200000000001e-29,2.1314900000000001e-30,3.4529200000000001e-31
5013.0,3.3998e-29,-7.9917399999999996e-26,-7.9926200000000002e-26,-7.99155e-26,-1.6394800000000001e-29,-9.1826600000000003e-31,9.0920200000000004e-30
5014.0,3.4031200000000001e-29,-7.9917399999999996e-26,-7.9927900000000002e-26,-7.9916000000000001e-26,-1.66232e-29,1.01323e-31,8.2069700000000003e-30
5015.0,3.39849e-29,-7.9916600000000001e-26,-7.9928400000000003e-26,-7.9915199999999995e-26,-1.6689400000000001e-29,8.1913699999999992e-31,7.3086999999999993e-30
5016.0,3.3486099999999998e-29,-7.9917000000000004e-26,-7.9930499999999995e-26,-7.9916299999999995e-26,-1.64158e-29,1.4792500000000001e-30,6.16002e-30
5017.0,3.28162e-29,-7.9915800000000006e-26,-7.9930700000000003e-26,-7.99155e-26,-1.6002200000000001e-29,1.81563e-30,4.8857499999999997e-30
5018.0,3.2136899999999999e-29,-7.9916400000000005e-26,-7.9933000000000002e-26,-7.9916899999999995e-26,-1.5472600000000001e-29,1.8821999999999999e-30,3.4150799999999997e-30
5019.0,3.15165e-29,-7.9914599999999995e-26,-7.9932400000000003e-26,-7.99155e-26,-1.4933999999999999e-29,2.0073799999999998e-30,1.8231700000000001e-30
5020.0,3.10242e-29,-7.9914700000000005e-26,-7.9925600000000003e-26,-7.9913999999999996e-26,-1.47546e-29,-1.0710600000000001e-30,7.7203500000000004e-30
5021.0,3.0880499999999999e-29,-7.9913999999999996e-26,-7.9925999999999995e-26,-7.9912899999999995e-26,-1.4743000000000001e-29,-3.5531199999999999e-31,6.8843299999999994e-30
5022.0,3.0561700000000001e-29,-7.9914200000000003e-26,-7.9927800000000004e-26,-7.9913700000000002e-26,-1.45839e-29,2.5190199999999999e-31,5.8801100000000002e-30
5023.0,3.0270100000000003e-29,-7.9913200000000001e-26,-7.9928e-26,-7.9912699999999999e-26,-1.4343399999999999e-29,7.3987599999999998e-31,4.8307700000000001e-30
5024.0,2.9933399999999998e-29,-7.99138e-26,-7.9930200000000002e-26,-7.9913999999999996e-26,-1.3982600000000001e-29,1.0629599999999999e-30,3.6256499999999997e-30
5025.0,2.9466000000000002e-29,-7.9912699999999999e-26,-7.9929799999999998e-26,-7.9912699999999999e-26,-1.3574699999999999e-29,1.2920699999999999e-30,2.3934499999999999e-30
5026.0,2.9600699999999998e-29,-7.9913700000000002e-26,-7.9932799999999995e-26,-7.9914700000000005e-26,-1.3181799999999999e-29,1.21545e-30,1.01272e-30
5027.0,3.4175300000000001e-29,-7.9926100000000004e-26,-7.9929799999999998e-26,-7.9924699999999998e-26,-1.6583700000000001e-29,-1.7907000000000001e-30,1.0215e-29
5028.0,3.4244800000000001e-29,-7.9925899999999997e-26,-7.9930700000000003e-26,-7.9924500000000002e-26,-1.7027999999999999e-29,-9.9139499999999993e-31,9.4611899999999996e-30
5029.0,3.3664300000000002e-29,-7.99263e-26,-7.9932400000000003e-26,-7.9925299999999997e-26,-1.7102500000000001e-29,-2.65864e-31,8.4089399999999998e-30
5030.0,3.2964500000000001e-29,-7.9925999999999995e-26,-7.99331e-26,-7.9925299999999997e-26,-1.70577e-29,2.4717000000000001e-31,7.2623700000000001e-30
5031.0,3.17889e-29,-7.9926600000000005e-26,-7.9934999999999996e-26,-7.9926600000000005e-26,-1.6694599999999999e-29,6.8692500000000001e-31,5.8429599999999998e-30
5032.0,3.0682000000000002e-29,-7.9925700000000001e-26,-7.9935099999999994e-26,-7.9925899999999997e-26,-1.6319900000000001e-29,8.9786099999999993e-31,4.2399800000000002e-30
5033.0,2.92824e-29,-7.9926800000000001e-26,-7.9937699999999999e-26,-7.9927599999999997e-26,-1.55705e-29,9.3572800000000005e-31,2.4136100000000001e-30
5034.0,3.0576099999999997e-29,-7.9922700000000004e-26,-7.9928e-26,-7.9921799999999999e-26,-1.48369e-29,-1.7387399999999999e-30,8.7899800000000005e-30
5035.0,3.0032900000000001e-29,-7.99229e-26,-7.9929199999999999e-26,-7.9922100000000004e-26,-1.48737e-29,-1.11374e-30,7.9343000000000004e-30
5036.0,2.9516499999999999e-29,-7.9922499999999996e-26,-7.9929799999999998e-26,-7.9921799999999999e-26,-1.48987e-29,-5.9689499999999997e-31,6.9583899999999999e-30
5037.0,2.8685400000000002e-29,-7.9923300000000003e-26,-7.9931599999999996e-26,-7.99229e-26,-1.4721300000000001e-29,-8.0656499999999998e-32,5.8002100000000003e-30
5038.0,2.7921999999999997e-29,-7.9922800000000002e-26,-7.9931800000000004e-26,-7.9922599999999994e-26,-1.4536700000000001e-29,2.3323800000000001e-31,4.5586799999999999e-30
5039.0,2.70488e-29,-7.9924000000000001e-26,-7.9934100000000003e-26,-7.9924199999999996e-26,-1.4166400000000001e-29,5.0486400000000001e-31,3.12103e-30
5040.0,2.6333900000000002e-29,-7.9923200000000005e-26,-7.99331e-26,-7.9923099999999996e-26,-1.3968900000000001e-29,8.1680900000000008e-31,1.5997500000000001e-30
5041.0,3.4542499999999998e-29,-7.9933899999999996e-26,-7.9932599999999999e-26,-7.9932900000000004e-26,-1.63842e-29,-2.5270899999999999e-30,1.10657e-29
5042.0,3.41838e-29,-7.9934399999999997e-26,-7.9934100000000003e-26,-7.9933399999999994e-26,-1.6831900000000001e-29,-1.8745499999999999e-30,1.01207e-29
5043.0,3.3625799999999999e-29,-7.9934600000000004e-26,-7.9935099999999994e-26,-7.9933799999999998e-26,-1.7045500000000001e-29,-1.29319e-30,9.1769499999999996e-30
5044.0,3.2475399999999999e-29,-7.99354e-26,-7.9936900000000004e-26,-7.9934999999999996e-26,-1.6968999999999999e-29,-7.5587100000000002e-31,7.87785e-30
5045.0,3.12083e-29,-7.9935300000000002e-26,-7.9937500000000003e-26,-7.9934999999999996e-26,-1.6768600000000001e-29,-4.21573e-31,6.4433299999999997e-30
5046.0,2.9364299999999999e-29,-7.9936400000000003e-26,-7.9939499999999997e-26,-7.9936500000000001e-26,-1.6191499999999999e-29,-6.2465299999999999e-32,4.6942399999999999e-30
5047.0,2.8273199999999999e-29,-7.9935499999999998e-26,-7.99388e-26,-7.9935300000000002e-26,-1.5970699999999999e-29,3.1564799999999999e-31,2.7439800000000001e-30
5048.0,3.0522699999999999e-29,-7.9930499999999995e-26,-7.9930899999999999e-26,-7.9929799999999998e-26,-1.4633300000000001e-29,-2.31581e-30,9.5279600000000003e-30
5049.0,2.99314e-29,-7.9930499999999995e-26,-7.9931499999999998e-26,-7.9929799999999998e-26,-1.4776600000000001e-29,-1.82436e-30,8.7268399999999993e-30
5050.0,2.9013299999999999e-29,-7.9931300000000002e-26,-7.9932900000000004e-26,-7.9930700000000003e-26,-1.4805700000000001e-29,-1.2889699999999999e-30,7.6374300000000006e-30
5051.0,2.8145900000000003e-29,-7.99314e-26,-7.9933600000000002e-26,-7.9930899999999999e-26,-1.4795400000000001e-29,-8.9140900000000001e-31,6.5072900000000002e-30
5052.0,2.6941599999999999e-29,-7.9932799999999995e-26,-7.9935499999999998e-26,-7.9932400000000003e-26,-1.4583499999999999e-29,-4.8907899999999998e-31,5.1275500000000003e-30
5053.0,2.5888999999999998e-29,-7.9932599999999999e-26,-7.99354e-26,-7.9932099999999998e-26,-1.4392399999999999e-29,-2.05456e-31,3.6340800000000002e-30
5054.0,2.49402e-29,-7.9934200000000001e-26,-7.9938299999999999e-26,-7.9934299999999999e-26,-1.4065800000000001e-29,4.7319500000000002e-32,1.9695999999999999e-30
5055.0,3.4867100000000002e-29,-7.9941299999999995e-26,-7.9935499999999998e-26,-7.99405e-26,-1.5940199999999999e-29,-3.1250799999999999e-30,1.14701e-29
5056.0,3.44396e-29,-7.9941799999999997e-26,-7.9936699999999996e-26,-7.9941099999999999e-26,-1.6334499999999999e-29,-2.58051e-30,1.06922e-29
5057.0,3.34989e-29,-7.9942799999999999e-26,-7.9938299999999999e-26,-7.9942100000000002e-26,-1.65238e-29,-2.10809e-30,9.5193300000000006e-30
5058.0,3.2332000000000001e-29,-7.9943300000000001e-26,-7.9939300000000001e-26,-7.9942700000000001e-26,-1.64845e-29,-1.7024999999999999e-30,8.3046199999999996e-30
5059.0,3.0553300000000003e-29,-7.9944599999999998e-26,-7.9941000000000001e-26,-7.9943999999999998e-26,-1.6165200000000001e-29,-1.2670699999999999e-30,6.6809099999999997e-30
5060.0,2.9039999999999998e-29,-7.9944599999999998e-26,-7.9941199999999997e-26,-7.9943800000000002e-26,-1.5905999999999999e-29,-9.1733899999999998e-31,4.9000800000000001e-30
5061.0,2.6735500000000001e-29,-7.9945699999999998e-26,-7.9943599999999995e-26,-7.9945299999999995e-26,-1.50987e-29,-5.6781000000000003e-31,2.9478899999999999e-30
5062.0,3.0885300000000001e-29,-7.9937500000000003e-26,-7.9933199999999998e-26,-7.9936900000000004e-26,-1.42551e-29,-2.81624e-30,1.00733e-29
5063.0,3.00288e-29,-7.9938100000000003e-26,-7.9934299999999999e-26,-7.9937400000000005e-26,-1.4405199999999999e-29,-2.35492e-30,9.1255600000000005e-30
5064.0,2.9197399999999999e-29,-7.9938700000000002e-26,-7.9935099999999994e-26,-7.9938000000000005e-26,-1.4499e-29,-1.93401e-30,8.16309e-30
5065.0,2.8004500000000002e-29,-7.9940199999999995e-26,-7.9936699999999996e-26,-7.9939399999999999e-26,-1.4440499999999999e-29,-1.52062e-30,6.8817799999999996e-30
5066.0,2.6848699999999999e-29,-7.9940699999999996e-26,-7.9937299999999996e-26,-7.9939800000000003e-26,-1.4333399999999999e-29,-1.19256e-30,5.5097099999999998e-30
5067.0,2.5518199999999999e-29,-7.9942399999999996e-26,-7.9939399999999999e-26,-7.9941600000000001e-26,-1.40993e-29,-7.8068100000000002e-31,3.9001499999999997e-30
5068.0,2.4700500000000001e-29,-7.9942500000000006e-26,-7.9938600000000004e-26,-7.9941099999999999e-26,-1.3943399999999999e-29,-4.1703999999999999e-31,2.2190999999999999e-30
5069.0,3.5328399999999999e-29,-7.9947599999999994e-26,-7.9937799999999997e-26,-7.9946899999999997e-26,-1.5269200000000001e-29,-3.5933100000000002e-30,1.18372e-29
5070.0,3.4583699999999999e-29,-7.9948699999999995e-26,-7.9939200000000003e-26,-7.9947800000000002e-26,-1.5601100000000001e-29,-3.1894700000000001e-30,1.08472e-29
5071.0,3.3582399999999998e-29,-7.9949699999999998e-26,-7.9940400000000002e-26,-7.9948900000000002e-26,-1.5676099999999999e-29,-2.7694200000000001e-30,9.8026100000000004e-30
5072.0,3.2103600000000002e-29,-7.9951200000000002e-26,-7.9942000000000004e-26,-7.9950299999999997e-26,-1.5571299999999999e-29,-2.4006699999999999e-30,8.3513800000000005e-30
5073.0,3.0524e-29,-7.9952099999999995e-26,-7.9942799999999999e-26,-7.9950899999999997e-26,-1.5324799999999999e-29,-2.0414999999999999e-30,6.8156399999999997e-30
5074.0,2.8385600000000001e-29,-7.9953300000000005e-26,-7.9944599999999998e-26,-7.9951999999999997e-26,-1.48287e-29,-1.54307e-30,4.9205799999999999e-30
5075.0,2.75935e-29,-7.9953500000000001e-26,-7.9943599999999995e-26,-7.9951399999999998e-26,-1.47497e-29,-1.02631e-30,2.8553200000000001e-30
5076.0,3.1335099999999998e-29,-7.99439e-26,-7.9935499999999998e-26,-7.9943100000000005e-26,-1.38116e-29,-3.1700000000000001e-30,1.02548e-29
5077.0,3.0713200000000001e-29,-7.9944599999999998e-26,-7.9936300000000005e-26,-7.9943800000000002e-26,-1.3954100000000001e-29,-2.8055299999999999e-30,9.5465700000000004e-30
5078.0,2.9656800000000001e-29,-7.9946000000000004e-26,-7.9937600000000001e-26,-7.9945000000000001e-26,-1.3985799999999999e-29,-2.42831e-30,8.4122799999999999e-30
5079.0,2.8597899999999999e-29,-7.9947100000000004e-26,-7.9938600000000004e-26,-7.9946000000000004e-26,-1.3956799999999999e-29,-2.0766100000000001e-30,7.2103300000000002e-30
5080.0,2.7251200000000001e-29,-7.9948900000000002e-26,-7.9940199999999995e-26,-7.9947599999999994e-26,-1.37959e-29,-1.6728300000000001e-30,5.7059200000000003e-30
5081.0,2.61502e-29,-7.99496e-26,-7.99405e-26,-7.9947999999999998e-26,-1.36435e-29,-1.30871e-30,4.08229e-30
5082.0,2.4866399999999999e-29,-7.99513e-26,-7.9943200000000003e-26,-7.9950000000000003e-26,-1.34617e-29,-9.3044599999999997e-31,2.29794e-30
5083.0,3.56054e-29,-7.9952699999999995e-26,-7.9939599999999995e-26,-7.9951899999999999e-26,-1.46127e-29,-3.96601e-30,1.1805099999999999e-29
5084.0,3.48766e-29,-7.9954199999999999e-26,-7.9940900000000003e-26,-7.9953300000000005e-26,-1.4674900000000001e-29,-3.5902700000000003e-30,1.10321e-29
5085.0,3.3838299999999998e-29,-7.9955999999999997e-26,-7.9942100000000002e-26,-7.9954799999999998e-26,-1.4693100000000001e-29,-3.2901899999999999e-30,9.7877099999999996e-30
5086.0,3.24943e-29,-7.9957699999999997e-26,-7.9943499999999997e-26,-7.9956200000000004e-26,-1.45158e-29,-2.9072400000000001e-30,8.4864e-30
5087.0,3.0737399999999998e-29,-7.9959200000000001e-26,-7.9944900000000003e-26,-7.9957400000000003e-26,-1.4231900000000001e-29,-2.52623e-30,6.7115099999999994e-30
5088.0,2.9377600000000001e-29,-7.9960300000000002e-26,-7.9945199999999997e-26,-7.9957799999999995e-26,-1.39398e-29,-2.0373899999999999e-30,4.8722300000000001e-30
5089.0,2.69605e-29,-7.9960599999999996e-26,-7.99473e-26,-7.99587e-26,-1.3416800000000001e-29,-1.5140700000000001e-30,2.9107399999999999e-30
5090.0,3.1928100000000002e-29,-7.9948499999999999e-26,-7.99371e-26,-7.99479e-26,-1.3282300000000001e-29,-3.3634100000000003e-30,1.05358e-29
5091.0,3.1346400000000002e-29,-7.9949900000000005e-26,-7.9938000000000005e-26,-7.9948900000000002e-26,-1.3462e-29,-3.1447600000000001e-30,9.6529300000000005e-30
5092.0,3.05091e-29,-7.9951399999999998e-26,-7.9939200000000003e-26,-7.9950299999999997e-26,-1.3449800000000001e-29,-2.8084100000000001e-30,8.7089799999999997e-30
5093.0,2.9323699999999997e-29,-7.9953300000000005e-26,-7.9940599999999998e-26,-7.9951800000000001e-26,-1.33788e-29,-2.4638e-30,7.3132799999999998e-30
5094.0,2.8189999999999999e-29,-7.99547e-26,-7.9941500000000003e-26,-7.9952900000000002e-26,-1.3251300000000001e-29,-2.0791300000000001e-30,5.8353100000000002e-30
5095.0,2.6913099999999999e-29,-7.9956300000000002e-26,-7.9943200000000003e-26,-7.9954399999999995e-26,-1.3080999999999999e-29,-1.65004e-30,4.1847400000000003e-30
5096.0,2.6321499999999998e-29,-7.9957599999999999e-26,-7.9942999999999995e-26,-7.99547e-26,-1.2788699999999999e-29,-1.3025300000000001e-30,2.4667300000000001e-30
